*NODE, NSET=NALL
1, 2.66453526e-15, -12, 78.5
2, 2, -12, 78.5
3, 2, -12.0171103, 78.7610524
4, 2.6683345e-15, -12.0171103, 78.7610524
5, 2.66453526e-15, -12, 71.5
6, 2, -12, 71.5
7, 2, -12.0681483, 79.0176381
8, 2.67966723e-15, -12.0681483, 79.0176381
9, 2.69833954e-15, -12.1522409, 79.2653669
10, 2.72403193e-15, -12.2679492, 79.5
11, 2.75630481e-15, -12.4132933, 79.7175229
12, 2.79460598e-15, -12.5857864, 79.9142136
13, 2.83828009e-15, -12.7824771, 80.0867067
14, 2.88657986e-15, -13, 80.2320508
15, 2.93867889e-15, -13.2346331, 80.3477591
16, 2.99368572e-15, -13.4823619, 80.4318517
17, 3.0506592e-15, -13.7389476, 80.4828897
18, 3.10862447e-15, -14, 80.5
19, 6.66133815e-15, -30, 80.5
20, 6.71930342e-15, -30.2610524, 80.4828897
21, 6.77627689e-15, -30.5176381, 80.4318517
22, 6.83128373e-15, -30.7653669, 80.3477591
23, 6.88338275e-15, -31, 80.2320508
24, 6.93168253e-15, -31.2175229, 80.0867067
25, 6.97535664e-15, -31.4142136, 79.9142136
26, 7.01365781e-15, -31.5867067, 79.7175229
27, 7.04593069e-15, -31.7320508, 79.5
28, 7.07162308e-15, -31.8477591, 79.2653669
29, 7.09029538e-15, -31.9318517, 79.0176381
30, 7.10162811e-15, -31.9828897, 78.7610524
31, 7.10542736e-15, -32, 78.5
32, 7.10542736e-15, -32, 71.5
33, 7.10162811e-15, -31.9828897, 71.2389476
34, 7.09029538e-15, -31.9318517, 70.9823619
35, 7.07162308e-15, -31.8477591, 70.7346331
36, 7.04593069e-15, -31.7320508, 70.5
37, 7.01365781e-15, -31.5867067, 70.2824771
38, 6.97535664e-15, -31.4142136, 70.0857864
39, 6.93168253e-15, -31.2175229, 69.9132933
40, 6.88338275e-15, -31, 69.7679492
41, 6.83128373e-15, -30.7653669, 69.6522409
42, 6.77627689e-15, -30.5176381, 69.5681483
43, 6.71930342e-15, -30.2610524, 69.5171103
44, 6.66133815e-15, -30, 69.5
45, 3.10862447e-15, -14, 69.5
46, 3.0506592e-15, -13.7389476, 69.5171103
47, 2.99368572e-15, -13.4823619, 69.5681483
48, 2.93867889e-15, -13.2346331, 69.6522409
49, 2.88657986e-15, -13, 69.7679492
50, 2.83828009e-15, -12.7824771, 69.9132933
51, 2.79460598e-15, -12.5857864, 70.0857864
52, 2.75630481e-15, -12.4132933, 70.2824771
53, 2.72403193e-15, -12.2679492, 70.5
54, 2.69833954e-15, -12.1522409, 70.7346331
55, 2.67966723e-15, -12.0681483, 70.9823619
56, 2.6683345e-15, -12.0171103, 71.2389476
57, 6.66133815e-15, -30, 73.65
58, 3.10862447e-15, -14, 73.65
59, 6.66133815e-15, -30, 78.65
60, 3.10862447e-15, -14, 78.65
61, 2, -12.1522409, 79.2653669
62, 2, -12.2679492, 79.5
63, 2, -12.4132933, 79.7175229
64, 2, -12.5857864, 79.9142136
65, 2, -12.7824771, 80.0867067
66, 2, -13, 80.2320508
67, 2, -13.2346331, 80.3477591
68, 2, -13.4823619, 80.4318517
69, 2, -13.7389476, 80.4828897
70, 2, -14, 80.5
71, 2, -30, 80.5
72, 2, -30.2610524, 80.4828897
73, 2, -30.5176381, 80.4318517
74, 2, -30.7653669, 80.3477591
75, 2, -31, 80.2320508
76, 2, -31.2175229, 80.0867067
77, 2, -31.4142136, 79.9142136
78, 2, -31.5867067, 79.7175229
79, 2, -31.7320508, 79.5
80, 2, -31.8477591, 79.2653669
81, 2, -31.9318517, 79.0176381
82, 2, -31.9828897, 78.7610524
83, 2, -32, 78.5
84, 2, -32, 71.5
85, 2, -31.9828897, 71.2389476
86, 2, -31.9318517, 70.9823619
87, 2, -31.8477591, 70.7346331
88, 2, -31.7320508, 70.5
89, 2, -31.5867067, 70.2824771
90, 2, -31.4142136, 70.0857864
91, 2, -31.2175229, 69.9132933
92, 2, -31, 69.7679492
93, 2, -30.7653669, 69.6522409
94, 2, -30.5176381, 69.5681483
95, 2, -30.2610524, 69.5171103
96, 2, -30, 69.5
97, 2, -14, 69.5
98, 2, -13.7389476, 69.5171103
99, 2, -13.4823619, 69.5681483
100, 2, -13.2346331, 69.6522409
101, 2, -13, 69.7679492
102, 2, -12.7824771, 69.9132933
103, 2, -12.5857864, 70.0857864
104, 2, -12.4132933, 70.2824771
105, 2, -12.2679492, 70.5
106, 2, -12.1522409, 70.7346331
107, 2, -12.0681483, 70.9823619
108, 2, -12.0171103, 71.2389476
109, 2, -30, 73.65
110, 2, -14, 73.65
111, 2, -30, 78.65
112, 2, -14, 78.65
113, 0.666666667, -12, 78.5
114, 1.33333333, -12, 78.5
115, 0.333333333, -12, 78.5
116, 1, -12, 78.5
117, 1.66666667, -12, 78.5
118, 2, -12.0085551, 78.6305262
119, 0.666666667, -12.0171103, 78.7610524
120, 1.33333333, -12.0171103, 78.7610524
121, 0.333333333, -12.0171103, 78.7610524
122, 1, -12.0171103, 78.7610524
123, 1.66666667, -12.0171103, 78.7610524
124, 2.66643488e-15, -12.0085551, 78.6305262
125, 0.666666667, -12, 71.5
126, 1.33333333, -12, 71.5
127, 0.333333333, -12, 71.5
128, 1, -12, 71.5
129, 1.66666667, -12, 71.5
130, 2, -12, 72.2777778
131, 2, -12, 73.0555556
132, 2, -12, 73.8333333
133, 2, -12, 74.6111111
134, 2, -12, 75.3888889
135, 2, -12, 76.1666667
136, 2, -12, 76.9444444
137, 2, -12, 77.7222222
138, 2, -12, 71.8888889
139, 2, -12, 72.6666667
140, 2, -12, 73.4444444
141, 2, -12, 74.2222222
142, 2, -12, 75
143, 2, -12, 75.7777778
144, 2, -12, 76.5555556
145, 2, -12, 77.3333333
146, 2, -12, 78.1111111
147, 2.66453526e-15, -12, 72.2777778
148, 2.66453526e-15, -12, 73.0555556
149, 2.66453526e-15, -12, 73.8333333
150, 2.66453526e-15, -12, 74.6111111
151, 2.66453526e-15, -12, 75.3888889
152, 2.66453526e-15, -12, 76.1666667
153, 2.66453526e-15, -12, 76.9444444
154, 2.66453526e-15, -12, 77.7222222
155, 2.66453526e-15, -12, 71.8888889
156, 2.66453526e-15, -12, 72.6666667
157, 2.66453526e-15, -12, 73.4444444
158, 2.66453526e-15, -12, 74.2222222
159, 2.66453526e-15, -12, 75
160, 2.66453526e-15, -12, 75.7777778
161, 2.66453526e-15, -12, 76.5555556
162, 2.66453526e-15, -12, 77.3333333
163, 2.66453526e-15, -12, 78.1111111
164, 2, -12.0426293, 78.8893452
165, 0.666666667, -12.0681483, 79.0176381
166, 1.33333333, -12.0681483, 79.0176381
167, 0.333333333, -12.0681483, 79.0176381
168, 1, -12.0681483, 79.0176381
169, 1.66666667, -12.0681483, 79.0176381
170, 2.67400087e-15, -12.0426293, 78.8893452
171, 2.68900338e-15, -12.1101946, 79.1415025
172, 2.71118573e-15, -12.2100951, 79.3826834
173, 2.74016837e-15, -12.3406213, 79.6087614
174, 2.77545539e-15, -12.4995399, 79.8158682
175, 2.81644303e-15, -12.6841318, 80.0004601
176, 2.86242998e-15, -12.8912386, 80.1593787
177, 2.91262937e-15, -13.1173166, 80.2899049
178, 2.9661823e-15, -13.3584975, 80.3898054
179, 3.02217246e-15, -13.6106548, 80.4573707
180, 3.07964183e-15, -13.8694738, 80.4914449
181, 3.28626015e-15, -14.8, 80.5
182, 3.46389584e-15, -15.6, 80.5
183, 3.64153152e-15, -16.4, 80.5
184, 3.8191672e-15, -17.2, 80.5
185, 3.99680289e-15, -18, 80.5
186, 4.17443857e-15, -18.8, 80.5
187, 4.35207426e-15, -19.6, 80.5
188, 4.52970994e-15, -20.4, 80.5
189, 4.70734562e-15, -21.2, 80.5
190, 4.88498131e-15, -22, 80.5
191, 5.06261699e-15, -22.8, 80.5
192, 5.24025268e-15, -23.6, 80.5
193, 5.41788836e-15, -24.4, 80.5
194, 5.59552404e-15, -25.2, 80.5
195, 5.77315973e-15, -26, 80.5
196, 5.95079541e-15, -26.8, 80.5
197, 6.1284311e-15, -27.6, 80.5
198, 6.30606678e-15, -28.4, 80.5
199, 6.48370246e-15, -29.2, 80.5
200, 3.19744231e-15, -14.4, 80.5
201, 3.37507799e-15, -15.2, 80.5
202, 3.55271368e-15, -16, 80.5
203, 3.73034936e-15, -16.8, 80.5
204, 3.90798505e-15, -17.6, 80.5
205, 4.08562073e-15, -18.4, 80.5
206, 4.26325641e-15, -19.2, 80.5
207, 4.4408921e-15, -20, 80.5
208, 4.61852778e-15, -20.8, 80.5
209, 4.79616347e-15, -21.6, 80.5
210, 4.97379915e-15, -22.4, 80.5
211, 5.15143483e-15, -23.2, 80.5
212, 5.32907052e-15, -24, 80.5
213, 5.5067062e-15, -24.8, 80.5
214, 5.68434189e-15, -25.6, 80.5
215, 5.86197757e-15, -26.4, 80.5
216, 6.03961325e-15, -27.2, 80.5
217, 6.21724894e-15, -28, 80.5
218, 6.39488462e-15, -28.8, 80.5
219, 6.57252031e-15, -29.6, 80.5
220, 6.69032078e-15, -30.1305262, 80.4914449
221, 6.74779016e-15, -30.3893452, 80.4573707
222, 6.80378031e-15, -30.6415025, 80.3898054
223, 6.85733324e-15, -30.8826834, 80.2899049
224, 6.90753264e-15, -31.1087614, 80.1593787
225, 6.95351958e-15, -31.3158682, 80.0004601
226, 6.99450722e-15, -31.5004601, 79.8158682
227, 7.02979425e-15, -31.6593787, 79.6087614
228, 7.05877688e-15, -31.7899049, 79.3826834
229, 7.08095923e-15, -31.8898054, 79.1415025
230, 7.09596175e-15, -31.9573707, 78.8893452
231, 7.10352774e-15, -31.9914449, 78.6305262
232, 7.10542736e-15, -32, 77.7222222
233, 7.10542736e-15, -32, 76.9444444
234, 7.10542736e-15, -32, 76.1666667
235, 7.10542736e-15, -32, 75.3888889
236, 7.10542736e-15, -32, 74.6111111
237, 7.10542736e-15, -32, 73.8333333
238, 7.10542736e-15, -32, 73.0555556
239, 7.10542736e-15, -32, 72.2777778
240, 7.10542736e-15, -32, 78.1111111
241, 7.10542736e-15, -32, 77.3333333
242, 7.10542736e-15, -32, 76.5555556
243, 7.10542736e-15, -32, 75.7777778
244, 7.10542736e-15, -32, 75
245, 7.10542736e-15, -32, 74.2222222
246, 7.10542736e-15, -32, 73.4444444
247, 7.10542736e-15, -32, 72.6666667
248, 7.10542736e-15, -32, 71.8888889
249, 7.10352774e-15, -31.9914449, 71.3694738
250, 7.09596175e-15, -31.9573707, 71.1106548
251, 7.08095923e-15, -31.8898054, 70.8584975
252, 7.05877688e-15, -31.7899049, 70.6173166
253, 7.02979425e-15, -31.6593787, 70.3912386
254, 6.99450722e-15, -31.5004601, 70.1841318
255, 6.95351958e-15, -31.3158682, 69.9995399
256, 6.90753264e-15, -31.1087614, 69.8406213
257, 6.85733324e-15, -30.8826834, 69.7100951
258, 6.80378031e-15, -30.6415025, 69.6101946
259, 6.74779016e-15, -30.3893452, 69.5426293
260, 6.69032078e-15, -30.1305262, 69.5085551
261, 6.48370246e-15, -29.2, 69.5
262, 6.30606678e-15, -28.4, 69.5
263, 6.1284311e-15, -27.6, 69.5
264, 5.95079541e-15, -26.8, 69.5
265, 5.77315973e-15, -26, 69.5
266, 5.59552404e-15, -25.2, 69.5
267, 5.41788836e-15, -24.4, 69.5
268, 5.24025268e-15, -23.6, 69.5
269, 5.06261699e-15, -22.8, 69.5
270, 4.88498131e-15, -22, 69.5
271, 4.70734562e-15, -21.2, 69.5
272, 4.52970994e-15, -20.4, 69.5
273, 4.35207426e-15, -19.6, 69.5
274, 4.17443857e-15, -18.8, 69.5
275, 3.99680289e-15, -18, 69.5
276, 3.8191672e-15, -17.2, 69.5
277, 3.64153152e-15, -16.4, 69.5
278, 3.46389584e-15, -15.6, 69.5
279, 3.28626015e-15, -14.8, 69.5
280, 6.57252031e-15, -29.6, 69.5
281, 6.39488462e-15, -28.8, 69.5
282, 6.21724894e-15, -28, 69.5
283, 6.03961325e-15, -27.2, 69.5
284, 5.86197757e-15, -26.4, 69.5
285, 5.68434189e-15, -25.6, 69.5
286, 5.5067062e-15, -24.8, 69.5
287, 5.32907052e-15, -24, 69.5
288, 5.15143483e-15, -23.2, 69.5
289, 4.97379915e-15, -22.4, 69.5
290, 4.79616347e-15, -21.6, 69.5
291, 4.61852778e-15, -20.8, 69.5
292, 4.4408921e-15, -20, 69.5
293, 4.26325641e-15, -19.2, 69.5
294, 4.08562073e-15, -18.4, 69.5
295, 3.90798505e-15, -17.6, 69.5
296, 3.73034936e-15, -16.8, 69.5
297, 3.55271368e-15, -16, 69.5
298, 3.37507799e-15, -15.2, 69.5
299, 3.19744231e-15, -14.4, 69.5
300, 3.07964183e-15, -13.8694738, 69.5085551
301, 3.02217246e-15, -13.6106548, 69.5426293
302, 2.9661823e-15, -13.3584975, 69.6101946
303, 2.91262937e-15, -13.1173166, 69.7100951
304, 2.86242998e-15, -12.8912386, 69.8406213
305, 2.81644303e-15, -12.6841318, 69.9995399
306, 2.77545539e-15, -12.4995399, 70.1841318
307, 2.74016837e-15, -12.3406213, 70.3912386
308, 2.71118573e-15, -12.2100951, 70.6173166
309, 2.68900338e-15, -12.1101946, 70.8584975
310, 2.67400087e-15, -12.0426293, 71.1106548
311, 2.66643488e-15, -12.0085551, 71.3694738
312, 4.21884749e-15, -30.675953, 73.4303695
313, 4.21884749e-15, -31.0940192, 72.8544318
314, 4.21884749e-15, -31.093715, 72.1446305
315, 4.21884749e-15, -30.675953, 71.5696305
316, 4.21884749e-15, -30, 71.35
317, 4.21884749e-15, -29.324047, 71.5696305
318, 4.21884749e-15, -28.906285, 72.1446305
319, 4.21884749e-15, -28.906285, 72.8553695
320, 4.21884749e-15, -29.324047, 73.4303695
321, 4.21884749e-15, -30.3553695, 73.593715
322, 4.21884749e-15, -30.9361992, 73.1678555
323, 4.21884749e-15, -31.149999, 72.4984826
324, 4.21884749e-15, -30.9330357, 71.8277319
325, 4.21884749e-15, -30.3553695, 71.406285
326, 4.21884749e-15, -29.6446305, 71.406285
327, 4.21884749e-15, -29.0696305, 71.824047
328, 4.21884749e-15, -28.85, 72.5
329, 4.21884749e-15, -29.0696305, 73.175953
330, 4.21884749e-15, -29.6446305, 73.593715
331, 4.21884749e-15, -14.675953, 73.4303695
332, 4.21884749e-15, -15.093715, 72.8553695
333, 4.21884749e-15, -15.093715, 72.1446305
334, 4.21884749e-15, -14.675953, 71.5696305
335, 4.21884749e-15, -14, 71.35
336, 4.21884749e-15, -13.324047, 71.5696305
337, 4.21884749e-15, -12.9067258, 72.1432766
338, 4.21884749e-15, -12.906285, 72.8553695
339, 4.21884749e-15, -13.324047, 73.4303695
340, 4.21884749e-15, -14.3553695, 73.593715
341, 4.21884749e-15, -14.9303695, 73.175953
342, 4.21884749e-15, -15.15, 72.5
343, 4.21884749e-15, -14.9303695, 71.824047
344, 4.21884749e-15, -14.3553695, 71.406285
345, 4.21884749e-15, -13.6446305, 71.406285
346, 4.21884749e-15, -13.0648032, 71.8307415
347, 4.21884749e-15, -12.8500004, 72.4990807
348, 4.21884749e-15, -13.0771495, 73.1861829
349, 4.21884749e-15, -13.6446305, 73.593715
350, 5.32907052e-15, -30.675953, 78.4303695
351, 5.32907052e-15, -31.093715, 77.8553695
352, 5.32907052e-15, -31.093715, 77.1446305
353, 5.32907052e-15, -30.675953, 76.5696305
354, 5.32907052e-15, -30, 76.35
355, 5.32907052e-15, -29.324047, 76.5696305
356, 5.32907052e-15, -28.906285, 77.1446305
357, 5.32907052e-15, -28.906285, 77.8553695
358, 5.32907052e-15, -29.324047, 78.4303695
359, 5.32907052e-15, -30.3553695, 78.593715
360, 5.32907052e-15, -30.9303695, 78.175953
361, 5.32907052e-15, -31.1499495, 77.5107745
362, 5.32907052e-15, -30.9303695, 76.824047
363, 5.32907052e-15, -30.3553695, 76.406285
364, 5.32907052e-15, -29.6446305, 76.406285
365, 5.32907052e-15, -29.0696305, 76.824047
366, 5.32907052e-15, -28.85, 77.5
367, 5.32907052e-15, -29.0696305, 78.175953
368, 5.32907052e-15, -29.6446305, 78.593715
369, 5.32907052e-15, -14.675953, 78.4303695
370, 5.32907052e-15, -15.093715, 77.8553695
371, 5.32907052e-15, -15.093715, 77.1446305
372, 5.32907052e-15, -14.675953, 76.5696305
373, 5.32907052e-15, -14, 76.35
374, 5.32907052e-15, -13.324047, 76.5696305
375, 5.32907052e-15, -12.906285, 77.1446305
376, 5.32907052e-15, -12.906285, 77.8553695
377, 5.32907052e-15, -13.324047, 78.4303695
378, 5.32907052e-15, -14.3553695, 78.593715
379, 5.32907052e-15, -14.9303695, 78.175953
380, 5.32907052e-15, -15.15, 77.5
381, 5.32907052e-15, -14.9303695, 76.824047
382, 5.32907052e-15, -14.3553695, 76.406285
383, 5.32907052e-15, -13.6446305, 76.406285
384, 5.32907052e-15, -13.0696305, 76.824047
385, 5.32907052e-15, -12.85, 77.5
386, 5.32907052e-15, -13.0696305, 78.175953
387, 5.32907052e-15, -13.6446305, 78.593715
388, 2, -12.1101946, 79.1415025
389, 2, -12.2100951, 79.3826834
390, 2, -12.3406213, 79.6087614
391, 2, -12.4995399, 79.8158682
392, 2, -12.6841318, 80.0004601
393, 2, -12.8912386, 80.1593787
394, 2, -13.1173166, 80.2899049
395, 2, -13.3584975, 80.3898054
396, 2, -13.6106548, 80.4573707
397, 2, -13.8694738, 80.4914449
398, 2, -14.8, 80.5
399, 2, -15.6, 80.5
400, 2, -16.4, 80.5
401, 2, -17.2, 80.5
402, 2, -18, 80.5
403, 2, -18.8, 80.5
404, 2, -19.6, 80.5
405, 2, -20.4, 80.5
406, 2, -21.2, 80.5
407, 2, -22, 80.5
408, 2, -22.8, 80.5
409, 2, -23.6, 80.5
410, 2, -24.4, 80.5
411, 2, -25.2, 80.5
412, 2, -26, 80.5
413, 2, -26.8, 80.5
414, 2, -27.6, 80.5
415, 2, -28.4, 80.5
416, 2, -29.2, 80.5
417, 2, -14.4, 80.5
418, 2, -15.2, 80.5
419, 2, -16, 80.5
420, 2, -16.8, 80.5
421, 2, -17.6, 80.5
422, 2, -18.4, 80.5
423, 2, -19.2, 80.5
424, 2, -20, 80.5
425, 2, -20.8, 80.5
426, 2, -21.6, 80.5
427, 2, -22.4, 80.5
428, 2, -23.2, 80.5
429, 2, -24, 80.5
430, 2, -24.8, 80.5
431, 2, -25.6, 80.5
432, 2, -26.4, 80.5
433, 2, -27.2, 80.5
434, 2, -28, 80.5
435, 2, -28.8, 80.5
436, 2, -29.6, 80.5
437, 2, -30.1305262, 80.4914449
438, 2, -30.3893452, 80.4573707
439, 2, -30.6415025, 80.3898054
440, 2, -30.8826834, 80.2899049
441, 2, -31.1087614, 80.1593787
442, 2, -31.3158682, 80.0004601
443, 2, -31.5004601, 79.8158682
444, 2, -31.6593787, 79.6087614
445, 2, -31.7899049, 79.3826834
446, 2, -31.8898054, 79.1415025
447, 2, -31.9573707, 78.8893452
448, 2, -31.9914449, 78.6305262
449, 2, -32, 77.7222222
450, 2, -32, 76.9444444
451, 2, -32, 76.1666667
452, 2, -32, 75.3888889
453, 2, -32, 74.6111111
454, 2, -32, 73.8333333
455, 2, -32, 73.0555556
456, 2, -32, 72.2777778
457, 2, -32, 78.1111111
458, 2, -32, 77.3343907
459, 2, -32, 76.5555556
460, 2, -32, 75.7777778
461, 2, -32, 75
462, 2, -32, 74.2222222
463, 2, -32, 73.4444444
464, 2, -32, 72.6666667
465, 2, -32, 71.8888889
466, 2, -31.9914449, 71.3694738
467, 2, -31.9573707, 71.1106548
468, 2, -31.8898054, 70.8584975
469, 2, -31.7899049, 70.6173166
470, 2, -31.6593787, 70.3912386
471, 2, -31.5004601, 70.1841318
472, 2, -31.3158682, 69.9995399
473, 2, -31.1087614, 69.8406213
474, 2, -30.8826834, 69.7100951
475, 2, -30.6415025, 69.6101946
476, 2, -30.3893452, 69.5426293
477, 2, -30.1305262, 69.5085551
478, 2, -29.2, 69.5
479, 2, -28.4, 69.5
480, 2, -27.6, 69.5
481, 2, -26.8, 69.5
482, 2, -26, 69.5
483, 2, -25.2, 69.5
484, 2, -24.4, 69.5
485, 2, -23.6, 69.5
486, 2, -22.8, 69.5
487, 2, -22, 69.5
488, 2, -21.2, 69.5
489, 2, -20.4, 69.5
490, 2, -19.6, 69.5
491, 2, -18.8, 69.5
492, 2, -18, 69.5
493, 2, -17.2, 69.5
494, 2, -16.4, 69.5
495, 2, -15.6, 69.5
496, 2, -14.8, 69.5
497, 2, -29.6, 69.5
498, 2, -28.8, 69.5
499, 2, -28, 69.5
500, 2, -27.2, 69.5
501, 2, -26.4, 69.5
502, 2, -25.6, 69.5
503, 2, -24.8, 69.5
504, 2, -24, 69.5
505, 2, -23.2, 69.5
506, 2, -22.4, 69.5
507, 2, -21.6, 69.5
508, 2, -20.8, 69.5
509, 2, -20, 69.5
510, 2, -19.2, 69.5
511, 2, -18.4, 69.5
512, 2, -17.6, 69.5
513, 2, -16.8, 69.5
514, 2, -16, 69.5
515, 2, -15.2, 69.5
516, 2, -14.4, 69.5
517, 2, -13.8694738, 69.5085551
518, 2, -13.6106548, 69.5426293
519, 2, -13.3584975, 69.6101946
520, 2, -13.1173166, 69.7100951
521, 2, -12.8912386, 69.8406213
522, 2, -12.6841318, 69.9995399
523, 2, -12.4995399, 70.1841318
524, 2, -12.3406213, 70.3912386
525, 2, -12.2100951, 70.6173166
526, 2, -12.1101946, 70.8584975
527, 2, -12.0426293, 71.1106548
528, 2, -12.0085551, 71.3694738
529, 2, -30.675953, 73.4303695
530, 2, -31.093715, 72.8553695
531, 2, -31.093715, 72.1446305
532, 2, -30.675953, 71.5696305
533, 2, -30, 71.35
534, 2, -29.324047, 71.5696305
535, 2, -28.906285, 72.1446305
536, 2, -28.906285, 72.8553695
537, 2, -29.324047, 73.4303695
538, 2, -30.3553695, 73.593715
539, 2, -30.9314842, 73.1744162
540, 2, -31.1499519, 72.4894793
541, 2, -30.9303695, 71.824047
542, 2, -30.3553695, 71.406285
543, 2, -29.6446305, 71.406285
544, 2, -29.0696305, 71.824047
545, 2, -28.85, 72.5
546, 2, -29.0696305, 73.175953
547, 2, -29.6446305, 73.593715
548, 2, -14.675953, 73.4303695
549, 2, -15.093715, 72.8553695
550, 2, -15.093715, 72.1446305
551, 2, -14.675953, 71.5696305
552, 2, -14, 71.35
553, 2, -13.324047, 71.5696305
554, 2, -12.906285, 72.1446305
555, 2, -12.906285, 72.8553695
556, 2, -13.324047, 73.4303695
557, 2, -14.3553695, 73.593715
558, 2, -14.9303695, 73.175953
559, 2, -15.15, 72.5
560, 2, -14.9303695, 71.824047
561, 2, -14.3553695, 71.406285
562, 2, -13.6446305, 71.406285
563, 2, -13.0696305, 71.824047
564, 2, -12.8500002, 72.499291
565, 2, -13.0729533, 73.1805031
566, 2, -13.6446305, 73.593715
567, 2, -30.675953, 78.4303695
568, 2, -31.093715, 77.8553695
569, 2, -31.093715, 77.1446305
570, 2, -30.675953, 76.5696305
571, 2, -30, 76.35
572, 2, -29.324047, 76.5696305
573, 2, -28.906285, 77.1446305
574, 2, -28.906285, 77.8553695
575, 2, -29.324047, 78.4303695
576, 2, -30.3553695, 78.593715
577, 2, -30.9304991, 78.1757747
578, 2, -31.15, 77.5001484
579, 2, -30.9261605, 76.8182914
580, 2, -30.3553695, 76.406285
581, 2, -29.6446305, 76.406285
582, 2, -29.0696305, 76.824047
583, 2, -28.85, 77.5
584, 2, -29.0696305, 78.175953
585, 2, -29.6446305, 78.593715
586, 2, -14.675953, 78.4303695
587, 2, -15.093715, 77.8553695
588, 2, -15.093715, 77.1446305
589, 2, -14.675953, 76.5696305
590, 2, -14, 76.35
591, 2, -13.324047, 76.5696305
592, 2, -12.906285, 77.1446305
593, 2, -12.906285, 77.8553695
594, 2, -13.324047, 78.4303695
595, 2, -14.3553695, 78.593715
596, 2, -14.9303695, 78.175953
597, 2, -15.15, 77.5
598, 2, -14.9303695, 76.824047
599, 2, -14.3553695, 76.406285
600, 2, -13.6446305, 76.406285
601, 2, -13.0696305, 76.824047
602, 2, -12.85, 77.5
603, 2, -13.0696305, 78.175953
604, 2, -13.6446305, 78.593715
605, 0.666666667, -12.0171103, 71.2389476
606, 1.33333333, -12.0171103, 71.2389476
607, 0.333333333, -12.0171103, 71.2389476
608, 1, -12.0171103, 71.2389476
609, 1.66666667, -12.0171103, 71.2389476
610, 0.666666667, -12.1522409, 79.2653669
611, 1.33333333, -12.1522409, 79.2653669
612, 0.333333333, -12.1522409, 79.2653669
613, 1, -12.1522409, 79.2653669
614, 1.66666667, -12.1522409, 79.2653669
615, 0.666666667, -12.0681483, 70.9823619
616, 1.33333333, -12.0681483, 70.9823619
617, 0.333333333, -12.0681483, 70.9823619
618, 1, -12.0681483, 70.9823619
619, 1.66666667, -12.0681483, 70.9823619
620, 0.666666667, -12.2679492, 79.5
621, 1.33333333, -12.2679492, 79.5
622, 0.333333333, -12.2679492, 79.5
623, 1, -12.2679492, 79.5
624, 1.66666667, -12.2679492, 79.5
625, 0.666666667, -12.1522409, 70.7346331
626, 1.33333333, -12.1522409, 70.7346331
627, 0.333333333, -12.1522409, 70.7346331
628, 1, -12.1522409, 70.7346331
629, 1.66666667, -12.1522409, 70.7346331
630, 0.666666667, -12.4132933, 79.7175229
631, 1.33333333, -12.4132933, 79.7175229
632, 0.333333333, -12.4132933, 79.7175229
633, 1, -12.4132933, 79.7175229
634, 1.66666667, -12.4132933, 79.7175229
635, 0.666666667, -12.2679492, 70.5
636, 1.33333333, -12.2679492, 70.5
637, 0.333333333, -12.2679492, 70.5
638, 1, -12.2679492, 70.5
639, 1.66666667, -12.2679492, 70.5
640, 0.666666667, -12.5857864, 79.9142136
641, 1.33333333, -12.5857864, 79.9142136
642, 0.333333333, -12.5857864, 79.9142136
643, 1, -12.5857864, 79.9142136
644, 1.66666667, -12.5857864, 79.9142136
645, 0.666666667, -12.4132933, 70.2824771
646, 1.33333333, -12.4132933, 70.2824771
647, 0.333333333, -12.4132933, 70.2824771
648, 1, -12.4132933, 70.2824771
649, 1.66666667, -12.4132933, 70.2824771
650, 0.666666667, -12.7824771, 80.0867067
651, 1.33333333, -12.7824771, 80.0867067
652, 0.333333333, -12.7824771, 80.0867067
653, 1, -12.7824771, 80.0867067
654, 1.66666667, -12.7824771, 80.0867067
655, 0.666666667, -12.5857864, 70.0857864
656, 1.33333333, -12.5857864, 70.0857864
657, 0.333333333, -12.5857864, 70.0857864
658, 1, -12.5857864, 70.0857864
659, 1.66666667, -12.5857864, 70.0857864
660, 0.666666667, -13, 80.2320508
661, 1.33333333, -13, 80.2320508
662, 0.333333333, -13, 80.2320508
663, 1, -13, 80.2320508
664, 1.66666667, -13, 80.2320508
665, 0.666666667, -12.7824771, 69.9132933
666, 1.33333333, -12.7824771, 69.9132933
667, 0.333333333, -12.7824771, 69.9132933
668, 1, -12.7824771, 69.9132933
669, 1.66666667, -12.7824771, 69.9132933
670, 0.666666667, -13.2346331, 80.3477591
671, 1.33333333, -13.2346331, 80.3477591
672, 0.333333333, -13.2346331, 80.3477591
673, 1, -13.2346331, 80.3477591
674, 1.66666667, -13.2346331, 80.3477591
675, 0.666666667, -13, 69.7679492
676, 1.33333333, -13, 69.7679492
677, 0.333333333, -13, 69.7679492
678, 1, -13, 69.7679492
679, 1.66666667, -13, 69.7679492
680, 0.666666667, -13.4823619, 80.4318517
681, 1.33333333, -13.4823619, 80.4318517
682, 0.333333333, -13.4823619, 80.4318517
683, 1, -13.4823619, 80.4318517
684, 1.66666667, -13.4823619, 80.4318517
685, 0.666666667, -13.2346331, 69.6522409
686, 1.33333333, -13.2346331, 69.6522409
687, 0.333333333, -13.2346331, 69.6522409
688, 1, -13.2346331, 69.6522409
689, 1.66666667, -13.2346331, 69.6522409
690, 0.666666667, -13.7389476, 80.4828897
691, 1.33333333, -13.7389476, 80.4828897
692, 0.333333333, -13.7389476, 80.4828897
693, 1, -13.7389476, 80.4828897
694, 1.66666667, -13.7389476, 80.4828897
695, 0.666666667, -13.4823619, 69.5681483
696, 1.33333333, -13.4823619, 69.5681483
697, 0.333333333, -13.4823619, 69.5681483
698, 1, -13.4823619, 69.5681483
699, 1.66666667, -13.4823619, 69.5681483
700, 0.666666667, -14, 80.5
701, 1.33333333, -14, 80.5
702, 0.333333333, -14, 80.5
703, 1, -14, 80.5
704, 1.66666667, -14, 80.5
705, 0.666666667, -13.7389476, 69.5171103
706, 1.33333333, -13.7389476, 69.5171103
707, 0.333333333, -13.7389476, 69.5171103
708, 1, -13.7389476, 69.5171103
709, 1.66666667, -13.7389476, 69.5171103
710, 0.666666667, -30, 80.5
711, 1.33333333, -30, 80.5
712, 0.333333333, -30, 80.5
713, 1, -30, 80.5
714, 1.66666667, -30, 80.5
715, 0.666666667, -14, 69.5
716, 1.33333333, -14, 69.5
717, 0.333333333, -14, 69.5
718, 1, -14, 69.5
719, 1.66666667, -14, 69.5
720, 0.666666667, -30.2610524, 80.4828897
721, 1.33333333, -30.2610524, 80.4828897
722, 0.333333333, -30.2610524, 80.4828897
723, 1, -30.2610524, 80.4828897
724, 1.66666667, -30.2610524, 80.4828897
725, 0.666666667, -30, 69.5
726, 1.33333333, -30, 69.5
727, 0.333333333, -30, 69.5
728, 1.00001923, -30, 69.5
729, 1.66666667, -30, 69.5
730, 0.666666667, -30.5176381, 80.4318517
731, 1.33333333, -30.5176381, 80.4318517
732, 0.333333333, -30.5176381, 80.4318517
733, 1, -30.5176381, 80.4318517
734, 1.66666667, -30.5176381, 80.4318517
735, 0.666666667, -30.2610524, 69.5171103
736, 1.33333333, -30.2610524, 69.5171103
737, 0.333333333, -30.2610524, 69.5171103
738, 1, -30.2610524, 69.5171103
739, 1.66666667, -30.2610524, 69.5171103
740, 0.666666667, -30.7653669, 80.3477591
741, 1.33333333, -30.7653669, 80.3477591
742, 0.333333333, -30.7653669, 80.3477591
743, 1, -30.7653669, 80.3477591
744, 1.66666667, -30.7653669, 80.3477591
745, 0.666666667, -30.5176381, 69.5681483
746, 1.33333333, -30.5176381, 69.5681483
747, 0.333333333, -30.5176381, 69.5681483
748, 1, -30.5176381, 69.5681483
749, 1.66666667, -30.5176381, 69.5681483
750, 0.666666667, -31, 80.2320508
751, 1.33333333, -31, 80.2320508
752, 0.333333333, -31, 80.2320508
753, 1, -31, 80.2320508
754, 1.66666667, -31, 80.2320508
755, 0.666666667, -30.7653669, 69.6522409
756, 1.33333333, -30.7653669, 69.6522409
757, 0.333333333, -30.7653669, 69.6522409
758, 1, -30.7653669, 69.6522409
759, 1.66666667, -30.7653669, 69.6522409
760, 0.666666667, -31.2175229, 80.0867067
761, 1.33333333, -31.2175229, 80.0867067
762, 0.333333333, -31.2175229, 80.0867067
763, 1, -31.2175229, 80.0867067
764, 1.66666667, -31.2175229, 80.0867067
765, 0.666666667, -31, 69.7679492
766, 1.33333333, -31, 69.7679492
767, 0.333333333, -31, 69.7679492
768, 1, -31, 69.7679492
769, 1.66666667, -31, 69.7679492
770, 0.666666667, -31.4142136, 79.9142136
771, 1.33333333, -31.4142136, 79.9142136
772, 0.333333333, -31.4142136, 79.9142136
773, 1, -31.4142136, 79.9142136
774, 1.66666667, -31.4142136, 79.9142136
775, 0.666666667, -31.2175229, 69.9132933
776, 1.33333333, -31.2175229, 69.9132933
777, 0.333333333, -31.2175229, 69.9132933
778, 1, -31.2175229, 69.9132933
779, 1.66666667, -31.2175229, 69.9132933
780, 0.666666667, -31.5867067, 79.7175229
781, 1.33333333, -31.5867067, 79.7175229
782, 0.333333333, -31.5867067, 79.7175229
783, 1, -31.5867067, 79.7175229
784, 1.66666667, -31.5867067, 79.7175229
785, 0.666666667, -31.4142136, 70.0857864
786, 1.33333333, -31.4142136, 70.0857864
787, 0.333333333, -31.4142136, 70.0857864
788, 1, -31.4142136, 70.0857864
789, 1.66666667, -31.4142136, 70.0857864
790, 0.666666667, -31.7320508, 79.5
791, 1.33333333, -31.7320508, 79.5
792, 0.333333333, -31.7320508, 79.5
793, 1, -31.7320508, 79.5
794, 1.66666667, -31.7320508, 79.5
795, 0.666666667, -31.5867067, 70.2824771
796, 1.33333333, -31.5867067, 70.2824771
797, 0.333333333, -31.5867067, 70.2824771
798, 1, -31.5867067, 70.2824771
799, 1.66666667, -31.5867067, 70.2824771
800, 0.666666667, -31.8477591, 79.2653669
801, 1.33333333, -31.8477591, 79.2653669
802, 0.333333333, -31.8477591, 79.2653669
803, 1, -31.8477591, 79.2653669
804, 1.66666667, -31.8477591, 79.2653669
805, 0.666666667, -31.7320508, 70.5
806, 1.33333333, -31.7320508, 70.5
807, 0.333333333, -31.7320508, 70.5
808, 1, -31.7320508, 70.5
809, 1.66666667, -31.7320508, 70.5
810, 0.666666667, -31.9318517, 79.0176381
811, 1.33333333, -31.9318517, 79.0176381
812, 0.333333333, -31.9318517, 79.0176381
813, 1, -31.9318517, 79.0176381
814, 1.66666667, -31.9318517, 79.0176381
815, 0.666666667, -31.8477591, 70.7346331
816, 1.33333333, -31.8477591, 70.7346331
817, 0.333333333, -31.8477591, 70.7346331
818, 1, -31.8477591, 70.7346331
819, 1.66666667, -31.8477591, 70.7346331
820, 0.666666667, -31.9828897, 78.7610524
821, 1.33333333, -31.9828897, 78.7610524
822, 0.333333333, -31.9828897, 78.7610524
823, 1, -31.9828897, 78.7610524
824, 1.66666667, -31.9828897, 78.7610524
825, 0.666666667, -31.9318517, 70.9823619
826, 1.33333333, -31.9318517, 70.9823619
827, 0.333333333, -31.9318517, 70.9823619
828, 1, -31.9318517, 70.9823619
829, 1.66666667, -31.9318517, 70.9823619
830, 0.666666667, -32, 78.5
831, 1.33333333, -32, 78.5
832, 0.333333333, -32, 78.5
833, 1, -32, 78.5
834, 1.66666667, -32, 78.5
835, 0.666666667, -31.9828897, 71.2389476
836, 1.33333333, -31.9828897, 71.2389476
837, 0.333333333, -31.9828897, 71.2389476
838, 1, -31.9828897, 71.2389476
839, 1.66666667, -31.9828897, 71.2389476
840, 0.666666667, -32, 71.5
841, 1.33333333, -32, 71.5
842, 0.333333333, -32, 71.5
843, 1, -32, 71.5
844, 1.66666667, -32, 71.5
845, 0.666666667, -30, 73.65
846, 1.33333333, -30, 73.65
847, 0.333333333, -30, 73.65
848, 1, -30, 73.65
849, 1.66666667, -30, 73.65
850, 0.666666667, -14, 73.65
851, 1.33333333, -14, 73.65
852, 0.333333333, -14, 73.65
853, 1, -14, 73.65
854, 1.66666667, -14, 73.65
855, 0.666666667, -30, 78.65
856, 1.33333333, -30, 78.65
857, 0.333333333, -30, 78.65
858, 1, -30, 78.65
859, 1.66666667, -30, 78.65
860, 0.666666667, -14, 78.65
861, 1.33333333, -14, 78.65
862, 0.333333333, -14, 78.65
863, 1, -14, 78.65
864, 1.66666667, -14, 78.65
865, 0.333333333, -12.0085551, 78.6305262
866, 0.666666667, -12.0085551, 78.6305262
867, 1.66666667, -12.0085551, 78.6305262
868, 1.33333333, -12.0085551, 78.6305262
869, 1, -12.0085551, 78.6305262
870, 1, -12, 72.0773503
871, 1, -12, 77.9226497
872, 1.32642469, -12, 74.2222222
873, 1.32642469, -12, 75.7777778
874, 0.673575314, -12, 76.5555556
875, 0.673575314, -12, 73.4444444
876, 0.673575314, -12, 75
877, 0.584605459, -12, 77.4072258
878, 0.584605459, -12, 72.5927742
879, 1.36934573, -12, 72.7000182
880, 1.36934573, -12, 77.2999818
881, 0.534715063, -12, 74.2222222
882, 1.47386915, -12, 73.4511148
883, 1.46528494, -12, 75
884, 1.47386915, -12, 76.5488852
885, 0.534715063, -12, 75.7777778
886, 0.464711711, -12, 72.0014989
887, 1.53528829, -12, 77.9985011
888, 0.464711711, -12, 77.9985011
889, 1.53528829, -12, 72.0014989
890, 0.565689189, -12, 78.2492505
891, 0.232355856, -12, 78.2492505
892, 0.232355856, -12, 77.8603616
893, 1.76764414, -12, 78.2492505
894, 1.43431081, -12, 78.2492505
895, 1.76764414, -12, 77.8603616
896, 0.232355856, -12, 71.7507495
897, 0.565689189, -12, 71.7507495
898, 0.232355856, -12, 72.1396384
899, 1.43431081, -12, 71.7507495
900, 1.76764414, -12, 71.7507495
901, 1.76764414, -12, 72.1396384
902, 1.16666667, -12, 78.2113249
903, 0.833333333, -12, 78.2113249
904, 0.732355856, -12, 77.9605754
905, 1.26764414, -12, 77.9605754
906, 0.833333333, -12, 71.7886751
907, 1.16666667, -12, 71.7886751
908, 0.732525036, -12, 72.0339593
909, 1.26764414, -12, 72.0394246
910, 1.68467287, -12, 72.488898
911, 1.68467287, -12, 72.8777869
912, 1.4529059, -12, 72.348681
913, 1.73693457, -12, 73.2533352
914, 1.73693457, -12, 73.642224
915, 1.41957146, -12, 73.0773941
916, 1.66321234, -12, 74.0277778
917, 1.66321234, -12, 74.4166667
918, 1.40014692, -12, 73.8366685
919, 1.73264247, -12, 74.8055556
920, 1.73264247, -12, 75.1944444
921, 1.39585481, -12, 74.6111111
922, 1.66321234, -12, 75.5833333
923, 1.66321234, -12, 75.9722222
924, 1.39585481, -12, 75.3888889
925, 1.73693457, -12, 76.357776
926, 1.73693457, -12, 76.7466648
927, 1.40014692, -12, 76.1633315
928, 1.68467287, -12, 77.1222131
929, 1.68467287, -12, 77.511102
930, 1.42160744, -12, 76.9244335
931, 1.45231701, -12, 77.6492414
932, 0.29230273, -12, 72.8241649
933, 0.29230273, -12, 72.435276
934, 0.523985751, -12, 72.2947377
935, 0.336787657, -12, 73.6388889
936, 0.336787657, -12, 73.25
937, 0.632053462, -12, 73.0210015
938, 0.267357531, -12, 74.4166667
939, 0.267357531, -12, 74.0277778
940, 0.604145188, -12, 73.8333333
941, 0.336787657, -12, 75.1944444
942, 0.336787657, -12, 74.8055556
943, 0.604145188, -12, 74.6111111
944, 0.267357531, -12, 75.9722222
945, 0.267357531, -12, 75.5833333
946, 0.604145188, -12, 75.3888889
947, 0.336787657, -12, 76.75
948, 0.336787657, -12, 76.3611111
949, 0.604145188, -12, 76.1666667
950, 0.29230273, -12, 77.564724
951, 0.29230273, -12, 77.1758351
952, 0.629090387, -12, 76.9813907
953, 0.524658585, -12, 77.7028634
954, 0.795830058, -12, 72.3249475
955, 0.972421996, -12, 72.6460381
956, 1.18110723, -12, 72.3855286
957, 0.79230273, -12, 77.6649378
958, 1.18467287, -12, 77.6113158
959, 0.976975595, -12, 77.3536038
960, 0.999980244, -12, 73.8336074
961, 0.930569874, -12, 74.2222222
962, 1.07456575, -12, 73.4477264
963, 1, -12, 74.6111111
964, 1.06943013, -12, 75
965, 1, -12, 76.1666667
966, 1.07372223, -12, 76.5522204
967, 0.930569874, -12, 75.7777778
968, 1, -12, 75.3888889
969, 1.02146052, -12, 76.9277687
970, 1.02273467, -12, 73.0718344
971, 1.66666667, -12.0426293, 78.8893452
972, 1.33333333, -12.0426293, 78.8893452
973, 0.333333333, -12.0426293, 78.8893452
974, 0.666666667, -12.0426293, 78.8893452
975, 1, -12.0426293, 78.8893452
976, 3.81648666e-15, -20.8036258, 70.1879279
977, 3.80752238e-15, -24.0000774, 70.1475564
978, 5.95238962e-15, -22.4, 79.8071797
979, 5.97180498e-15, -20.0046836, 79.8946187
980, 5.9576391e-15, -24.7673276, 79.8308212
981, 5.2113977e-15, -15.3816634, 76.4700487
982, 5.21718633e-15, -28.6094497, 76.4961184
983, 3.80386008e-15, -18.3951318, 70.1310628
984, 4.32558559e-15, -28.2730669, 72.4807056
985, 4.551172e-15, -15.4069561, 73.4966565
986, 5.95193595e-15, -17.6634273, 79.8051365
987, 3.80662199e-15, -26.3593429, 70.1435014
988, 5.92319397e-15, -26.3554056, 79.6756942
989, 3.81699786e-15, -22.397522, 70.1902301
990, 3.81201491e-15, -16.7949132, 70.1677889
991, 5.44044718e-15, -15.7581911, 77.5015959
992, 5.33471495e-15, -28.1779915, 77.0254203
993, 5.20235777e-15, -27.8927932, 76.4293365
994, 5.32622174e-15, -27.4480909, 76.9871703
995, 5.18094601e-15, -27.1731517, 76.3329065
996, 5.31333298e-15, -26.7304889, 76.9291244
997, 5.15965011e-15, -26.4308641, 76.2369983
998, 5.29694845e-15, -25.9853467, 76.8553351
999, 5.1423052e-15, -25.6783562, 76.1588838
1000, 5.28042486e-15, -25.2282639, 76.7809194
1001, 5.12545477e-15, -24.9168982, 76.0829962
1002, 4.98686147e-15, -25.3705789, 75.4588275
1003, 4.96869463e-15, -24.6033471, 75.3770113
1004, 5.10745937e-15, -24.1475719, 76.0019521
1005, 4.94981125e-15, -23.832451, 75.2919681
1006, 5.08926567e-15, -23.3749053, 75.920015
1007, 4.93095595e-15, -23.0584487, 75.2070514
1008, 5.06779994e-15, -22.5995629, 75.8233419
1009, 4.91144563e-15, -22.2800312, 75.1191847
1010, 5.04863723e-15, -21.819009, 75.7370407
1011, 4.89259416e-15, -21.5006851, 75.0342852
1012, 5.03228596e-15, -21.0381918, 75.6634012
1013, 4.87464003e-15, -20.7240385, 74.953427
1014, 5.01348271e-15, -20.2637971, 75.5787189
1015, 4.85682013e-15, -19.9526707, 74.8731733
1016, 4.83094006e-15, -25.0599129, 74.7566199
1017, 4.99494844e-15, -19.4971709, 75.4952479
1018, 4.83899215e-15, -19.1885259, 74.7928833
1019, 4.77271999e-15, -22.7418971, 74.4944199
1020, 4.70123241e-15, -19.6396413, 74.1724685
1021, 4.68148379e-15, -18.8984619, 74.0835286
1022, 5.18917823e-15, -21.3471946, 76.3699811
1023, 4.79798732e-15, -18.4600116, 74.6082139
1024, 4.5457592e-15, -19.3311861, 73.4722794
1025, 4.52584791e-15, -18.5912405, 73.382607
1026, 5.15117802e-15, -19.8050707, 76.1988434
1027, 5.13427202e-15, -19.0551722, 76.1227056
1028, 4.84901368e-15, -25.8241933, 74.8380162
1029, 4.69358262e-15, -25.515237, 74.1380169
1030, 5.24769699e-15, -23.6901264, 76.6335262
1031, 4.73444337e-15, -21.1835477, 74.3220374
1032, 5.05825286e-15, -27.5844059, 75.7803457
1033, 5.28834629e-15, -19.3519438, 76.8165944
1034, 5.27150608e-15, -18.6044269, 76.7407528
1035, 4.42750951e-15, -15.830139, 72.9397302
1036, 4.55857737e-15, -28.6177476, 73.5300074
1037, 5.42504196e-15, -18.8990176, 77.4322169
1038, 5.98876469e-15, -30.9828897, 79.9709984
1039, 6.0533247e-15, -30.3024047, 80.2617509
1040, 5.87620828e-15, -31.4454088, 79.4640894
1041, 3.77713674e-15, -30.9707133, 70.0107116
1042, 3.72937946e-15, -30.3782925, 69.7956319
1043, 3.89522402e-15, -31.4465618, 70.5425294
1044, 5.99282588e-15, -13.0292867, 79.9892884
1045, 6.04058316e-15, -13.6217075, 80.2043681
1046, 5.8747386e-15, -12.5534382, 79.4574706
1047, 3.78119793e-15, -13.0171103, 70.0290016
1048, 3.71663791e-15, -13.6975953, 69.7382491
1049, 3.89375434e-15, -12.5545912, 70.5359106
1050, 5.4501981e-15, -19.6665353, 77.5455101
1051, 4.56192304e-15, -16.1105954, 73.5450749
1052, 4.39223399e-15, -19.0354761, 72.7808634
1053, 4.40785528e-15, -19.7827661, 72.8512154
1054, 4.36473595e-15, -18.3337217, 72.6570232
1055, 5.09157626e-15, -15.0189563, 75.930421
1056, 5.07139617e-15, -15.685443, 75.8395379
1057, 4.6856878e-15, -29.0148769, 74.1024618
1058, 5.40889044e-15, -18.1711435, 77.359477
1059, 4.71184264e-15, -26.2750065, 74.2202527
1060, 4.55779955e-15, -25.9673264, 73.5265044
1061, 4.53756633e-15, -25.2056936, 73.435382
1062, 4.4012332e-15, -25.6613864, 72.8213922
1063, 4.38020861e-15, -24.8949861, 72.7267059
1064, 4.17620699e-15, -28.2434873, 71.8079642
1065, 5.59366201e-15, -15.7637889, 78.1916141
1066, 5.43520071e-15, -25.5416472, 77.4779679
1067, 5.66334962e-15, -28.6161141, 78.5054592
1068, 5.278841e-15, -17.8788383, 76.7737864
1069, 4.25374922e-15, -19.4858039, 72.1571834
1070, 4.26898898e-15, -20.2417762, 72.2258172
1071, 5.46020609e-15, -27.0137315, 77.5905821
1072, 4.88598771e-15, -12.5573078, 75.0045324
1073, 4.8937887e-15, -31.3651032, 75.039665
1074, 4.24409042e-15, -25.3301691, 72.113684
1075, 4.25781739e-15, -26.1638209, 72.1755048
1076, 3.78463479e-15, -29.646321, 70.0444798
1077, 3.78295976e-15, -14.4147783, 70.0369361
1078, 5.97968864e-15, -29.5676512, 79.9301235
1079, 5.98532782e-15, -14.353679, 79.9555202
1080, 4.2290835e-15, -24.5740755, 72.0460989
1081, 4.36259227e-15, -24.116171, 72.6473689
1082, 4.21040449e-15, -23.7987399, 71.9619761
1083, 4.34228125e-15, -23.338614, 72.5558962
1084, 4.12841641e-15, -15.3414247, 71.5927346
1085, 4.58243006e-15, -26.6862378, 73.6374303
1086, 5.77090307e-15, -31.6849937, 78.9898369
1087, 3.99905955e-15, -12.3150063, 71.0101631
1088, 3.98174621e-15, -31.6445101, 70.9321908
1089, 5.7882164e-15, -12.3554899, 79.0678092
1090, 4.69507561e-15, -14.5093277, 74.1447408
1091, 5.06410386e-15, -29.5463993, 75.8066963
1092, 5.56201908e-15, -18.4500049, 78.049107
1093, 5.54038875e-15, -17.615769, 77.9516927
1094, 4.69788627e-15, -28.3301128, 74.1573989
1095, 5.19460169e-15, -16.0964498, 76.3944063
1096, 5.05345154e-15, -16.39521, 75.7587225
1097, 4.44093211e-15, -16.5214019, 73.0001802
1098, 4.588302e-15, -16.8190772, 73.6638752
1099, 4.17484853e-15, -23.0344505, 71.8018463
1100, 4.32215138e-15, -22.5603271, 72.4652393
1101, 4.14834039e-15, -22.2725149, 71.6824642
1102, 4.69202793e-15, -15.7090269, 74.1310152
1103, 4.10030804e-15, -24.9030681, 71.4661458
1104, 3.82935861e-15, -28.0576774, 70.245898
1105, 5.94116149e-15, -15.9441643, 79.7566127
1106, 4.08911906e-15, -31.6955784, 71.4157551
1107, 5.68705424e-15, -31.7035558, 78.6122154
1108, 5.68084356e-15, -12.3044216, 78.5842449
1109, 4.08290838e-15, -12.2964442, 71.3877846
1110, 4.11125623e-15, -19.9268387, 71.515452
1111, 5.41773437e-15, -24.7899491, 77.3993065
1112, 5.56812916e-15, -25.0991765, 78.0766244
1113, 5.5347577e-15, -24.3333005, 77.9263327
1114, 5.58984528e-15, -25.8609983, 78.1744251
1115, 4.1263444e-15, -20.7070889, 71.5834031
1116, 4.28579452e-15, -21.0113305, 72.3015026
1117, 4.2513928e-15, -27.6438296, 72.146571
1118, 4.50048162e-15, -23.6598891, 73.2683674
1119, 4.82594296e-15, -28.7406395, 74.7341149
1120, 4.81100728e-15, -29.4003716, 74.6668506
1121, 5.9598929e-15, -28.0001202, 79.8409714
1122, 4.72498348e-15, -26.9752941, 74.2794338
1123, 5.78473302e-15, -30.5257851, 79.0521215
1124, 3.97389367e-15, -30.5156495, 70.896826
1125, 5.79606895e-15, -13.4843505, 79.103174
1126, 3.9852296e-15, -13.4742149, 70.9478785
1127, 4.09683551e-15, -19.1681733, 71.4505069
1128, 4.75291862e-15, -13.8473985, 74.4052425
1129, 5.02936404e-15, -30.1596815, 75.650242
1130, 4.29924697e-15, -16.2651776, 72.362087
1131, 4.30965557e-15, -16.9532732, 72.4089632
1132, 4.16310399e-15, -16.6765917, 71.7489536
1133, 4.17456497e-15, -17.3897458, 71.8005692
1134, 4.0908616e-15, -27.6150863, 71.4236028
1135, 5.51699989e-15, -16.3590563, 77.8463586
1136, 5.66108139e-15, -16.4083621, 78.495244
1137, 4.84658783e-15, -14.3824611, 74.8270911
1138, 4.67907608e-15, -30.3901368, 74.0726853
1139, 5.08300655e-15, -13.4773553, 75.8918264
1140, 3.95735055e-15, -19.5865239, 70.8223225
1141, 4.57160477e-15, -27.969557, 73.5886775
1142, 5.6951254e-15, -18.0178035, 78.6485646
1143, 5.71753724e-15, -18.7619027, 78.7494986
1144, 5.72466324e-15, -25.4170965, 78.7815913
1145, 3.991472e-15, -15.0044051, 70.9759918
1146, 3.97136715e-15, -15.6725909, 70.8854476
1147, 5.78554251e-15, -29.0141749, 79.0557671
1148, 4.94559509e-15, -15.3312027, 75.2729802
1149, 4.03580361e-15, -12.6586149, 71.1756436
1150, 5.72973369e-15, -12.6018379, 78.8044265
1151, 5.73415901e-15, -31.3413851, 78.8243564
1152, 4.04022893e-15, -31.3981621, 71.1955735
1153, 4.05259624e-15, -23.6002866, 71.2512709
1154, 5.1806282e-15, -16.7842696, 76.3314752
1155, 5.03423438e-15, -17.0896403, 75.6721761
1156, 4.90602088e-15, -16.6888831, 75.0947538
1157, 4.89246195e-15, -17.3844936, 75.0336898
1158, 5.0208899e-15, -17.8507624, 75.6120779
1159, 4.84340546e-15, -28.0284838, 74.812759
1160, 4.95660126e-15, -28.5098034, 75.3225476
1161, 4.49436906e-15, -17.8747858, 73.2408388
1162, 4.1701569e-15, -26.9557108, 71.7807171
1163, 4.33602929e-15, -27.0152414, 72.5277399
1164, 4.0709356e-15, -26.3906232, 71.333864
1165, 5.54842447e-15, -28.1703052, 77.9878824
1166, 5.68961003e-15, -27.8690708, 78.6237256
1167, 4.05855975e-15, -17.0956081, 71.2781282
1168, 4.04893639e-15, -17.7531404, 71.2347884
1169, 5.74775296e-15, -26.1826321, 78.8855781
1170, 3.94365324e-15, -29.3115147, 70.7606353
1171, 4.01783486e-15, -28.7990001, 71.0947196
1172, 5.82629042e-15, -14.6875767, 79.2392794
1173, 5.75212775e-15, -15.2009999, 78.9052804
1174, 5.02326625e-15, -14.1152958, 75.62278
1175, 4.91753832e-15, -13.6724081, 75.1466238
1176, 5.67977635e-15, -17.2268506, 78.5794387
1177, 5.34391685e-15, -16.4281174, 77.0668619
1178, 3.79864966e-15, -28.8565641, 70.1075972
1179, 5.97138059e-15, -15.1425314, 79.8927074
1180, 5.85721884e-15, -29.9117649, 79.3785686
1181, 5.91751251e-15, -30.3543735, 79.6501072
1182, 5.87650083e-15, -30.774794, 79.465407
1183, 3.91171936e-15, -14.0858112, 70.6168178
1184, 3.85238788e-15, -13.6454792, 70.3496126
1185, 3.89345141e-15, -13.2251814, 70.5345463
1186, 4.00384207e-15, -27.0554513, 71.0317016
1187, 4.20417678e-15, -18.0588753, 71.933929
1188, 3.82499414e-15, -15.1557788, 70.2262422
1189, 5.85265022e-15, -18.2928661, 79.3579933
1190, 5.86853176e-15, -19.0196363, 79.4295175
1191, 5.73617123e-15, -19.5333037, 78.8334186
1192, 5.9609128e-15, -28.8873636, 79.8455647
1193, 4.74076462e-15, -16.9610552, 74.3505058
1194, 4.7588125e-15, -17.7340054, 74.4317862
1195, 4.65591244e-15, -31.157031, 73.9683655
1196, 5.12577177e-15, -12.7867323, 76.0844238
1197, 5.95336514e-15, -27.1923905, 79.811573
1198, 3.80823848e-15, -17.6035573, 70.1507814
1199, 3.83453698e-15, -27.1480621, 70.2692193
1200, 4.86582775e-15, -26.5676735, 74.9137401
1201, 5.95845661e-15, -25.5118801, 79.834503
1202, 5.95539357e-15, -16.7948629, 79.8207082
1203, 5.00375632e-15, -26.1249262, 75.5349151
1204, 5.45383153e-15, -17.0414776, 77.5618736
1205, 5.05023966e-15, -31.3816688, 75.7442574
1206, 4.71415993e-15, -12.6686871, 74.2306889
1207, 4.97293152e-15, -18.6267875, 75.3960925
1208, 3.81435761e-15, -25.5980295, 70.1783395
1209, 4.43006735e-15, -27.6491997, 72.9512497
1210, 3.80936677e-15, -24.7993099, 70.1558627
1211, 3.96066599e-15, -24.3357131, 70.8372539
1212, 5.60228103e-15, -26.6024256, 78.2304307
1213, 5.76369204e-15, -26.9818963, 78.9573613
1214, 5.95421591e-15, -23.9959018, 79.8154045
1215, 5.81219028e-15, -24.3085208, 79.175778
1216, 5.80352625e-15, -23.5402432, 79.1367586
1217, 5.95596566e-15, -20.7976461, 79.8232847
1218, 5.80140757e-15, -20.290492, 79.127217
1219, 5.80056688e-15, -21.1718025, 79.1234309
1220, 5.64849139e-15, -20.7926093, 78.4385437
1221, 5.64791604e-15, -21.5771194, 78.4359526
1222, 5.49540183e-15, -21.2065, 77.7490896
1223, 5.49637455e-15, -21.9725595, 77.7534704
1224, 5.64681562e-15, -22.3662936, 78.4309967
1225, 5.49990037e-15, -22.7559466, 77.7693493
1226, 5.35683342e-15, -22.4262658, 77.125033
1227, 5.6501143e-15, -23.1319002, 78.4458526
1228, 5.51827248e-15, -23.5457215, 77.8520899
1229, 5.95330925e-15, -21.5912272, 79.8113213
1230, 5.17062878e-15, -20.5739424, 76.2864418
1231, 5.33523771e-15, -20.8758612, 77.0277746
1232, 3.80572688e-15, -23.1965696, 70.1394702
1233, 4.75294039e-15, -21.962583, 74.4053406
1234, 4.59487498e-15, -21.6439185, 73.6934772
1235, 4.57848369e-15, -20.8644249, 73.6196574
1236, 4.61510967e-15, -22.4258787, 73.7846062
1237, 4.71826852e-15, -20.4083477, 74.2491923
1238, 3.81712095e-15, -21.6004013, 70.1907845
1239, 3.97283262e-15, -21.9879988, 70.8920475
1240, 3.97526548e-15, -21.1585869, 70.9030041
1241, 5.48453525e-15, -20.4406445, 77.7001509
1242, 5.95328994e-15, -23.1831684, 79.8112344
1243, 4.79256844e-15, -23.5190777, 74.5838094
1244, 4.51873347e-15, -24.4352588, 73.3505664
1245, 5.7990984e-15, -21.9780692, 79.1168174
1246, 3.82476031e-15, -15.9979903, 70.2251891
1247, 5.80087236e-15, -22.7666124, 79.1248066
1248, 4.81226106e-15, -24.2916002, 74.6724971
1249, 3.96658576e-15, -20.369968, 70.8639142
1250, 5.02589632e-15, -26.8662492, 75.6346248
1251, 4.88289579e-15, -27.3754594, 74.9906077
1252, 5.26219391e-15, -24.475994, 76.6988145
1253, 5.31335402e-15, -20.1189996, 76.9292192
1254, 4.67494746e-15, -24.7482058, 74.0540916
1255, 4.93014793e-15, -15.997607, 75.2034124
1256, 5.44963575e-15, -26.2891064, 77.5429776
1257, 4.56264774e-15, -20.0937663, 73.5483386
1258, 5.58825547e-15, -19.2329656, 78.1672652
1259, 5.2211007e-15, -22.8964596, 76.5137472
1260, 3.98352872e-15, -22.8699735, 70.9402185
1261, 4.13554289e-15, -21.4876948, 71.6248294
1262, 4.29879031e-15, -21.7929834, 72.3600304
1263, 3.90447776e-15, -30.0232531, 70.5842046
1264, 3.86690876e-15, -30.5285614, 70.4150089
1265, 3.91492761e-15, -30.9468732, 70.6312665
1266, 5.8654817e-15, -13.9765955, 79.4157812
1267, 5.90305333e-15, -13.4714133, 79.5849888
1268, 5.85503493e-15, -13.0531232, 79.3687331
1269, 4.79822304e-15, -15.0432154, 74.6092755
1270, 4.6562623e-15, -23.9780017, 73.9699412
1271, 4.42428788e-15, -20.5482072, 72.9252213
1272, 3.97330738e-15, -12.9846737, 70.8941856
1273, 5.79665351e-15, -31.0153222, 79.1058066
1274, 4.45895425e-15, -22.1021124, 73.0813447
1275, 5.81408984e-15, -28.3299853, 79.1843328
1276, 4.47969329e-15, -22.8872298, 73.174745
1277, 4.63613922e-15, -23.2019957, 73.8793149
1278, 4.793294e-15, -16.2291266, 74.5870771
1279, 3.8101035e-15, -19.1920712, 70.1591807
1280, 4.44195842e-15, -21.3239205, 73.0048023
1281, 4.42870024e-15, -26.4162699, 72.9450927
1282, 5.20149769e-15, -31.3212392, 76.4254631
1283, 4.56792268e-15, -12.7075933, 73.5720949
1284, 3.9842709e-15, -16.4912922, 70.943561
1285, 3.81299974e-15, -19.9920315, 70.1722242
1286, 4.94531277e-15, -29.1620493, 75.2717088
1287, 5.34444165e-15, -21.6618683, 77.0692254
1288, 4.12460313e-15, -12.7208499, 71.5755611
1289, 5.63616629e-15, -12.6570073, 78.3830364
1290, 5.64535949e-15, -31.2791501, 78.4244389
1291, 4.13379633e-15, -31.3429927, 71.6169636
1292, 3.9609926e-15, -31.3409334, 70.8387248
1293, 3.85279223e-15, -31.215428, 70.3514336
1294, 4.00395683e-15, -30.9422725, 71.0322185
1295, 5.81173563e-15, -31.3566833, 79.1737304
1296, 3.95822684e-15, -12.6433164, 70.8262689
1297, 5.80897001e-15, -12.6590666, 79.1612752
1298, 5.91717038e-15, -12.7845718, 79.6485663
1299, 5.76600579e-15, -13.0577275, 78.9677815
1300, 3.94222974e-15, -18.800699, 70.7542244
1301, 4.82333151e-15, -13.1790977, 74.722354
1302, 5.58728603e-15, -31.6607789, 78.1628993
1303, 5.58260016e-15, -12.3403557, 78.141796
1304, 4.18267659e-15, -12.3392211, 71.8371007
1305, 4.18736246e-15, -31.6596443, 71.858204
1306, 5.13510072e-15, -18.2705658, 76.1264377
1307, 4.96966969e-15, -30.7817582, 75.3814026
1308, 5.20466519e-15, -22.12506, 76.4397282
1309, 5.83612999e-15, -27.6746926, 79.2835929
1310, 4.46130012e-15, -17.2032669, 73.0919096
1311, 5.39377185e-15, -24.0606478, 77.2913889
1312, 5.63113491e-15, -20.0526741, 78.3603771
1313, 5.60377348e-15, -27.3105324, 78.2371522
1314, 3.90044953e-15, -12.8706191, 70.566063
1315, 5.86951309e-15, -31.1293809, 79.433937
1316, 5.30452097e-15, -17.1805925, 76.8894386
1317, 4.33480041e-15, -17.6356114, 72.5222055
1318, 5.9655116e-15, -30.6855224, 79.8662758
1319, 3.8044436e-15, -13.3144601, 70.1336908
1320, 4.71967722e-15, -27.666107, 74.2555366
1321, 4.14105003e-15, -16.0141841, 71.6496314
1322, 3.94690573e-15, -25.9603139, 70.7752832
1323, 4.23052376e-15, -18.7572071, 72.0525852
1324, 5.84666427e-15, -17.1687837, 79.331035
1325, 3.80366819e-15, -30.1496441, 70.1301987
1326, 3.77580534e-15, -30.6239655, 70.0047155
1327, 5.96629442e-15, -13.8503559, 79.8698013
1328, 5.99415725e-15, -13.3760332, 79.9952844
1329, 4.80946646e-15, -30.7921351, 74.6599114
1330, 4.79813114e-15, -30.1001287, 74.6088616
1331, 3.9462958e-15, -27.612177, 70.7725363
1332, 5.82576294e-15, -16.4418736, 79.2369038
1333, 5.3729293e-15, -23.2291946, 77.1975224
1334, 5.98498123e-15, -30.0604713, 79.9539592
1335, 3.78426703e-15, -13.937816, 70.0428236
1336, 5.92319592e-15, -31.2690527, 79.6757029
1337, 3.8467667e-15, -12.7309473, 70.3242971
1338, 4.64819251e-15, -18.1854125, 73.933598
1339, 5.66376985e-15, -23.8929832, 78.5073518
1340, 3.94781774e-15, -25.2043306, 70.7793905
1341, 5.75301874e-15, -15.7760988, 78.909293
1342, 4.9261725e-15, -29.7628246, 75.1855086
1343, 6.03288221e-15, -30.5832413, 80.1696861
1344, 3.73707917e-15, -13.4167558, 69.8303084
1345, 3.74869872e-15, -13.1965919, 69.8826382
1346, 6.02126216e-15, -30.8034041, 80.117354
1347, 4.01229069e-15, -28.2166769, 71.0697509
1348, 5.8350224e-15, -31.6133791, 79.2786047
1349, 3.93494018e-15, -12.3866208, 70.7213951
1350, 3.93232461e-15, -31.602363, 70.7096156
1351, 5.83763801e-15, -12.397637, 79.2903844
1352, 5.4587362e-15, -27.6927694, 77.5839623
1353, 4.61529014e-15, -17.4629338, 73.7854189
1354, 5.74010912e-15, -12.2346331, 78.8511533
1355, 4.02985349e-15, -31.7653669, 71.1488467
1356, 4.96734415e-15, -14.696388, 75.3709293
1357, 5.07610579e-15, -28.2351866, 75.8607482
1358, 3.73096683e-15, -30.1266991, 69.8027808
1359, 6.03899578e-15, -13.8733009, 80.1972192
1360, 5.08213655e-15, -28.8978225, 75.8879083
1361, 4.68479651e-15, -29.6217105, 74.0984478
1362, 4.66898795e-15, -13.3465407, 74.0272524
1363, 4.10113548e-15, -25.6611991, 71.4698722
1364, 4.07275331e-15, -18.4231994, 71.3420503
1365, 4.6580652e-15, -15.0784394, 73.9780607
1366, 5.1580278e-15, -17.4800626, 76.2296921
1367, 4.47490289e-15, -27.0169367, 73.153171
1368, 4.98896878e-15, -13.0028781, 75.4683179
1369, 4.29367315e-15, -15.6297927, 72.3369848
1370, 5.10328421e-15, -30.7760984, 75.9831489
1371, 4.59728754e-15, -27.3177347, 73.7043425
1372, 5.31127867e-15, -15.7854485, 76.9198726
1373, 4.45876151e-15, -28.2321997, 73.0804767
1374, 5.99096512e-15, -18.4349812, 79.9809083
1375, 5.68822151e-15, -24.6736255, 78.6174723
1376, 4.8318576e-15, -15.6620357, 74.7607521
1377, 3.83482506e-15, -30.9095728, 70.2705167
1378, 5.93513748e-15, -13.0904236, 79.7294829
1379, 4.11061165e-15, -24.2423767, 71.5125491
1380, 5.577621e-15, -16.8667497, 78.1193719
1381, 3.91370695e-15, -28.5873485, 70.6257691
1382, 3.90078821e-15, -14.6194657, 70.5675883
1383, 5.8557777e-15, -15.4088021, 79.3720783
1384, 5.82690557e-15, -25.0205752, 79.2420497
1385, 5.87735734e-15, -29.3928998, 79.4692643
1386, 5.99084245e-15, -30.3972026, 79.9803558
1387, 3.77896312e-15, -13.6024213, 70.0189369
1388, 5.40213697e-15, -17.5642048, 77.329062
1389, 4.88861664e-15, -18.0112121, 75.0163721
1390, 4.7567455e-15, -31.4628538, 74.4224773
1391, 5.23457173e-15, -12.5551502, 76.5744153
1392, 4.5370654e-15, -31.436816, 73.4331261
1393, 3.91381769e-15, -18.0011011, 70.6262679
1394, 6.00059705e-15, -19.2124689, 80.0242867
1395, 5.92979537e-15, -31.0027632, 79.7054242
1396, 3.84016648e-15, -12.997235, 70.2945723
1397, 4.00480413e-15, -14.474082, 71.0360344
1398, 5.7607813e-15, -29.5315032, 78.9442525
1399, 4.90656077e-15, -30.3193056, 75.0971852
1400, 5.11904245e-15, -14.4707812, 76.0541177
1401, 5.96685999e-15, -31.1858719, 79.8723484
1402, 3.80310251e-15, -12.8141279, 70.1276511
1403, 3.73957616e-15, -30.7893142, 69.8415538
1404, 3.72423383e-15, -30.6149154, 69.7724581
1405, 6.04505235e-15, -13.390664, 80.2244955
1406, 6.03023756e-15, -13.2061234, 80.1577756
1407, 5.44317813e-15, -28.410877, 77.513895
1408, 3.91561007e-15, -23.6004857, 70.6343401
1409, 4.32487763e-15, -31.5281118, 72.4775173
1410, 5.44542652e-15, -31.5281945, 77.5240208
1411, 4.3245361e-15, -12.4718055, 72.4759792
1412, 5.44508498e-15, -12.4718882, 77.5224827
1413, 4.12569724e-15, -28.7460788, 71.5804886
1414, 5.64378101e-15, -15.2539265, 78.41733
1415, 4.0560239e-15, -13.0265364, 71.2667077
1416, 5.71393854e-15, -30.9734631, 78.7332915
1417, 5.81103086e-15, -17.7283209, 79.1705564
1418, 5.83282152e-15, -25.7421614, 79.2686928
1419, 3.80281325e-15, -31.1454901, 70.1263483
1420, 5.96714935e-15, -12.8545091, 79.8736516
1421, 4.07531709e-15, -31.0898451, 71.3535965
1422, 5.69464553e-15, -12.9101549, 78.6464035
1423, 4.66979838e-15, -16.3900206, 74.0309022
1424, 3.92049534e-15, -17.2481643, 70.6563414
1425, 5.86397848e-15, -12.7625499, 79.4090113
1426, 3.90598411e-15, -31.2374491, 70.5909886
1427, 4.95767906e-15, -27.9331446, 75.3274016
1428, 5.8675339e-15, -19.6199461, 79.4250235
1429, 5.0290242e-15, -12.4654671, 75.6487115
1430, 3.93511566e-15, -26.5487332, 70.7221854
1431, 5.67149049e-15, -12.1522108, 78.5421225
1432, 5.70047313e-15, -12.160766, 78.6726487
1433, 5.53601811e-15, -12.1701778, 77.9320091
1434, 5.62236879e-15, -12.1701778, 78.320898
1435, 5.63172186e-15, -12.3223886, 78.3630205
1436, 5.73010591e-15, -12.1258717, 78.8061028
1437, 5.75859265e-15, -12.1513907, 78.9343957
1438, 5.71047634e-15, -12.2695274, 78.7176991
1439, 4.06638415e-15, -12.1567772, 71.3133661
1440, 4.09536678e-15, -12.1482221, 71.4438923
1441, 4.14525089e-15, -12.1696106, 71.6685504
1442, 4.23160157e-15, -12.1696106, 72.0574393
1443, 4.13279248e-15, -12.3178326, 71.6124427
1444, 5.78264629e-15, -12.2118191, 79.0427237
1445, 5.81014971e-15, -12.2538654, 79.1665881
1446, 5.76416276e-15, -12.2950615, 78.9594813
1447, 5.83486051e-15, -12.274939, 79.2778756
1448, 5.86091002e-15, -12.3327931, 79.3951922
1449, 5.81292721e-15, -12.3765634, 79.1790968
1450, 5.87946031e-15, -12.4106937, 79.4787353
1451, 5.9036102e-15, -12.4833658, 79.5874967
1452, 5.85618831e-15, -12.4755376, 79.3739275
1453, 5.92482609e-15, -12.5989325, 79.6830446
1454, 5.94666315e-15, -12.6851791, 79.7813899
1455, 5.89595449e-15, -12.669005, 79.5530184
1456, 5.97165263e-15, -12.7201478, 79.8939326
1457, 5.99080322e-15, -12.8184931, 79.9801791
1458, 5.94215987e-15, -12.8195404, 79.761109
1459, 6.00364148e-15, -12.9058819, 80.0379975
1460, 6.01977792e-15, -13.0146433, 80.1106696
1461, 5.97998761e-15, -12.9418979, 79.93147
1462, 6.03848376e-15, -13.1030617, 80.1949132
1463, 6.05132996e-15, -13.2203783, 80.2527673
1464, 6.01153172e-15, -13.117705, 80.073532
1465, 6.05873736e-15, -13.3126486, 80.2861273
1466, 6.06807351e-15, -13.4365129, 80.3281736
1467, 6.03764496e-15, -13.2983937, 80.1911356
1468, 6.06583891e-15, -13.5520347, 80.3181099
1469, 6.07150527e-15, -13.6803276, 80.3436289
1470, 6.04281776e-15, -13.5061858, 80.2144318
1471, 6.07071159e-15, -13.8061243, 80.3400544
1472, 6.07261121e-15, -13.9366504, 80.3486096
1473, 6.03978947e-15, -13.7475042, 80.2007936
1474, 6.04577723e-15, -14.1768395, 80.2277601
1475, 6.04577723e-15, -14.5768395, 80.2277601
1476, 6.0121618e-15, -14.1134899, 80.0763697
1477, 6.07977567e-15, -30.1512023, 80.3808754
1478, 6.07787605e-15, -30.2817285, 80.3723203
1479, 6.04295764e-15, -29.3838256, 80.2150618
1480, 6.04295764e-15, -29.7838256, 80.2150618
1481, 6.04560393e-15, -30.0302356, 80.2269796
1482, 6.01915297e-15, -30.181438, 80.1078551
1483, 5.98233493e-15, -29.8140612, 79.9420414
1484, 6.07220968e-15, -30.4100214, 80.3468013
1485, 6.06198844e-15, -30.5504397, 80.3007689
1486, 6.05265228e-15, -30.6743041, 80.2587226
1487, 6.04310346e-15, -30.442823, 80.2157185
1488, 6.04684226e-15, -30.7843855, 80.2325566
1489, 6.03399606e-15, -30.901702, 80.1747024
1490, 6.02707219e-15, -30.6933227, 80.1435201
1491, 6.01774733e-15, -30.9914449, 80.1015246
1492, 6.00161089e-15, -31.1002063, 80.0288526
1493, 6.00501343e-15, -30.8931469, 80.0441762
1494, 5.99065854e-15, -31.2016974, 79.9795276
1495, 5.97150795e-15, -31.3000427, 79.893281
1496, 5.97781234e-15, -31.0843808, 79.9216734
1497, 5.94967592e-15, -31.3416331, 79.7949582
1498, 5.92783886e-15, -31.4278797, 79.6966129
1499, 5.94502795e-15, -31.2274623, 79.7740257
1500, 5.90434504e-15, -31.5160577, 79.5908061
1501, 5.88019516e-15, -31.5887298, 79.4820447
1502, 5.8997021e-15, -31.3572308, 79.5698962
1503, 5.85960222e-15, -31.672715, 79.3893024
1504, 5.83355271e-15, -31.7305691, 79.2719858
1505, 5.85561534e-15, -31.529394, 79.3713471
1506, 5.80149304e-15, -31.7663764, 79.1276019
1507, 5.77398962e-15, -31.8084227, 79.0037375
1508, 5.80296273e-15, -31.6491864, 79.1342208
1509, 5.74550288e-15, -31.8339417, 78.8754446
1510, 5.70357847e-15, -31.8432228, 78.6866339
1511, 5.67459583e-15, -31.8517779, 78.5561077
1512, 5.72897865e-15, -31.6942748, 78.8010261
1513, 5.62471173e-15, -31.8303894, 78.3314496
1514, 5.53836105e-15, -31.8303894, 77.9425607
1515, 5.63717013e-15, -31.6821674, 78.3875573
1516, 4.09847212e-15, -31.8477892, 71.4578775
1517, 4.06948949e-15, -31.839234, 71.3273513
1518, 4.23394451e-15, -31.8298222, 72.0679909
1519, 4.14759383e-15, -31.8298222, 71.679102
1520, 4.13824076e-15, -31.6776114, 71.6369795
1521, 4.03985671e-15, -31.8741283, 71.1938972
1522, 4.01136997e-15, -31.8486093, 71.0656043
1523, 4.05948628e-15, -31.7304726, 71.2823009
1524, 3.98731633e-15, -31.7881809, 70.9572763
1525, 3.95981291e-15, -31.7461346, 70.8334119
1526, 4.00579985e-15, -31.7049385, 71.0405187
1527, 3.93510211e-15, -31.725061, 70.7221244
1528, 3.9090526e-15, -31.6672069, 70.6048078
1529, 3.95703541e-15, -31.6234366, 70.8209032
1530, 3.8905023e-15, -31.5893063, 70.5212647
1531, 3.86635241e-15, -31.5166342, 70.4125033
1532, 3.91377431e-15, -31.5244624, 70.6260725
1533, 3.84513652e-15, -31.4010673, 70.3169554
1534, 3.82329946e-15, -31.3148208, 70.21861
1535, 3.87400812e-15, -31.3309949, 70.4469815
1536, 3.79830998e-15, -31.2798518, 70.1060674
1537, 3.77915939e-15, -31.1815065, 70.0198208
1538, 3.82780274e-15, -31.180459, 70.238891
1539, 3.76632114e-15, -31.0941181, 69.9620025
1540, 3.7501847e-15, -30.9853567, 69.8893304
1541, 3.78997499e-15, -31.0581017, 70.06853
1542, 3.73140441e-15, -30.8946571, 69.8047515
1543, 3.71855821e-15, -30.7773405, 69.7468974
1544, 3.75835645e-15, -30.8800138, 69.9261327
1545, 3.71088705e-15, -30.6901411, 69.7123495
1546, 3.70155089e-15, -30.5662768, 69.6703032
1547, 3.731905e-15, -30.7021148, 69.807006
1548, 3.70412371e-15, -30.4479653, 69.6818901
1549, 3.69845734e-15, -30.3196724, 69.6563711
1550, 3.72680665e-15, -30.4966039, 69.784045
1551, 3.69925103e-15, -30.1938757, 69.6599456
1552, 3.69735141e-15, -30.0633496, 69.6513904
1553, 3.73017315e-15, -30.2524958, 69.7992064
1554, 3.72418539e-15, -29.8231605, 69.7722399
1555, 3.72418539e-15, -29.4231605, 69.7722399
1556, 3.75780081e-15, -29.8865101, 69.9236303
1557, 3.69018695e-15, -13.8487977, 69.6191246
1558, 3.69208657e-15, -13.7182715, 69.6276797
1559, 3.72334787e-15, -14.6073891, 69.7684681
1560, 3.72334787e-15, -14.2073891, 69.7684681
1561, 3.7240015e-15, -13.968908, 69.7714118
1562, 3.75045247e-15, -13.8177057, 69.8905364
1563, 3.78361339e-15, -14.1762972, 70.0398799
1564, 3.69775293e-15, -13.5899786, 69.6531987
1565, 3.70797356e-15, -13.4495589, 69.6992284
1566, 3.71730972e-15, -13.3256945, 69.7412747
1567, 3.72685854e-15, -13.5571756, 69.7842787
1568, 3.72311949e-15, -13.2156125, 69.7674396
1569, 3.73596569e-15, -13.0982959, 69.8252937
1570, 3.74288895e-15, -13.3066738, 69.8564733
1571, 3.75221529e-15, -13.0085551, 69.8984754
1572, 3.76835173e-15, -12.8997937, 69.9711474
1573, 3.76494833e-15, -13.1068511, 69.9558199
1574, 3.77930402e-15, -12.7983025, 70.0204722
1575, 3.79845461e-15, -12.6999572, 70.1067188
1576, 3.79215022e-15, -12.9156191, 70.0783263
1577, 3.8202867e-15, -12.6583669, 70.2050418
1578, 3.84212376e-15, -12.5721203, 70.3033871
1579, 3.82493461e-15, -12.7725376, 70.2259741
1580, 3.86561757e-15, -12.4839423, 70.4091939
1581, 3.88976746e-15, -12.4112702, 70.5179553
1582, 3.87026052e-15, -12.6427692, 70.4301038
1583, 3.91036038e-15, -12.327285, 70.6106976
1584, 3.9364099e-15, -12.2694309, 70.7280141
1585, 3.91434726e-15, -12.470606, 70.6286529
1586, 3.96846958e-15, -12.2336236, 70.8723981
1587, 3.995973e-15, -12.1915773, 70.9962625
1588, 3.96699987e-15, -12.3508135, 70.8657791
1589, 4.02445973e-15, -12.1660583, 71.1245554
1590, 4.04098396e-15, -12.3057252, 71.1989739
1591, 4.60776471e-15, -30.5330449, 73.7515274
1592, 4.63214859e-15, -30.1950684, 73.8613426
1593, 4.6350088e-15, -29.8108553, 73.8742239
1594, 4.61062492e-15, -29.4728787, 73.7644087
1595, 4.68193629e-15, -30.0059236, 74.0855666
1596, 4.61576447e-15, -14.5926404, 73.7875552
1597, 4.64014835e-15, -14.2546639, 73.8973704
1598, 4.62710452e-15, -13.6732703, 73.8386262
1599, 4.60272064e-15, -13.3352938, 73.728811
1600, 4.72399712e-15, -14.1783631, 74.2749916
1601, 4.66906986e-15, -13.9236992, 74.0276213
1602, 4.71095328e-15, -13.5969696, 74.2162475
1603, 5.71570469e-15, -30.600869, 78.7412455
1604, 5.74008857e-15, -30.2628925, 78.8510607
1605, 5.72811271e-15, -29.7657516, 78.7971263
1606, 5.70372883e-15, -29.4277751, 78.687311
1607, 5.82097593e-15, -30.218775, 79.215345
1608, 5.77633148e-15, -29.9558824, 79.0142843
1609, 5.80900007e-15, -29.7216341, 79.1614106
1610, 5.73648339e-15, -14.6817649, 78.8348244
1611, 5.76086727e-15, -14.3437883, 78.9446397
1612, 5.74575653e-15, -13.7421753, 78.876587
1613, 5.72137265e-15, -13.4041987, 78.7667718
1614, 5.78046291e-15, -13.9882977, 79.0328906
1615, 5.83077532e-15, -13.730473, 79.2594776
1616, 5.84588606e-15, -14.3320861, 79.3275303
1617, 4.30253132e-15, -12.2359027, 72.3768785
1618, 4.388882e-15, -12.2359027, 72.7657674
1619, 4.25360634e-15, -12.4055133, 72.1565399
1620, 4.51057529e-15, -12.3537966, 73.3138252
1621, 4.59692597e-15, -12.3537966, 73.7027141
1622, 4.4310028e-15, -12.4531425, 72.9554625
1623, 4.48835018e-15, -12.8069391, 73.2137322
1624, 4.36749689e-15, -12.6732678, 72.6694574
1625, 4.6700446e-15, -12.3343435, 74.0320111
1626, 4.75639528e-15, -12.3343435, 74.4209
1627, 4.6410413e-15, -12.6881402, 73.9013919
1628, 4.84230917e-15, -12.2786539, 74.8078218
1629, 4.92865985e-15, -12.2786539, 75.1967107
1630, 4.80007382e-15, -12.6129974, 74.6176107
1631, 5.0001781e-15, -12.2327336, 75.5188002
1632, 5.08652878e-15, -12.2327336, 75.9076891
1633, 4.95750596e-15, -12.5113875, 75.326622
1634, 5.18930254e-15, -12.2775751, 76.370541
1635, 5.27565322e-15, -12.2775751, 76.7594299
1636, 5.13490256e-15, -12.3933662, 76.1255453
1637, 5.18017175e-15, -12.6709413, 76.3294196
1638, 5.07739799e-15, -12.6260997, 75.8665677
1639, 5.38090984e-15, -12.2359441, 77.2334636
1640, 5.46726052e-15, -12.2359441, 77.6223525
1641, 5.33895982e-15, -12.4531425, 77.0445375
1642, 5.29787833e-15, -12.7307176, 76.8595229
1643, 5.40313496e-15, -12.6890866, 77.3335566
1644, 5.51384257e-15, -12.4061219, 77.8321393
1645, 6.03880361e-15, -14.9712657, 80.1963537
1646, 6.03880361e-15, -15.3712657, 80.1963537
1647, 5.97835421e-15, -14.7481052, 79.9241138
1648, 6.02369406e-15, -15.7720821, 80.1283063
1649, 6.02369406e-15, -16.1720821, 80.1283063
1650, 5.95627104e-15, -15.5433478, 79.82466
1651, 6.0308101e-15, -16.5974315, 80.1603541
1652, 6.0308101e-15, -16.9974315, 80.1603541
1653, 5.94827753e-15, -16.3695136, 79.7886604
1654, 6.02908129e-15, -17.4317137, 80.1525683
1655, 6.02908129e-15, -17.8317137, 80.1525683
1656, 5.95366476e-15, -17.2291451, 79.8129224
1657, 6.04859588e-15, -18.2174906, 80.2404541
1658, 6.04859588e-15, -18.6174906, 80.2404541
1659, 5.97145053e-15, -18.0492042, 79.8930224
1660, 6.05341184e-15, -19.0062344, 80.2621433
1661, 6.05341184e-15, -19.4062344, 80.2621433
1662, 5.99578109e-15, -18.823725, 80.0025975
1663, 6.03901581e-15, -19.8023418, 80.1973093
1664, 6.03901581e-15, -20.2023418, 80.1973093
1665, 5.98620102e-15, -19.6085762, 79.9594527
1666, 6.03109615e-15, -20.5988231, 80.1616424
1667, 6.03109615e-15, -20.9988231, 80.1616424
1668, 5.96388532e-15, -20.4011649, 79.8589517
1669, 6.02976794e-15, -21.3956136, 80.1556607
1670, 6.02976794e-15, -21.7956136, 80.1556607
1671, 5.95463746e-15, -21.1944366, 79.817303
1672, 6.02930813e-15, -22.2, 80.1535898
1673, 6.02930813e-15, -22.6, 80.1535898
1674, 5.95284944e-15, -21.9956136, 79.8092505
1675, 6.02975829e-15, -22.9915842, 80.1556172
1676, 6.02975829e-15, -23.3915842, 80.1556172
1677, 5.95283978e-15, -22.7915842, 79.809207
1678, 6.03022127e-15, -23.7979509, 80.1577023
1679, 6.03022127e-15, -24.1979509, 80.1577023
1680, 5.95375292e-15, -23.5895351, 79.8133195
1681, 6.03193287e-15, -24.5836638, 80.1654106
1682, 6.03193287e-15, -24.9836638, 80.1654106
1683, 5.9559275e-15, -24.3816147, 79.8231129
1684, 6.03234162e-15, -25.3559401, 80.1672515
1685, 6.03234162e-15, -25.7559401, 80.1672515
1686, 5.95804786e-15, -25.1396038, 79.8326621
1687, 6.0147103e-15, -26.1777028, 80.0878471
1688, 6.0147103e-15, -26.5777028, 80.0878471
1689, 5.94082529e-15, -25.9336429, 79.7550986
1690, 6.02979589e-15, -26.9961952, 80.1557865
1691, 6.02979589e-15, -27.3961952, 80.1557865
1692, 5.93827956e-15, -26.7738981, 79.7436336
1693, 6.03305977e-15, -27.8000601, 80.1704857
1694, 6.03305977e-15, -28.2000601, 80.1704857
1695, 5.95662902e-15, -27.5962554, 79.8262722
1696, 6.03356972e-15, -28.6436818, 80.1727823
1697, 6.03356972e-15, -29.0436818, 80.1727823
1698, 5.96040285e-15, -28.4437419, 79.8432681
1699, 5.97030072e-15, -29.2275074, 79.8878441
1700, 5.46743129e-15, -31.7640973, 77.6231215
1701, 5.38108061e-15, -31.7640973, 77.2342326
1702, 5.51635627e-15, -31.5944867, 77.8434601
1703, 5.2591162e-15, -31.6606196, 76.6849537
1704, 5.17276552e-15, -31.6606196, 76.2960649
1705, 5.33895982e-15, -31.5468575, 77.0445375
1706, 5.28134131e-15, -31.2074771, 76.7850468
1707, 5.40330572e-15, -31.3109548, 77.3343256
1708, 5.0971365e-15, -31.6908344, 75.9554621
1709, 5.01078582e-15, -31.6908344, 75.5665732
1710, 5.12586867e-15, -31.351454, 76.0848602
1711, 4.93256034e-15, -31.6825516, 75.2142769
1712, 4.84620966e-15, -31.6825516, 74.825388
1713, 4.97201418e-15, -31.373386, 75.3919612
1714, 4.77768806e-15, -31.7314269, 74.5167942
1715, 4.69133738e-15, -31.7314269, 74.1279053
1716, 4.8252671e-15, -31.4139785, 74.7310711
1717, 4.58149734e-15, -31.718408, 73.6332297
1718, 4.49514666e-15, -31.718408, 73.2443408
1719, 4.64092085e-15, -31.5785155, 73.9008494
1720, 4.70632897e-15, -31.3099424, 74.1954214
1721, 4.59648892e-15, -31.2969235, 73.7007458
1722, 4.38905277e-15, -31.7640559, 72.7665364
1723, 4.30270209e-15, -31.7640559, 72.3776475
1724, 4.43082316e-15, -31.5477936, 72.9546535
1725, 4.47244806e-15, -31.2762857, 73.1421154
1726, 4.36715077e-15, -31.3234801, 72.6678986
1727, 4.25612005e-15, -31.5938781, 72.1678607
1728, 3.73119282e-15, -29.028282, 69.8037986
1729, 3.73119282e-15, -28.628282, 69.8037986
1730, 3.79164223e-15, -29.2514426, 70.0760385
1731, 3.74654729e-15, -28.2288387, 69.872949
1732, 3.74654729e-15, -27.8288387, 69.872949
1733, 3.81400413e-15, -28.4571207, 70.1767476
1734, 3.74913648e-15, -27.3740311, 69.8846097
1735, 3.74913648e-15, -26.9740311, 69.8846097
1736, 3.83194779e-15, -27.6028698, 70.2575587
1737, 3.73517899e-15, -26.5796714, 69.8217507
1738, 3.73517899e-15, -26.1796714, 69.8217507
1739, 3.82057949e-15, -26.7537025, 70.2063604
1740, 3.7390468e-15, -25.7990147, 69.8391698
1741, 3.7390468e-15, -25.3990147, 69.8391698
1742, 3.8104898e-15, -25.9786862, 70.1609204
1743, 3.73655137e-15, -24.9996549, 69.8279314
1744, 3.73655137e-15, -24.5996549, 69.8279314
1745, 3.81186219e-15, -25.1986697, 70.1671011
1746, 3.73562918e-15, -24.2000387, 69.8237782
1747, 3.73562918e-15, -23.8000387, 69.8237782
1748, 3.80844457e-15, -24.3996936, 70.1517096
1749, 3.73473143e-15, -23.3982848, 69.8197351
1750, 3.73473143e-15, -22.9982848, 69.8197351
1751, 3.80662463e-15, -23.5983235, 70.1435133
1752, 3.74036692e-15, -22.598761, 69.8451151
1753, 3.74036692e-15, -22.198761, 69.8451151
1754, 3.81136237e-15, -22.7970458, 70.1648502
1755, 3.74042846e-15, -21.8002006, 69.8453922
1756, 3.74042846e-15, -21.4002006, 69.8453922
1757, 3.8170594e-15, -21.9989616, 70.1905073
1758, 3.74011132e-15, -21.0018129, 69.8439639
1759, 3.74011132e-15, -20.6018129, 69.8439639
1760, 3.8168038e-15, -21.2020135, 70.1893562
1761, 3.73836786e-15, -20.1960157, 69.8361121
1762, 3.73836786e-15, -19.7960157, 69.8361121
1763, 3.8147432e-15, -20.3978286, 70.180076
1764, 3.73691974e-15, -19.3960356, 69.8295903
1765, 3.73691974e-15, -18.9960356, 69.8295903
1766, 3.81155162e-15, -19.5920514, 70.1657024
1767, 3.73379803e-15, -18.5975659, 69.8155314
1768, 3.73379803e-15, -18.1975659, 69.8155314
1769, 3.80698179e-15, -18.7936015, 70.1451218
1770, 3.73598723e-15, -17.8017787, 69.8253907
1771, 3.73598723e-15, -17.4017787, 69.8253907
1772, 3.80604928e-15, -17.9993445, 70.1409221
1773, 3.73787545e-15, -16.9974566, 69.8338945
1774, 3.73787545e-15, -16.5974566, 69.8338945
1775, 3.8101267e-15, -17.1992352, 70.1592852
1776, 3.74424814e-15, -16.1989952, 69.8625945
1777, 3.74424814e-15, -15.7989952, 69.8625945
1778, 3.81838761e-15, -16.3964518, 70.196489
1779, 3.74436506e-15, -15.3778894, 69.8631211
1780, 3.74436506e-15, -14.9778894, 69.8631211
1781, 3.82487723e-15, -15.5768846, 70.2257156
1782, 3.80397695e-15, -14.7852785, 70.1315892
1783, 4.53675937e-15, -31.0563845, 73.4317478
1784, 4.59618289e-15, -30.916492, 73.6993675
1785, 4.66749426e-15, -30.7735839, 74.0205254
1786, 4.28607993e-15, -31.3212932, 72.302788
1787, 4.12854129e-15, -31.0094728, 71.593297
1788, 4.19237912e-15, -31.2183538, 71.880797
1789, 4.16057939e-15, -31.5013185, 71.7375838
1790, 4.21916218e-15, -31.3766797, 72.0014172
1791, 4.02420608e-15, -30.2578247, 71.123413
1792, 4.04858996e-15, -30.5958013, 71.2332282
1793, 3.98892525e-15, -30.728961, 70.9645223
1794, 4.06362154e-15, -30.8091128, 71.3009245
1795, 4.09930167e-15, -30.8828991, 71.4616135
1796, 4.10455671e-15, -31.2164189, 71.4852801
1797, 4.03963696e-15, -31.0160588, 71.1929075
1798, 4.03346975e-15, -29.3177808, 71.1651329
1799, 4.00908587e-15, -29.6557573, 71.0553176
1800, 3.98949813e-15, -30.0116266, 70.9671023
1801, 3.93918571e-15, -30.2694513, 70.7405153
1802, 3.9240655e-15, -29.6673839, 70.6724199
1803, 4.18832957e-15, -28.8261819, 71.8625595
1804, 4.12449175e-15, -29.0350629, 71.5750595
1805, 4.07056056e-15, -29.0615235, 71.332175
1806, 3.98074405e-15, -29.0552574, 70.9276774
1807, 4.07176605e-15, -28.7725394, 71.3376041
1808, 4.36718164e-15, -28.5896759, 72.6680376
1809, 4.28827375e-15, -28.5896759, 72.3126681
1810, 4.25089629e-15, -28.2582771, 72.1443349
1811, 4.21358445e-15, -28.5748862, 71.9762973
1812, 4.15095211e-15, -28.4947831, 71.6942264
1813, 4.54751535e-15, -28.9708973, 73.4801885
1814, 4.48367753e-15, -28.7620163, 73.1926885
1815, 4.4337696e-15, -28.5692423, 72.9679231
1816, 4.39217355e-15, -28.2526333, 72.7805912
1817, 4.50866944e-15, -28.4249736, 73.305242
1818, 4.61107057e-15, -29.1694619, 73.7664157
1819, 4.62213259e-15, -28.8163123, 73.8162346
1820, 4.68524216e-15, -29.3182937, 74.1004548
1821, 4.47997484e-15, -15.2503356, 73.176013
1822, 4.54381266e-15, -15.0414546, 73.463513
1823, 4.6046186e-15, -15.2426978, 73.7373586
1824, 4.59725927e-15, -14.8771962, 73.7042151
1825, 4.6765704e-15, -14.7938836, 74.0614007
1826, 4.27231753e-15, -15.3617539, 72.2408076
1827, 4.35122542e-15, -15.3617539, 72.5961772
1828, 4.4181436e-15, -15.461927, 72.8975499
1829, 4.48934075e-15, -15.6185476, 73.2181933
1830, 4.36059133e-15, -15.7299659, 72.6383575
1831, 4.12585133e-15, -15.0086889, 71.5811825
1832, 4.18968916e-15, -15.2175698, 71.8686825
1833, 4.21104478e-15, -15.4856087, 71.9648597
1834, 4.03966132e-15, -14.237041, 71.1930172
1835, 4.0640452e-15, -14.5750175, 71.3028324
1836, 4.05737913e-15, -14.8401791, 71.2728111
1837, 4.0599442e-15, -15.1729149, 71.2843632
1838, 3.99813807e-15, -14.7392435, 71.0060131
1839, 4.05425793e-15, -13.399131, 71.2587545
1840, 4.02987405e-15, -13.7371075, 71.1489393
1841, 3.94847448e-15, -13.7800131, 70.7823482
1842, 3.99311893e-15, -14.0429056, 70.9834089
1843, 3.95826175e-15, -14.2799466, 70.8264261
1844, 4.18680134e-15, -12.7978824, 71.855677
1845, 4.12394469e-15, -13.0224484, 71.5725958
1846, 4.08965508e-15, -13.1752917, 71.4181691
1847, 4.02062675e-15, -13.2503757, 71.1072931
1848, 4.09031351e-15, -12.8736932, 71.4211344
1849, 4.28577351e-15, -12.6769036, 72.301408
1850, 4.21746356e-15, -12.6220621, 71.9937673
1851, 4.15363986e-15, -12.5300355, 71.7063309
1852, 4.5535991e-15, -13.0142552, 73.5075872
1853, 4.61845531e-15, -13.027067, 73.7996736
1854, 5.5821801e-15, -31.1864326, 78.1399042
1855, 5.64601792e-15, -30.9775516, 78.4274042
1856, 5.68030745e-15, -30.8247081, 78.5818305
1857, 5.74933578e-15, -30.7496241, 78.8927065
1858, 5.67964902e-15, -31.1263066, 78.5788652
1859, 5.48402925e-15, -31.3239067, 77.6978721
1860, 5.55293897e-15, -31.3784743, 78.0082139
1861, 5.61632276e-15, -31.4699645, 78.2936691
1862, 5.21750349e-15, -30.9985961, 76.4975468
1863, 5.14401287e-15, -30.3880492, 76.1665744
1864, 5.16839675e-15, -30.7260257, 76.2763897
1865, 5.15239095e-15, -31.0486688, 76.204306
1866, 5.14880657e-15, -29.4352231, 76.1881634
1867, 5.12442269e-15, -29.7731997, 76.0783481
1868, 5.04673395e-15, -29.8530404, 75.7284692
1869, 5.10705278e-15, -30.0798407, 76.000121
1870, 5.06632413e-15, -30.4678899, 75.8166954
1871, 5.28918563e-15, -28.7578673, 76.8203744
1872, 5.2253478e-15, -28.9667483, 76.5328744
1873, 5.14966144e-15, -28.7536361, 76.1920133
1874, 5.15782292e-15, -29.1109348, 76.2287694
1875, 5.07312021e-15, -29.2221109, 75.8473023
1876, 5.48108942e-15, -28.658581, 77.6846323
1877, 5.40218153e-15, -28.658581, 77.3292627
1878, 5.34794994e-15, -28.5421383, 77.0850254
1879, 5.27595064e-15, -28.3937206, 76.7607693
1880, 5.38894654e-15, -28.2944343, 77.2696576
1881, 5.65501299e-15, -28.9700805, 78.4679144
1882, 5.59117516e-15, -28.7611995, 78.1804144
1883, 5.60588705e-15, -28.3932096, 78.2466708
1884, 5.53371259e-15, -28.5382951, 77.921626
1885, 5.4958013e-15, -28.2905911, 77.7508887
1886, 5.71610943e-15, -29.1691109, 78.7430683
1887, 5.72444606e-15, -28.8151445, 78.7806132
1888, 5.77316191e-15, -29.2728391, 79.0000098
1889, 5.58139086e-15, -15.1738208, 78.1363498
1890, 5.64522868e-15, -14.9649398, 78.4238498
1891, 5.69940206e-15, -14.9384765, 78.667825
1892, 5.78920909e-15, -14.9442883, 79.0722799
1893, 5.69795438e-15, -15.2274632, 78.6613052
1894, 5.40081606e-15, -15.425953, 77.3231132
1895, 5.47972395e-15, -15.425953, 77.6784827
1896, 5.5170546e-15, -15.76099, 77.846605
1897, 5.55633136e-15, -15.4287519, 78.0234918
1898, 5.61872151e-15, -15.5088577, 78.3044721
1899, 5.22245349e-15, -15.0288082, 76.5198396
1900, 5.28629132e-15, -15.2376892, 76.8073396
1901, 5.26133818e-15, -15.5835559, 76.6949607
1902, 5.3362318e-15, -15.4395817, 77.0322515
1903, 5.37586293e-15, -15.7718198, 77.2107343
1904, 5.15189199e-15, -14.2353906, 76.2020588
1905, 5.17627586e-15, -14.5733671, 76.3118741
1906, 5.16254277e-15, -14.8474547, 76.2500257
1907, 5.15148698e-15, -15.2003098, 76.2002348
1908, 5.10530935e-15, -14.7448687, 75.9922693
1909, 5.15825792e-15, -13.4007011, 76.2307284
1910, 5.13387404e-15, -13.7386776, 76.1209132
1911, 5.0531364e-15, -13.7963255, 75.7573032
1912, 5.10400389e-15, -14.0576479, 75.98639
1913, 5.07115435e-15, -14.2930385, 75.8384488
1914, 5.23404051e-15, -12.9395986, 76.5720229
1915, 5.17964053e-15, -13.0553896, 76.3270271
1916, 5.10438916e-15, -13.1320438, 75.9881251
1917, 5.48204285e-15, -12.6890866, 77.6889261
1918, 5.64142132e-15, -12.9905272, 78.406703
1919, 5.5775835e-15, -12.7816462, 78.119203
1920, 5.60938322e-15, -12.4986815, 78.2624162
1921, 5.55080043e-15, -12.6233203, 77.9985828
1922, 5.78103737e-15, -13.271039, 79.0354777
1923, 5.70634107e-15, -13.1908872, 78.6990755
1924, 5.67066094e-15, -13.1171009, 78.5383865
1925, 5.66540591e-15, -12.7835811, 78.5147199
1926, 5.73032566e-15, -12.9839412, 78.8070925
1927, 3.89619321e-15, -21.3794941, 70.5468943
1928, 3.89587607e-15, -20.9811064, 70.545466
1929, 3.97092562e-15, -20.7642775, 70.8834591
1930, 3.89153621e-15, -20.5867969, 70.525921
1931, 3.88979275e-15, -20.1809998, 70.5180692
1932, 3.88501638e-15, -24.5675115, 70.4965583
1933, 3.88409418e-15, -24.1678953, 70.4924051
1934, 3.93813803e-15, -23.9680994, 70.735797
1935, 3.86156623e-15, -23.8002816, 70.3909482
1936, 3.86066848e-15, -23.3985277, 70.3869051
1937, 5.87620382e-15, -21.7846482, 79.4640694
1938, 5.87574401e-15, -22.1890346, 79.4619985
1939, 5.87663099e-15, -22.5833062, 79.4659931
1940, 5.87708115e-15, -22.9748904, 79.4680205
1941, 5.79998538e-15, -22.3723408, 79.120812
1942, 5.88660628e-15, -20.1475878, 79.5109178
1943, 5.87868662e-15, -20.5440691, 79.4752509
1944, 5.91966944e-15, -19.8123148, 79.6598211
1945, 5.83447074e-15, -19.955219, 79.2761202
1946, 5.93406548e-15, -19.4162075, 79.7246551
1947, 5.89227233e-15, -24.8939514, 79.5364355
1948, 5.89268109e-15, -25.2662277, 79.5382764
1949, 5.88320309e-15, -24.1522113, 79.4955913
1950, 5.88491469e-15, -24.5379242, 79.5032996
1951, 5.81954793e-15, -24.664548, 79.2089139
1952, 5.08148621e-15, -15.3521996, 75.8849794
1953, 5.14139693e-15, -15.5335532, 76.1547933
1954, 5.13299893e-15, -15.8909464, 76.1169721
1955, 5.2029997e-15, -15.7390566, 76.4322275
1956, 5.25294018e-15, -15.9409491, 76.6571394
1957, 5.26853636e-15, -28.0353924, 76.7273784
1958, 5.20977205e-15, -28.2511214, 76.4627275
1959, 5.13923178e-15, -28.0639899, 76.1450423
1960, 5.14664606e-15, -28.4223181, 76.1784333
1961, 5.07912117e-15, -28.5665046, 75.8743282
1962, 3.85883888e-15, -18.1981164, 70.3786653
1963, 3.86102808e-15, -17.8023292, 70.3885246
1964, 3.87616662e-15, -18.9963851, 70.4567025
1965, 3.87304491e-15, -18.5979154, 70.4426436
1966, 3.92802371e-15, -18.4009, 70.6902461
1967, 4.28848919e-15, -27.9584483, 72.3136383
1968, 4.21379989e-15, -27.9436585, 71.9772676
1969, 4.37782647e-15, -27.9611333, 72.7159777
1970, 4.34073007e-15, -27.6465147, 72.5489103
1971, 4.44441443e-15, -27.9406997, 73.0158632
1972, 4.49471627e-15, -15.9703672, 73.2424025
1973, 4.55654752e-15, -15.7587758, 73.5208657
1974, 4.62697548e-15, -15.9098112, 73.8380451
1975, 4.62159996e-15, -15.5579915, 73.8138359
1976, 4.67504656e-15, -15.3937332, 74.054538
1977, 5.90229308e-15, -17.9781467, 79.5815649
1978, 5.92180767e-15, -18.3639236, 79.6694508
1979, 5.8814834e-15, -17.6958741, 79.4878465
1980, 5.83184054e-15, -18.0105935, 79.2642749
1981, 5.90102892e-15, -16.9818233, 79.5758716
1982, 5.89930011e-15, -17.4161055, 79.5680858
1983, 5.82884757e-15, -17.4485523, 79.2507957
1984, 3.88482632e-15, -26.8483977, 70.4957024
1985, 3.87086883e-15, -26.4540381, 70.4328434
1986, 3.87676386e-15, -26.1598284, 70.4593923
1987, 3.88063167e-15, -25.7791717, 70.4768113
1988, 3.9410107e-15, -26.2545236, 70.7487343
1989, 5.83547347e-15, -26.2690188, 79.2806361
1990, 5.7557225e-15, -26.5822642, 78.9214697
1991, 5.84344301e-15, -26.668651, 79.3165277
1992, 5.87800775e-15, -26.0487835, 79.4721935
1993, 5.79028724e-15, -25.9623967, 79.0771355
1994, 5.85852859e-15, -27.0871434, 79.3844672
1995, 5.89563907e-15, -25.6270207, 79.5515979
1996, 3.8946278e-15, -23.0332715, 70.5398443
1997, 3.90026329e-15, -22.6337477, 70.5652243
1998, 3.89491524e-15, -22.1927604, 70.5411388
1999, 3.89497678e-15, -21.7942, 70.541416
2000, 3.97818067e-15, -22.4289861, 70.916133
2001, 3.86436691e-15, -17.4258608, 70.4035614
2002, 3.86625513e-15, -17.0215387, 70.4120652
2003, 3.89814291e-15, -16.6431027, 70.5556749
2004, 3.90451561e-15, -16.2446413, 70.584375
2005, 3.95238312e-15, -16.8697283, 70.7999512
2006, 5.47872354e-15, -16.0586237, 77.6739773
2007, 5.55533095e-15, -16.0614226, 78.0189864
2008, 5.39218202e-15, -16.0931542, 77.2842289
2009, 5.43045837e-15, -16.3935869, 77.4566103
2010, 5.32759776e-15, -16.1067829, 76.9933673
2011, 5.33046835e-15, -27.8130412, 77.0062953
2012, 5.26428976e-15, -27.670442, 76.7082534
2013, 5.39672558e-15, -27.9353805, 77.3046913
2014, 5.39247897e-15, -27.5704302, 77.2855663
2015, 5.45095717e-15, -28.0518232, 77.5489287
2016, 5.25358388e-15, -27.3106213, 76.6600384
2017, 5.19165189e-15, -27.5329725, 76.3811215
2018, 5.11959944e-15, -27.3787788, 76.0566261
2019, 5.13030532e-15, -27.7385995, 76.1048411
2020, 5.06717933e-15, -27.9097962, 75.8205469
2021, 5.31977736e-15, -27.0892899, 76.9581473
2022, 5.2471395e-15, -26.9518203, 76.6310155
2023, 5.39321392e-15, -27.2309112, 77.2888762
2024, 5.38676954e-15, -26.8721102, 77.2598533
2025, 5.45947115e-15, -27.3532505, 77.5872722
2026, 5.23649155e-15, -26.5806765, 76.5830614
2027, 5.17029806e-15, -26.8020079, 76.2849524
2028, 5.09277322e-15, -26.6485567, 75.9358116
2029, 5.10342117e-15, -27.0197005, 75.9837657
2030, 5.04207459e-15, -27.2253276, 75.7074853
2031, 5.30514071e-15, -26.3579178, 76.8922297
2032, 5.22829928e-15, -26.2081054, 76.5461667
2033, 5.38148437e-15, -26.5097976, 77.236051
2034, 5.3732921e-15, -26.1372265, 77.1991563
2035, 5.45492092e-15, -26.6514189, 77.5667798
2036, 5.21962682e-15, -25.8318515, 76.5071094
2037, 5.15097765e-15, -26.0546102, 76.197941
2038, 5.07303076e-15, -25.9016412, 75.8468994
2039, 5.08170321e-15, -26.2778951, 75.8859567
2040, 5.01482632e-15, -26.4955877, 75.5847699
2041, 5.28868666e-15, -25.6068053, 76.8181273
2042, 5.21136503e-15, -25.4533101, 76.4699016
2043, 5.36607458e-15, -25.763497, 77.1666515
2044, 5.35781279e-15, -25.3849556, 77.1294437
2045, 5.44241823e-15, -25.9153768, 77.5104727
2046, 5.20293981e-15, -25.072581, 76.4319578
2047, 5.13387998e-15, -25.2976272, 76.12094
2048, 5.05615812e-15, -25.1437385, 75.7709118
2049, 5.06458333e-15, -25.5244676, 75.8088556
2050, 4.99530889e-15, -25.7477525, 75.4968713
2051, 5.27130938e-15, -24.8521289, 76.739867
2052, 5.19382434e-15, -24.6964461, 76.3909053
2053, 5.42646754e-15, -25.1657982, 77.4386372
2054, 5.34907961e-15, -25.0091065, 77.090113
2055, 5.33996414e-15, -24.6329715, 77.0490605
2056, 5.0470747e-15, -24.7601226, 75.7300037
2057, 4.97777805e-15, -24.986963, 75.4179194
2058, 5.11645707e-15, -24.532235, 76.0424741
2059, 5.038077e-15, -24.3754595, 75.6894817
2060, 5.18482664e-15, -24.3117829, 76.3503833
2061, 4.89981735e-15, -24.83163, 75.0668156
2062, 4.90890077e-15, -25.2152459, 75.1077237
2063, 4.83997687e-15, -25.4420531, 74.797318
2064, 4.91793758e-15, -25.5973861, 75.1484218
2065, 4.926385e-15, -25.9745597, 75.1864656
2066, 5.02863531e-15, -23.9900114, 75.6469601
2067, 4.95925294e-15, -24.2178991, 75.3344897
2068, 4.88103615e-15, -24.0620256, 74.9822326
2069, 4.89047785e-15, -24.4474737, 75.0247542
2070, 4.82160056e-15, -24.6757566, 74.7145585
2071, 5.09836252e-15, -23.7612386, 75.9609836
2072, 5.01953846e-15, -23.6036781, 75.6059915
2073, 5.17757818e-15, -23.9188491, 76.3177392
2074, 5.16848133e-15, -23.5325158, 76.2767706
2075, 5.25494545e-15, -24.0830602, 76.6661704
2076, 5.01011081e-15, -23.216677, 75.5635332
2077, 4.9403836e-15, -23.4454499, 75.2495097
2078, 4.8617622e-15, -23.2887632, 74.8954304
2079, 4.87118984e-15, -23.6757643, 74.9378888
2080, 4.80241475e-15, -23.905339, 74.6281533
2081, 5.07853281e-15, -22.9872341, 75.8716785
2082, 4.99937795e-15, -22.8290058, 75.5151967
2083, 5.15518318e-15, -23.1356824, 76.2168811
2084, 5.14445032e-15, -22.7480112, 76.1685445
2085, 5.23439884e-15, -23.293293, 76.5736367
2086, 4.98962279e-15, -22.4397971, 75.4712633
2087, 4.92120079e-15, -22.66924, 75.1631181
2088, 4.84208281e-15, -22.5109641, 74.8068023
2089, 4.85183797e-15, -22.9001729, 74.8507357
2090, 4.78264421e-15, -23.1304874, 74.5391147
2091, 5.05821859e-15, -22.209286, 75.7801913
2092, 4.98004143e-15, -22.0495201, 75.4281127
2093, 5.13623257e-15, -22.3623115, 76.1315351
2094, 5.12665121e-15, -21.9720345, 76.0883845
2095, 5.21288295e-15, -22.5107598, 76.4767377
2096, 4.9706157e-15, -21.659847, 75.385663
2097, 4.9020199e-15, -21.8903581, 75.076735
2098, 4.82276728e-15, -21.731634, 74.7198129
2099, 4.83219301e-15, -22.1213071, 74.7622626
2100, 4.76283019e-15, -22.35224, 74.4498803
2101, 5.04046159e-15, -21.4286004, 75.700221
2102, 4.96244006e-15, -21.2694384, 75.3488432
2103, 5.11890773e-15, -21.5831018, 76.0535109
2104, 5.11073209e-15, -21.1926932, 76.0166911
2105, 5.19692171e-15, -21.7361273, 76.4048547
2106, 4.953463e-15, -20.8811152, 75.3084141
2107, 4.8836171e-15, -21.1123618, 74.9938561
2108, 4.8045417e-15, -20.9537931, 74.6377322
2109, 4.81351877e-15, -21.3421164, 74.6781613
2110, 4.74369188e-15, -21.5730653, 74.363689
2111, 5.02288434e-15, -20.6509945, 75.62106
2112, 4.94406137e-15, -20.4939178, 75.266073
2113, 5.10145737e-15, -20.8060671, 75.9749215
2114, 5.09205575e-15, -20.4188698, 75.9325804
2115, 5.1799035e-15, -20.9605685, 76.3282115
2116, 4.93515142e-15, -20.1082339, 75.2259461
2117, 4.86573008e-15, -20.3383546, 74.9133002
2118, 4.78754433e-15, -20.1805092, 74.5611828
2119, 4.79645428e-15, -20.5661931, 74.6013097
2120, 4.72635595e-15, -20.7959477, 74.2856149
2121, 5.00421558e-15, -19.880484, 75.5369834
2122, 4.92588429e-15, -19.7249208, 75.1842106
2123, 5.08233037e-15, -20.0344339, 75.8887812
2124, 5.07306323e-15, -19.6511208, 75.8470457
2125, 5.1609034e-15, -20.1895066, 76.2426426
2126, 4.9169703e-15, -19.3428484, 75.1440656
2127, 4.84790614e-15, -19.5705983, 74.8330283
2128, 4.77011228e-15, -19.4140836, 74.4826759
2129, 4.77902627e-15, -19.796156, 74.5228209
2130, 4.70975046e-15, -20.0239945, 74.2108304
2131, 4.76226134e-15, -25.2875749, 74.4473184
2132, 4.77129815e-15, -25.6697151, 74.4880166
2133, 4.75294376e-15, -24.9040593, 74.4053557
2134, 4.68426504e-15, -25.1317214, 74.0960543
2135, 4.74360426e-15, -24.519903, 74.3632944
2136, 4.98393998e-15, -19.0619792, 75.4456702
2137, 4.90596184e-15, -18.9076567, 75.0944879
2138, 5.14272502e-15, -19.4301215, 76.1607745
2139, 5.06461023e-15, -19.2761716, 75.8089768
2140, 5.05360177e-15, -18.8409799, 75.7593991
2141, 4.76023797e-15, -19.0434939, 74.438206
2142, 4.6913581e-15, -19.2690516, 74.1279986
2143, 4.81848974e-15, -18.8242687, 74.7005486
2144, 4.73973555e-15, -18.6792367, 74.3458713
2145, 4.88545942e-15, -18.5433996, 75.0021532
2146, 4.68402503e-15, -22.1942308, 74.0949734
2147, 4.69391483e-15, -22.5838879, 74.1395131
2148, 4.62562445e-15, -22.8139372, 73.8319605
2149, 4.7044296e-15, -22.9719464, 74.1868674
2150, 4.71435383e-15, -23.3605367, 74.2315621
2151, 4.61362149e-15, -19.114824, 73.777904
2152, 4.6234958e-15, -19.4854137, 73.822374
2153, 4.55420347e-15, -19.7124762, 73.510309
2154, 4.63194007e-15, -19.8667038, 73.8604036
2155, 4.64045813e-15, -20.251057, 73.8987655
2156, 4.72308991e-15, -18.3227121, 74.270906
2157, 4.66483815e-15, -18.5419372, 74.0085633
2158, 4.60366585e-15, -18.7448512, 73.7330678
2159, 4.53580356e-15, -18.9612133, 73.4274432
2160, 4.58702021e-15, -18.3883265, 73.6581025
2161, 5.26220797e-15, -21.1115279, 76.6988778
2162, 5.25293324e-15, -20.7249018, 76.6571082
2163, 5.26680994e-15, -21.5045314, 76.7196033
2164, 5.33983968e-15, -21.2688647, 77.0485
2165, 5.27455342e-15, -21.8934642, 76.7544768
2166, 4.77839991e-15, -18.0970085, 74.5200001
2167, 4.70350251e-15, -17.959709, 74.1826921
2168, 4.84330198e-15, -18.2356118, 74.812293
2169, 4.82371457e-15, -17.8726088, 74.7240791
2170, 4.93077408e-15, -18.3189998, 75.2062323
2171, 4.45904095e-15, -18.8133583, 73.0817352
2172, 4.46899659e-15, -19.1833311, 73.1265714
2173, 4.40004463e-15, -19.4091211, 72.8160394
2174, 4.47680724e-15, -19.5569761, 73.1617474
2175, 4.48525151e-15, -19.9382662, 73.199777
2176, 4.44529193e-15, -18.4624811, 73.0198151
2177, 4.37848497e-15, -18.6845989, 72.7189433
2178, 4.51010849e-15, -18.2330132, 73.3117229
2179, 4.42955251e-15, -18.1042537, 72.948931
2180, 4.57128079e-15, -18.0300992, 73.5872184
2181, 5.21976216e-15, -19.5785072, 76.5077189
2182, 5.21130916e-15, -19.203558, 76.46965
2183, 5.23226602e-15, -19.9620352, 76.5640313
2184, 5.30085016e-15, -19.7354717, 76.8729068
2185, 5.2419914e-15, -20.346471, 76.6078305
2186, 5.27992619e-15, -18.9781853, 76.7786736
2187, 5.20288905e-15, -18.8297995, 76.4317292
2188, 5.2033034e-15, -18.4374964, 76.4335952
2189, 5.13468637e-15, -18.662869, 76.1245716
2190, 5.05401612e-15, -18.4486767, 75.7612651
2191, 4.70271263e-15, -25.8951217, 74.1791348
2192, 4.78042816e-15, -26.0495999, 74.5291345
2193, 4.7888352e-15, -26.42134, 74.5669964
2194, 4.85742072e-15, -26.1959334, 74.8758781
2195, 4.93479203e-15, -26.3462998, 75.2243276
2196, 4.62569109e-15, -25.7412817, 73.8322606
2197, 4.63482109e-15, -26.1211664, 73.8733785
2198, 4.61557447e-15, -25.3604653, 73.7866995
2199, 4.54768294e-15, -25.58651, 73.4809432
2200, 4.60625689e-15, -24.9769497, 73.7447368
2201, 5.32798288e-15, -24.2683209, 76.9951017
2202, 5.32073442e-15, -23.8753871, 76.9624576
2203, 5.31031315e-15, -23.4596605, 76.9155243
2204, 5.297015e-15, -23.0628271, 76.8556348
2205, 5.38335058e-15, -23.6449212, 77.2444557
2206, 4.66465918e-15, -21.4137331, 74.0077573
2207, 4.67390768e-15, -21.8032507, 74.0494089
2208, 4.65646353e-15, -21.0239863, 73.9708474
2209, 4.58667933e-15, -21.2541717, 73.6565673
2210, 4.6483761e-15, -20.6363863, 73.9344249
2211, 4.95439606e-15, -27.1208543, 75.3126162
2212, 4.97057433e-15, -27.4799326, 75.3854767
2213, 4.92028743e-15, -27.654302, 75.1590046
2214, 5.00796596e-15, -27.7587752, 75.5538736
2215, 5.01689243e-15, -28.0841656, 75.5940749
2216, 5.35669413e-15, -19.1254807, 77.1244057
2217, 5.34827402e-15, -18.7517222, 77.0864849
2218, 5.3692722e-15, -19.5092395, 77.1810523
2219, 5.43762003e-15, -19.2827764, 77.4888635
2220, 5.38177606e-15, -19.8927675, 77.2373647
2221, 5.4169662e-15, -18.5350805, 77.395847
2222, 5.34019826e-15, -18.3877852, 77.0501149
2223, 5.34386572e-15, -18.0249909, 77.0666317
2224, 5.27517354e-15, -18.2416326, 76.7572696
2225, 5.20697086e-15, -18.0747021, 76.450112
2226, 4.43422081e-15, -16.1757705, 72.9699552
2227, 4.50142757e-15, -16.3159987, 73.2726275
2228, 4.36337824e-15, -16.0476583, 72.6509086
2229, 4.37008954e-15, -16.3932898, 72.6811336
2230, 4.29646006e-15, -15.9474852, 72.3495359
2231, 4.69178704e-15, -28.6724948, 74.1299304
2232, 4.62823182e-15, -28.4739302, 73.8437031
2233, 4.63474552e-15, -28.1498349, 73.8730382
2234, 4.56509107e-15, -28.2936523, 73.5593424
2235, 4.51518314e-15, -28.1008783, 73.3345771
2236, 5.51922678e-15, -19.4497504, 77.8563877
2237, 5.50664871e-15, -19.0659916, 77.7997411
2238, 5.49353052e-15, -18.6745112, 77.740662
2239, 5.48545476e-15, -18.3105742, 77.704292
2240, 5.57513727e-15, -18.8414853, 78.1081861
2241, 5.97713815e-15, -30.8342061, 79.9186371
2242, 5.99338688e-15, -30.7444632, 79.9918149
2243, 5.94765349e-15, -30.8441428, 79.78585
2244, 5.95928003e-15, -30.9928264, 79.8382113
2245, 5.94832768e-15, -31.0943175, 79.7888863
2246, 5.98791184e-15, -30.2288369, 79.9671575
2247, 6.02208358e-15, -30.3498037, 80.1210534
2248, 6.01186233e-15, -30.490222, 80.075021
2249, 5.84397196e-15, -31.401046, 79.3189099
2250, 5.87286068e-15, -31.2873948, 79.4490132
2251, 5.84062436e-15, -31.2430321, 79.3038337
2252, 5.82337902e-15, -31.4850312, 79.2261676
2253, 5.8963545e-15, -31.1992168, 79.5548199
2254, 3.77647104e-15, -30.7973394, 70.0077136
2255, 3.8059809e-15, -30.9401431, 70.1406142
2256, 3.8053152e-15, -30.7667692, 70.1376161
2257, 3.75769075e-15, -30.7066399, 69.9231347
2258, 3.81881916e-15, -31.0275315, 70.1984325
2259, 3.76652383e-15, -30.2639683, 69.9629153
2260, 3.7525924e-15, -30.501129, 69.9001737
2261, 3.78973676e-15, -30.3868048, 70.0674571
2262, 3.76731751e-15, -30.1381716, 69.9664897
2263, 3.75001959e-15, -30.6194405, 69.8885868
2264, 3.92810831e-15, -31.3937476, 70.6906271
2265, 3.9466586e-15, -31.4716482, 70.7741702
2266, 3.93348836e-15, -31.2891913, 70.7148567
2267, 3.90060407e-15, -31.3420054, 70.566759
2268, 3.87938817e-15, -31.2264385, 70.4712111
2269, 5.99349157e-15, -13.2026599, 79.9922864
2270, 5.96398168e-15, -13.0598551, 79.8593857
2271, 5.96464737e-15, -13.2332284, 79.8623837
2272, 6.01219741e-15, -13.2910783, 80.07653
2273, 5.95114341e-15, -12.9724663, 79.8015673
2274, 6.00343879e-15, -13.7360317, 80.0370847
2275, 6.01737021e-15, -13.4988704, 80.0998262
2276, 5.98022584e-15, -13.6131945, 79.9325429
2277, 6.0026451e-15, -13.8618284, 80.0335103
2278, 6.0196048e-15, -13.3833486, 80.1098899
2279, 5.84185431e-15, -12.6062524, 79.3093729
2280, 5.82330401e-15, -12.5283518, 79.2258298
2281, 5.83647425e-15, -12.7108083, 79.2851432
2282, 5.86935854e-15, -12.6579941, 79.4332409
2283, 5.89057443e-15, -12.7735609, 79.5287888
2284, 3.79282077e-15, -13.1657852, 70.0813462
2285, 3.77657116e-15, -13.255526, 70.0081645
2286, 3.82230504e-15, -13.1558476, 70.2141316
2287, 3.8106822e-15, -13.0071726, 70.1617869
2288, 3.8216345e-15, -12.9056814, 70.2111117
2289, 3.78161507e-15, -13.7701187, 70.0308802
2290, 3.74780052e-15, -13.6500083, 69.878593
2291, 3.75802115e-15, -13.5095885, 69.9246226
2292, 3.92599059e-15, -12.5989538, 70.6810897
2293, 3.89710193e-15, -12.7126052, 70.5509868
2294, 3.92933818e-15, -12.7569677, 70.696166
2295, 3.94658351e-15, -12.5149686, 70.773832
2296, 3.87360812e-15, -12.8007832, 70.4451801
2297, 5.46736667e-15, -20.0535899, 77.6228305
2298, 5.39894464e-15, -20.2798221, 77.314685
2299, 5.55783508e-15, -20.2466593, 78.030264
2300, 5.54066651e-15, -19.8596047, 77.9529436
2301, 5.60969519e-15, -19.6428198, 78.2638212
2302, 4.51461706e-15, -16.6702396, 73.3320277
2303, 4.57511252e-15, -16.4648363, 73.604475
2304, 4.62905019e-15, -16.6045489, 73.8473887
2305, 4.61586071e-15, -16.250308, 73.7879886
2306, 4.68091315e-15, -16.0495237, 74.0809587
2307, 4.3229916e-15, -19.26064, 72.4690234
2308, 4.33080225e-15, -19.634285, 72.5041994
2309, 4.29762986e-15, -18.5454644, 72.3548042
2310, 4.31137887e-15, -18.8963416, 72.4167243
2311, 4.24213649e-15, -19.1215055, 72.1048843
2312, 4.2613691e-15, -19.8637901, 72.1915003
2313, 4.33842213e-15, -20.0122712, 72.5385163
2314, 4.34663843e-15, -20.3949917, 72.5755192
2315, 4.41607158e-15, -20.1654867, 72.8882183
2316, 4.49346781e-15, -20.3209868, 73.23678
2317, 4.41458474e-15, -17.7551986, 72.8815222
2318, 4.34976818e-15, -17.9846666, 72.5896144
2319, 4.28445637e-15, -18.1962985, 72.2954761
2320, 4.2694886e-15, -17.8472434, 72.2280672
2321, 4.21735027e-15, -18.4080412, 71.9932571
2322, 5.01858567e-15, -15.1750795, 75.6017006
2323, 5.00849563e-15, -15.5083229, 75.556259
2324, 5.02946021e-15, -14.8576721, 75.6506751
2325, 4.95646962e-15, -15.0137953, 75.3219547
2326, 5.0431933e-15, -14.5835846, 75.7125235
2327, 5.06242385e-15, -16.0403265, 75.7991302
2328, 5.12402662e-15, -16.2458299, 76.0765644
2329, 5.00077205e-15, -15.841525, 75.5214751
2330, 4.99179973e-15, -16.1964085, 75.4810674
2331, 4.93787151e-15, -15.6644049, 75.2381963
2332, 4.75581538e-15, -28.8777582, 74.4182884
2333, 4.76191462e-15, -28.5353762, 74.4457569
2334, 4.74834754e-15, -29.2076243, 74.3846562
2335, 4.81847512e-15, -29.0705056, 74.7004828
2336, 4.74790189e-15, -29.5110411, 74.3826492
2337, 5.4055137e-15, -17.8676741, 77.3442695
2338, 5.34048899e-15, -17.7215216, 77.0514242
2339, 5.55120391e-15, -18.032887, 78.0003999
2340, 5.4746396e-15, -17.8934563, 77.6555848
2341, 5.47126286e-15, -17.5899869, 77.6403774
2342, 4.57011481e-15, -26.3267821, 73.5819673
2343, 4.64713635e-15, -26.4806221, 73.9288415
2344, 4.65370677e-15, -26.8307659, 73.9584321
2345, 4.71841306e-15, -26.6251503, 74.2498433
2346, 4.79540562e-15, -26.7714838, 74.596587
2347, 4.46939976e-15, -25.43354, 73.1283871
2348, 4.47951637e-15, -25.8143564, 73.1739483
2349, 4.41496672e-15, -26.0388282, 72.8832425
2350, 4.49324989e-15, -26.1917982, 73.2357985
2351, 4.50556515e-15, -26.5512539, 73.2912615
2352, 4.45888747e-15, -25.0503399, 73.0810439
2353, 4.3907209e-15, -25.2781863, 72.774049
2354, 4.5281499e-15, -24.8204762, 73.3929742
2355, 4.44947104e-15, -24.6651224, 73.0386361
2356, 4.59684046e-15, -24.5917323, 73.702329
2357, 4.31214951e-15, -25.1125776, 72.4201949
2358, 4.32266181e-15, -25.4957778, 72.4675381
2359, 4.25095391e-15, -25.746995, 72.1445944
2360, 4.3295253e-15, -25.9126037, 72.4984485
2361, 4.34325881e-15, -26.2900454, 72.5602988
2362, 4.30464605e-15, -24.7345308, 72.3864024
2363, 4.23658696e-15, -24.9521223, 72.0798915
2364, 4.37140044e-15, -24.5055786, 72.6870374
2365, 4.29583789e-15, -24.3451233, 72.3467339
2366, 4.44066287e-15, -24.2757149, 72.9989676
2367, 4.1711272e-15, -27.629458, 71.7850869
2368, 4.13353429e-15, -27.9292868, 71.6157835
2369, 4.05157615e-15, -27.9158816, 71.2466768
2370, 4.09424884e-15, -28.2300821, 71.4388576
2371, 4.06899397e-15, -28.4813778, 71.3251197
2372, 5.58904064e-15, -16.3837092, 78.1708013
2373, 5.6273717e-15, -16.0860755, 78.3434291
2374, 5.70705006e-15, -16.0922305, 78.7022685
2375, 5.67334037e-15, -15.7699439, 78.5504536
2376, 5.69839987e-15, -15.5150127, 78.6633115
2377, 5.50166493e-15, -25.3204119, 77.7772961
2378, 5.49293176e-15, -24.9445628, 77.7379654
2379, 5.51252299e-15, -25.7013227, 77.8261965
2380, 5.57898722e-15, -25.4800874, 78.1255248
2381, 5.51974052e-15, -26.0750523, 77.8587013
2382, 5.79981617e-15, -28.6720801, 79.12005
2383, 5.73871973e-15, -28.4730497, 78.844896
2384, 5.67647983e-15, -28.2425924, 78.5645924
2385, 5.61901725e-15, -28.019688, 78.305804
2386, 5.75184994e-15, -28.099528, 78.9040292
2387, 5.2184344e-15, -17.6794505, 76.5017392
2388, 5.14656426e-15, -17.8753142, 76.1780649
2389, 5.29168099e-15, -17.5297154, 76.8316125
2390, 5.23127438e-15, -17.3303276, 76.5595654
2391, 5.35332897e-15, -17.3723987, 77.1092503
2392, 4.18250273e-15, -19.7063213, 71.8363177
2393, 4.19012261e-15, -20.0843074, 71.8706346
2394, 4.17529236e-15, -19.3269886, 71.8038451
2395, 4.10404587e-15, -19.547506, 71.4829795
2396, 4.16367964e-15, -18.9626902, 71.7515461
2397, 4.11880032e-15, -20.3169638, 71.5494276
2398, 4.19766669e-15, -20.4744326, 71.9046102
2399, 4.20606946e-15, -20.8592097, 71.9424529
2400, 4.27739175e-15, -20.6265533, 72.2636599
2401, 4.3550412e-15, -20.7797689, 72.6133619
2402, 5.53124356e-15, -26.8080786, 77.9105064
2403, 5.52595839e-15, -26.445766, 77.8867041
2404, 5.53198979e-15, -27.162132, 77.9138671
2405, 5.60302725e-15, -26.956479, 78.2337915
2406, 5.53125484e-15, -27.5016509, 77.9105572
2407, 4.76874572e-15, -12.9238924, 74.4765214
2408, 4.85465961e-15, -12.8682027, 74.8634432
2409, 4.90615014e-15, -13.0909879, 75.095336
2410, 4.93747824e-15, -12.780093, 75.2364252
2411, 5.00899649e-15, -12.7341726, 75.5585147
2412, 5.00995467e-15, -31.0817135, 75.56283
2413, 4.93172919e-15, -31.0734307, 75.2105338
2414, 4.88958209e-15, -30.7870306, 75.0207201
2415, 4.85162758e-15, -31.0786191, 74.8497882
2416, 4.78310598e-15, -31.1274945, 74.5411943
2417, 4.17261295e-15, -25.4956841, 71.7917781
2418, 4.17947644e-15, -25.91251, 71.8226885
2419, 4.16469577e-15, -24.7385718, 71.7561223
2420, 4.17219923e-15, -25.1166186, 71.7899149
2421, 4.10072176e-15, -25.2821336, 71.468009
2422, 4.21398715e-15, -26.5597659, 71.9781109
2423, 4.25309309e-15, -26.9854761, 72.1542285
2424, 4.29692334e-15, -26.5895312, 72.3516224
2425, 4.1643765e-15, -26.277222, 71.7546844
2426, 4.12054625e-15, -26.673167, 71.5572906
2427, 4.38236476e-15, -26.7157557, 72.7364163
2428, 4.08603554e-15, -26.0259111, 71.4018681
2429, 3.86414402e-15, -29.4789179, 70.4025575
2430, 3.87115145e-15, -29.0840394, 70.4341162
2431, 3.84455628e-15, -29.8347871, 70.3143422
2432, 3.79415149e-15, -29.8979826, 70.0873392
2433, 3.85407298e-15, -30.0864486, 70.3572016
2434, 3.84733956e-15, -14.2502948, 70.326877
2435, 3.84799319e-15, -14.0118136, 70.3298207
2436, 3.84187398e-15, -14.517122, 70.3022622
2437, 3.90625378e-15, -14.3526385, 70.5922031
2438, 3.86289118e-15, -14.8876222, 70.3969153
2439, 5.91845374e-15, -29.739708, 79.6543461
2440, 5.92110003e-15, -29.9861181, 79.6662639
2441, 5.92852299e-15, -29.4802755, 79.6996939
2442, 5.86728809e-15, -29.6523323, 79.4239165
2443, 5.91913507e-15, -29.1401317, 79.6574145
2444, 5.90580912e-15, -14.5206278, 79.5973998
2445, 5.8988355e-15, -14.9150541, 79.5659934
2446, 5.92540476e-15, -14.1651372, 79.6856507
2447, 5.97581112e-15, -14.1020174, 79.9126608
2448, 5.91588806e-15, -13.9134757, 79.6427913
2449, 4.28649838e-15, -23.9574555, 72.3046725
2450, 4.21974399e-15, -24.1864077, 72.0040375
2451, 4.16050807e-15, -24.0205583, 71.7372626
2452, 4.16984757e-15, -24.4082261, 71.779324
2453, 4.10545985e-15, -24.5727224, 71.4893474
2454, 4.35243676e-15, -23.7273925, 72.6016326
2455, 4.27634287e-15, -23.568677, 72.2589361
2456, 4.43153695e-15, -23.88803, 72.9578681
2457, 4.42138144e-15, -23.4992515, 72.9121318
2458, 4.50960755e-15, -24.0475739, 73.3094669
2459, 4.25856489e-15, -23.1865323, 72.1788712
2460, 4.19262651e-15, -23.4165952, 71.8819112
2461, 4.11372239e-15, -23.3173685, 71.5265586
2462, 4.13150036e-15, -23.6995133, 71.6066235
2463, 4.08160395e-15, -23.9213316, 71.38191
2464, 4.33221631e-15, -22.9494706, 72.5105678
2465, 4.24849995e-15, -22.7973888, 72.1335428
2466, 4.41098727e-15, -23.1129219, 72.8653206
2467, 4.40092233e-15, -22.7237784, 72.8199922
2468, 4.49008746e-15, -23.2735594, 73.2215562
2469, 3.98141958e-15, -15.338498, 70.9307197
2470, 4.04989178e-15, -15.5070078, 71.2390911
2471, 4.05620859e-15, -15.8433875, 71.2675395
2472, 4.13473322e-15, -15.6778044, 71.621183
2473, 4.21736159e-15, -15.8219884, 71.9933081
2474, 4.5898588e-15, -27.0019863, 73.6708864
2475, 4.66113551e-15, -27.1465144, 73.9918881
2476, 4.45180157e-15, -26.7166033, 73.0491319
2477, 4.52866648e-15, -26.8515872, 73.3953007
2478, 4.53609522e-15, -27.1673357, 73.4287567
2479, 5.75253104e-15, -31.5131894, 78.9070966
2480, 5.71060662e-15, -31.5224705, 78.7182859
2481, 5.79131935e-15, -31.5208385, 79.0817837
2482, 5.77294732e-15, -31.3490342, 78.9990434
2483, 4.01743158e-15, -12.4868106, 71.0929034
2484, 4.05935599e-15, -12.4775295, 71.2817141
2485, 3.97864319e-15, -12.4791613, 70.918216
2486, 3.99701522e-15, -12.6509656, 71.0009563
2487, 4.01098757e-15, -31.5213361, 71.0638821
2488, 4.00061077e-15, -31.3695478, 71.0171492
2489, 3.97136941e-15, -31.4927218, 70.8854578
2490, 4.03504121e-15, -31.5817645, 71.1722101
2491, 5.75897505e-15, -12.4786639, 78.9361179
2492, 5.76935185e-15, -12.6304522, 78.9828508
2493, 5.79859321e-15, -12.5072782, 79.1145422
2494, 5.7349214e-15, -12.4182355, 78.8277899
2495, 4.77083172e-15, -14.4458944, 74.485916
2496, 4.79975322e-15, -14.1149298, 74.6161668
2497, 4.74664932e-15, -14.7762716, 74.3770081
2498, 4.82240543e-15, -14.7128382, 74.7181833
2499, 4.72814412e-15, -15.0608274, 74.2936681
2500, 4.99513818e-15, -29.654612, 75.4961024
2501, 4.97776827e-15, -29.9612531, 75.4178753
2502, 5.00470832e-15, -29.3542243, 75.5392025
2503, 4.93574263e-15, -29.462437, 75.2286087
2504, 5.01372466e-15, -29.0299359, 75.5798085
2505, 5.62857224e-15, -18.2339042, 78.3488358
2506, 5.61775707e-15, -17.8167863, 78.3001287
2507, 5.63977816e-15, -18.6059538, 78.3993028
2508, 5.70633132e-15, -18.3898531, 78.6990316
2509, 5.65289635e-15, -18.9974341, 78.4583819
2510, 5.68745087e-15, -17.6223271, 78.6140016
2511, 5.61008255e-15, -17.4213098, 78.2655657
2512, 5.62869867e-15, -17.0468002, 78.3494053
2513, 5.55900487e-15, -17.2412594, 78.0355323
2514, 5.49711014e-15, -17.3286233, 77.7567832
2515, 5.51572626e-15, -16.9541137, 77.8406227
2516, 5.42798425e-15, -17.3028412, 77.4454678
2517, 4.83467421e-15, -28.3845617, 74.773437
2518, 4.77064587e-15, -28.1792983, 74.4850789
2519, 4.70878175e-15, -27.9981099, 74.2064677
2520, 4.64564099e-15, -27.817832, 73.9221071
2521, 4.78154134e-15, -27.8472954, 74.5341478
2522, 5.11703987e-15, -16.5897398, 76.0450988
2523, 5.18761495e-15, -16.4403597, 76.3629407
2524, 5.26227253e-15, -16.6061935, 76.6991686
2525, 5.26925927e-15, -16.2622836, 76.7306341
2526, 5.04384296e-15, -16.7424251, 75.7154493
2527, 5.10743129e-15, -16.9369549, 76.0018257
2528, 4.97973621e-15, -16.5420466, 75.4267381
2529, 4.97012763e-15, -16.8892617, 75.3834649
2530, 4.9180844e-15, -16.3432451, 75.1490831
2531, 4.45111612e-15, -16.8623344, 73.0460449
2532, 4.52480106e-15, -17.011172, 73.3778924
2533, 4.30445127e-15, -16.6092254, 72.3855251
2534, 4.37529384e-15, -16.7373376, 72.7045717
2535, 4.38547785e-15, -17.0782701, 72.7504364
2536, 4.66453331e-15, -16.8900662, 74.0071905
2537, 4.60179607e-15, -17.1410055, 73.7246471
2538, 4.67802738e-15, -17.2119945, 74.0679624
2539, 4.7052815e-15, -16.6755379, 74.190704
2540, 4.53829513e-15, -17.3331003, 73.4386643
2541, 4.23524588e-15, -22.416421, 72.0738518
2542, 4.16159446e-15, -22.6534827, 71.7421552
2543, 4.06593455e-15, -22.5712442, 71.3113413
2544, 4.07918862e-15, -22.952212, 71.3710324
2545, 4.01806248e-15, -23.23513, 71.0957447
2546, 4.31047084e-15, -22.1766552, 72.4126349
2547, 4.22356535e-15, -22.0327492, 72.0212473
2548, 4.39055281e-15, -22.3312197, 72.773292
2549, 4.37887228e-15, -21.9475479, 72.7206876
2550, 4.46932377e-15, -22.4946711, 73.1280449
2551, 4.0605865e-15, -22.1302569, 71.2872559
2552, 4.14194164e-15, -21.8801049, 71.6536468
2553, 4.05418775e-15, -21.7378468, 71.2584385
2554, 4.2171666e-15, -21.6403391, 71.9924299
2555, 4.74512548e-15, -15.3761212, 74.3701454
2556, 4.76194276e-15, -15.6855313, 74.4458837
2557, 4.81504032e-15, -15.3526256, 74.6850138
2558, 4.74266097e-15, -15.9690768, 74.3590462
2559, 4.8125758e-15, -15.9455812, 74.6739146
2560, 4.73154619e-15, -16.3095736, 74.3089897
2561, 4.03048701e-15, -24.6193906, 71.1516998
2562, 3.95424186e-15, -24.7700219, 70.8083222
2563, 4.02406289e-15, -25.0536994, 71.1227681
2564, 4.03563882e-15, -24.2890449, 71.1749015
2565, 4.02447661e-15, -25.4327649, 71.1246314
2566, 3.85617831e-15, -28.7219563, 70.3666832
2567, 3.87153278e-15, -28.3225129, 70.4358336
2568, 3.8878272e-15, -27.8349272, 70.5092171
2569, 3.89041639e-15, -27.3801196, 70.5208778
2570, 3.92082465e-15, -28.1371771, 70.6578244
2571, 3.97929325e-15, -27.914427, 70.9211436
2572, 3.96299882e-15, -28.4020127, 70.84776
2573, 5.91357914e-15, -15.2756667, 79.6323928
2574, 5.89846959e-15, -15.6764832, 79.5643455
2575, 5.88346221e-15, -16.193019, 79.4967582
2576, 5.89057825e-15, -16.6183683, 79.528806
2577, 5.84709011e-15, -15.8601315, 79.3329528
2578, 5.78939084e-15, -16.1089862, 79.0730984
2579, 5.80439822e-15, -15.5924504, 79.1406857
2580, 4.06467399e-15, -31.5468703, 71.3056643
2581, 4.11145769e-15, -31.5192855, 71.5163593
2582, 4.08701263e-15, -31.3705774, 71.4062686
2583, 5.68975925e-15, -31.3102676, 78.6243976
2584, 5.66620686e-15, -31.491353, 78.5183271
2585, 5.70528862e-15, -12.4531297, 78.6943357
2586, 5.65850492e-15, -12.4807145, 78.4836407
2587, 5.68294999e-15, -12.6294226, 78.5937314
2588, 4.08020337e-15, -12.6897324, 71.3756024
2589, 4.10375575e-15, -12.508647, 71.4816729
2590, 4.038921e-15, -20.1484033, 71.1896831
2591, 4.04646508e-15, -20.5385285, 71.2236586
2592, 4.02709303e-15, -19.3773486, 71.1364147
2593, 4.03430339e-15, -19.7566813, 71.1688873
2594, 3.96196816e-15, -19.978246, 70.8431183
2595, 5.55144343e-15, -24.7162385, 78.0014786
2596, 5.47624603e-15, -24.5616248, 77.6628196
2597, 5.46426478e-15, -24.1969742, 77.6088608
2598, 5.40575311e-15, -24.4252985, 77.3453477
2599, 5.62817533e-15, -24.886401, 78.3470483
2600, 5.6114896e-15, -24.503463, 78.2719025
2601, 5.65725426e-15, -25.6390474, 78.4780082
2602, 5.6463962e-15, -25.2581365, 78.4291078
2603, 5.70644238e-15, -25.045361, 78.6995318
2604, 5.52651509e-15, -23.939511, 77.8892113
2605, 5.45602216e-15, -23.8031847, 77.5717394
2606, 5.59926378e-15, -24.1131419, 78.2168423
2607, 5.59102117e-15, -23.7193524, 78.1797208
2608, 5.67599568e-15, -24.2833044, 78.562412
2609, 5.66879912e-15, -26.0218152, 78.5300016
2610, 5.7362081e-15, -25.7998643, 78.8335847
2611, 5.59606315e-15, -26.2317119, 78.2024279
2612, 5.67501699e-15, -26.3925288, 78.5580044
2613, 4.13094364e-15, -21.0973919, 71.6041163
2614, 4.2106687e-15, -21.2495126, 71.963166
2615, 4.05080494e-15, -20.9328379, 71.2432036
2616, 4.05540418e-15, -21.3231409, 71.2639168
2617, 4.29229242e-15, -21.4021569, 72.3307665
2618, 4.37037436e-15, -21.5584519, 72.6824164
2619, 4.36387647e-15, -21.1676255, 72.6531525
2620, 4.43312315e-15, -20.9360639, 72.9650118
2621, 4.21077485e-15, -27.2997702, 71.963644
2622, 4.13050925e-15, -27.2853985, 71.6021599
2623, 4.29371104e-15, -27.3295355, 72.3371554
2624, 4.38304832e-15, -27.3322206, 72.7394948
2625, 4.58749789e-15, -24.2066302, 73.6602538
2626, 4.57837196e-15, -23.8189454, 73.6191543
2627, 4.64620076e-15, -23.5899987, 73.924628
2628, 4.56831042e-15, -23.4309424, 73.5738411
2629, 4.55791625e-15, -23.0446127, 73.5270299
2630, 4.87816003e-15, -29.2812105, 74.9692797
2631, 4.88562786e-15, -28.9513444, 75.0029118
2632, 4.89127211e-15, -28.6252215, 75.0283312
2633, 4.90000336e-15, -28.2691436, 75.0676533
2634, 4.95095701e-15, -28.8359264, 75.2971282
2635, 4.86858989e-15, -29.5815981, 74.9261796
2636, 4.80456921e-15, -29.7502501, 74.6378561
2637, 4.86215182e-15, -29.9314766, 74.8971851
2638, 4.74146383e-15, -29.8609196, 74.3536547
2639, 5.88699137e-15, -28.1650528, 79.5126521
2640, 5.88750132e-15, -28.6086744, 79.5149488
2641, 5.89474757e-15, -27.4335416, 79.5475829
2642, 5.89801145e-15, -27.8374064, 79.5622822
2643, 5.82510992e-15, -28.0023389, 79.2339628
2644, 4.80393964e-15, -27.1753768, 74.6350208
2645, 4.87436177e-15, -26.9715664, 74.9521739
2646, 4.72233035e-15, -27.3207005, 74.2674852
2647, 4.80128651e-15, -27.5207832, 74.6230721
2648, 4.65848238e-15, -27.4919208, 73.9799395
2649, 5.85112277e-15, -30.4400793, 79.3511143
2650, 5.88736568e-15, -30.1330692, 79.5143379
2651, 5.83061693e-15, -30.6502895, 79.2587642
2652, 5.89700667e-15, -30.5645838, 79.5577571
2653, 5.79069326e-15, -30.7705536, 79.078964
2654, 5.83657717e-15, -30.8950581, 79.2856068
2655, 5.75529602e-15, -30.9943927, 78.919549
2656, 3.88569326e-15, -30.2759073, 70.4996067
2657, 3.92040122e-15, -30.5221055, 70.6559175
2658, 3.89091819e-15, -30.7377173, 70.5231377
2659, 3.94441064e-15, -30.7312613, 70.7640463
2660, 3.95944222e-15, -30.9445728, 70.8317425
2661, 5.88426751e-15, -13.7240044, 79.500385
2662, 5.84956114e-15, -13.4778819, 79.3440814
2663, 5.87904413e-15, -13.2622683, 79.476861
2664, 5.82555194e-15, -13.2687368, 79.2359536
2665, 5.81052036e-15, -13.0554254, 79.1682573
2666, 3.91880874e-15, -13.5598471, 70.6487456
2667, 3.88205362e-15, -13.8656452, 70.4832152
2668, 3.9393405e-15, -13.3496982, 70.7412124
2669, 3.87291965e-15, -13.4353303, 70.4420795
2670, 3.97926849e-15, -13.2294443, 70.9210321
2671, 3.9333794e-15, -13.1049276, 70.714366
2672, 4.01466564e-15, -13.0056051, 71.0804467
2673, 4.01953262e-15, -18.9844361, 71.1023656
2674, 3.94979015e-15, -19.1936115, 70.7882734
2675, 4.08479441e-15, -18.7956863, 71.3962786
2676, 4.00749152e-15, -18.6119492, 71.0481373
2677, 4.15163853e-15, -18.5902032, 71.6973178
2678, 4.88206308e-15, -14.0274346, 74.9868574
2679, 4.83522847e-15, -13.7599033, 74.7759331
2680, 4.87043491e-15, -13.4257529, 74.9344889
2681, 4.78812506e-15, -13.5132481, 74.5637983
2682, 4.74615973e-15, -13.2628192, 74.3748032
2683, 4.99951687e-15, -30.4707198, 75.5158223
2684, 5.03647695e-15, -30.7789283, 75.6822757
2685, 4.96796241e-15, -30.2394935, 75.3737136
2686, 4.93811523e-15, -30.5505319, 75.2392939
2687, 4.91636663e-15, -30.0410651, 75.1413469
2688, 4.23117548e-15, -16.4708847, 72.0555203
2689, 4.23637978e-15, -16.8149325, 72.0789584
2690, 4.2201485e-15, -16.1396809, 72.0058592
2691, 4.15207701e-15, -16.3453879, 71.6992925
2692, 4.16883448e-15, -17.0331688, 71.7747614
2693, 4.24211027e-15, -17.1715095, 72.1047662
2694, 4.25468269e-15, -17.5126786, 72.1613874
2695, 4.32222799e-15, -17.2944423, 72.4655844
2696, 4.39805027e-15, -17.4194392, 72.8070575
2697, 4.11083187e-15, -16.8860999, 71.5135409
2698, 4.11656236e-15, -17.2426769, 71.5393487
2699, 4.07368744e-15, -16.583942, 71.3462573
2700, 4.02141533e-15, -16.7934501, 71.1108446
2701, 4.06266047e-15, -16.2527382, 71.2965962
2702, 4.05374807e-15, -17.4243742, 71.2564583
2703, 4.11175068e-15, -17.5714431, 71.5176788
2704, 4.12655658e-15, -17.9060078, 71.5843587
2705, 4.18937087e-15, -17.7243105, 71.8672491
2706, 4.08699948e-15, -27.005581, 71.4062094
2707, 4.04735183e-15, -27.3352688, 71.2276522
2708, 3.97506893e-15, -27.3338141, 70.902119
2709, 4.0185787e-15, -27.6136317, 71.0980695
2710, 5.54731044e-15, -16.612903, 77.9828652
2711, 5.61935119e-15, -16.6375559, 78.3073079
2712, 5.39887419e-15, -16.7347975, 77.3143678
2713, 5.48541571e-15, -16.700267, 77.7041161
2714, 5.67042887e-15, -16.8176063, 78.5373413
2715, 5.75276964e-15, -16.8343621, 78.9081712
2716, 5.74342216e-15, -16.4251179, 78.8660739
2717, 4.93492704e-15, -14.2488784, 75.2249356
2718, 4.97040229e-15, -13.893852, 75.3847019
2719, 4.90696599e-15, -14.5394245, 75.0990102
2720, 4.9953052e-15, -14.4058419, 75.4968546
2721, 4.8827836e-15, -14.8698017, 74.9901024
2722, 4.73268945e-15, -30.974583, 74.3141384
2723, 4.74427127e-15, -30.5911359, 74.3662983
2724, 4.8037988e-15, -30.4461319, 74.6343865
2725, 4.73860361e-15, -30.2451327, 74.3407735
2726, 5.00027244e-15, -13.5748817, 75.5192251
2727, 5.03598766e-15, -13.2401167, 75.6800722
2728, 4.95325355e-15, -13.3376431, 75.3074708
2729, 5.05737027e-15, -12.8948052, 75.7763709
2730, 3.88517515e-15, -19.7892777, 70.4972733
2731, 3.88372702e-15, -19.3892976, 70.4907516
2732, 4.50083606e-15, -27.8093783, 73.2699636
2733, 4.58444615e-15, -27.6436458, 73.64651
2734, 4.51367744e-15, -27.4834672, 73.3277961
2735, 5.78509373e-15, -18.5273844, 79.053746
2736, 5.77388781e-15, -18.1553348, 79.003279
2737, 5.75307813e-15, -17.8730622, 78.9095605
2738, 5.74540361e-15, -17.4775858, 78.8749975
2739, 5.7930345e-15, -18.8907695, 79.089508
2740, 5.86059099e-15, -18.6562512, 79.3937554
2741, 5.72685424e-15, -19.1476032, 78.7914586
2742, 5.8023515e-15, -19.27647, 79.131468
2743, 5.66221335e-15, -19.3831346, 78.5003419
2744, 5.77874238e-15, -25.579629, 79.025142
2745, 5.77578441e-15, -25.2188359, 79.0118205
2746, 5.75756354e-15, -24.8471004, 78.929761
2747, 5.82986354e-15, -25.3813683, 79.2553713
2748, 3.90823307e-15, -15.0800919, 70.601117
2749, 3.89818065e-15, -15.4141849, 70.5558449
2750, 3.94613011e-15, -14.8119354, 70.7717901
2751, 3.95279617e-15, -14.5467739, 70.8018114
2752, 3.89806373e-15, -15.8352906, 70.5553184
2753, 3.97781903e-15, -16.0819416, 70.9145043
2754, 5.87322766e-15, -28.9507692, 79.4506659
2755, 5.83144992e-15, -29.2035373, 79.2625157
2756, 5.81906932e-15, -29.4622015, 79.2067584
2757, 4.88872634e-15, -15.4966192, 75.0168661
2758, 4.88100276e-15, -15.8298214, 74.9820822
2759, 4.87190906e-15, -15.1872091, 74.9411278
2760, 4.0045555e-15, -12.8216443, 71.0349146
2761, 3.96576711e-15, -12.813995, 70.8602273
2762, 4.04591318e-15, -12.8425743, 71.2211731
2763, 5.71218961e-15, -12.7559964, 78.725415
2764, 5.74786974e-15, -12.8297827, 78.886104
2765, 5.7874879e-15, -12.8583971, 79.0645284
2766, 5.76540626e-15, -31.1783537, 78.9650815
2767, 5.80419457e-15, -31.1860028, 79.1397685
2768, 5.72404878e-15, -31.1574241, 78.7788239
2769, 4.05777301e-15, -31.2440036, 71.274585
2770, 4.02209288e-15, -31.1702173, 71.113896
2771, 3.98247472e-15, -31.1416029, 70.9354716
2772, 4.00663112e-15, -23.9679999, 71.0442624
2773, 3.98410316e-15, -23.6003862, 70.9428055
2774, 3.9495694e-15, -23.2352296, 70.7872793
2775, 5.09613109e-15, -17.2848514, 75.9509341
2776, 5.169328e-15, -17.1321661, 76.2805837
2777, 5.24257458e-15, -16.982431, 76.6104569
2778, 5.32421891e-15, -16.8043549, 76.9781503
2779, 4.89924141e-15, -17.0366884, 75.0642218
2780, 4.96334816e-15, -17.237067, 75.3529329
2781, 4.95667593e-15, -17.617628, 75.3228839
2782, 5.02756214e-15, -17.4702013, 75.642127
2783, 5.08945885e-15, -17.6654125, 75.920885
2784, 4.82339275e-15, -16.8249692, 74.7226298
2785, 4.81661328e-15, -17.1727744, 74.6920978
2786, 4.84965744e-15, -16.4590049, 74.8409154
2787, 4.76702931e-15, -16.5950909, 74.4687914
2788, 4.86172097e-15, -16.1133668, 74.8952447
2789, 4.89053929e-15, -17.6978529, 75.0250309
2790, 4.95475327e-15, -17.9309872, 75.314225
2791, 4.74978856e-15, -17.3475303, 74.391146
2792, 4.82563723e-15, -17.5592495, 74.732738
2793, 4.99691071e-15, -18.2387749, 75.5040852
2794, 5.07799531e-15, -18.0606641, 75.8692578
2795, 4.95714016e-15, -28.221474, 75.3249746
2796, 4.90054226e-15, -27.9808142, 75.0700803
2797, 4.86315063e-15, -27.7019716, 74.9016833
2798, 5.0193689e-15, -28.703813, 75.6052279
2799, 5.01635352e-15, -28.372495, 75.5916479
2800, 4.47783459e-15, -17.5390263, 73.1663742
2801, 4.5548296e-15, -17.6688598, 73.5131289
2802, 4.63174132e-15, -17.8241732, 73.8595085
2803, 4.03738883e-15, -26.7230372, 71.1827828
2804, 4.45248512e-15, -27.3330682, 73.0522103
2805, 4.40546609e-15, -27.0160891, 72.8404554
2806, 4.00302563e-15, -26.4696782, 71.0280247
2807, 3.96947886e-15, -26.8020923, 70.8769435
2808, 4.00892066e-15, -26.1754685, 71.0545736
2809, 4.02402061e-15, -25.8107565, 71.1225777
2810, 5.64669176e-15, -27.5898016, 78.4304389
2811, 5.57609898e-15, -27.7404188, 78.1125173
2812, 5.50358034e-15, -27.9315373, 77.7859224
2813, 5.72665104e-15, -27.4254835, 78.7905435
2814, 5.76287001e-15, -27.7718817, 78.9536592
2815, 5.79991102e-15, -27.3282945, 79.1204771
2816, 5.68373276e-15, -27.1462144, 78.5972567
2817, 3.98952755e-15, -17.1718862, 70.9672348
2818, 3.98471587e-15, -17.5006523, 70.9455649
2819, 4.06084485e-15, -18.0881699, 71.2884193
2820, 4.13846505e-15, -18.2410373, 71.6379896
2821, 3.98137704e-15, -17.8771207, 70.9305281
2822, 3.9932855e-15, -18.2121502, 70.9841591
2823, 3.91715652e-15, -17.6246327, 70.6413046
2824, 5.68298653e-15, -26.7921609, 78.593896
2825, 3.96577091e-15, -28.6931743, 70.8602444
2826, 3.92868009e-15, -28.9494316, 70.6932022
2827, 4.01506278e-15, -28.5078385, 71.0822352
2828, 5.80395273e-15, -15.304901, 79.1386793
2829, 5.84103406e-15, -15.0481894, 79.3056788
2830, 5.75257325e-15, -15.4885493, 78.9072867
2831, 5.76322031e-15, -17.1978171, 78.9552368
2832, 5.8362136e-15, -16.8053287, 79.2839694
2833, 5.37917625e-15, -17.1110351, 77.2256561
2834, 5.95124687e-15, -30.2074224, 79.8020332
2835, 5.92100622e-15, -30.7301582, 79.6658414
2836, 5.94151206e-15, -30.519948, 79.7581915
2837, 5.97817703e-15, -30.5413625, 79.9233158
2838, 5.95417748e-15, -30.3757881, 79.8152315
2839, 5.8330833e-15, -31.0723516, 79.2698718
2840, 5.87300696e-15, -30.9520875, 79.449672
2841, 5.89965423e-15, -31.066072, 79.5696806
2842, 5.9031481e-15, -30.8887786, 79.5854156
2843, 3.81832745e-15, -13.7916476, 70.1962181
2844, 3.84894751e-15, -13.2698208, 70.3341186
2845, 3.82841574e-15, -13.4799697, 70.2416517
2846, 3.79170336e-15, -13.4584407, 70.0763138
2847, 3.8156755e-15, -13.6239503, 70.1842748
2848, 3.93687846e-15, -12.9276464, 70.7301243
2849, 3.89695047e-15, -13.0479003, 70.5503047
2850, 3.870308e-15, -12.9339271, 70.4303177
2851, 3.86680894e-15, -13.1112082, 70.4145593
2852, 3.91918952e-15, -27.1017567, 70.6504605
2853, 5.92974844e-15, -18.7273087, 79.7052129
2854, 5.80185257e-15, -19.5766249, 79.1292211
2855, 5.86803283e-15, -19.3197912, 79.4272705
2856, 5.93456441e-15, -19.1160526, 79.7269021
2857, 5.7687894e-15, -19.9118978, 78.9803178
2858, 5.68365307e-15, -19.7929889, 78.5968979
2859, 5.71627124e-15, -20.171583, 78.743797
2860, 4.68705132e-15, -17.5984696, 74.1086026
2861, 4.94586204e-15, -26.7169613, 75.2741824
2862, 5.07676193e-15, -31.0788836, 75.8637031
2863, 4.69157394e-15, -13.0076139, 74.1289706
2864, 3.88108767e-15, -25.4011801, 70.478865
2865, 3.87859225e-15, -25.0018203, 70.4676266
2866, 3.94736173e-15, -25.5823223, 70.7773368
2867, 5.87887108e-15, -23.7680725, 79.4760816
2868, 5.80785827e-15, -23.924382, 79.1562683
2869, 5.8784081e-15, -23.3617058, 79.4739965
2870, 5.73364805e-15, -23.7166132, 78.8220552
2871, 5.73798007e-15, -24.100752, 78.8415649
2872, 5.7502059e-15, -24.4910732, 78.8966251
2873, 5.72682027e-15, -23.3360717, 78.7913056
2874, 5.8021993e-15, -23.1534278, 79.1307826
2875, 5.72549333e-15, -22.9492563, 78.7853296
2876, 5.65694208e-15, -23.5124417, 78.4766022
2877, 5.80098723e-15, -20.7311472, 79.1253239
2878, 5.87826627e-15, -20.9847243, 79.4733578
2879, 5.87693807e-15, -21.3815148, 79.4673761
2880, 5.72494948e-15, -20.5415506, 78.7828804
2881, 5.72452914e-15, -20.9822059, 78.7809873
2882, 5.63981315e-15, -20.4226417, 78.3994604
2883, 5.64820372e-15, -21.1848644, 78.4372482
2884, 5.72424146e-15, -21.374461, 78.7796917
2885, 5.72350722e-15, -21.7775943, 78.776385
2886, 5.79983264e-15, -21.5749359, 79.1201241
2887, 5.57194661e-15, -20.9995546, 78.0938167
2888, 5.57165894e-15, -21.3918097, 78.0925211
2889, 5.56651332e-15, -20.6166269, 78.0693473
2890, 5.48996854e-15, -20.8235722, 77.7246203
2891, 5.49588819e-15, -21.5895297, 77.75128
2892, 5.5721453e-15, -21.7748395, 78.0947115
2893, 5.57159508e-15, -22.1694266, 78.0922335
2894, 5.64736583e-15, -21.9717065, 78.4334747
2895, 5.72295701e-15, -22.1721814, 78.7739071
2896, 5.41992174e-15, -21.4341841, 77.4091575
2897, 5.4204081e-15, -21.8172139, 77.4113479
2898, 5.41531977e-15, -21.0411806, 77.3884321
2899, 5.40988648e-15, -20.6582528, 77.3639627
2900, 5.49813746e-15, -22.364253, 77.7614098
2901, 5.573358e-15, -22.5611201, 78.100173
2902, 5.42660399e-15, -22.1994126, 77.4392517
2903, 5.4283669e-15, -22.5911062, 77.4471911
2904, 5.35063754e-15, -22.044067, 77.0971292
2905, 5.57500733e-15, -22.9439234, 78.107601
2906, 5.64846496e-15, -22.7490969, 78.4384247
2907, 5.72384399e-15, -22.566453, 78.7779016
2908, 5.36488136e-15, -22.8277302, 77.1612777
2909, 5.43641484e-15, -22.9925706, 77.4834358
2910, 5.50908642e-15, -23.1508341, 77.8107196
2911, 5.58419339e-15, -23.3388109, 78.1489713
2912, 5.44560089e-15, -23.3874581, 77.5248061
2913, 5.28896706e-15, -22.6613627, 76.8193901
2914, 5.28074931e-15, -22.2756629, 76.7823806
2915, 5.32429587e-15, -20.4974304, 76.9784969
2916, 4.60499233e-15, -22.0348986, 73.7390417
2917, 4.51022106e-15, -21.0941727, 73.3122299
2918, 4.5184167e-15, -21.4839195, 73.3491398
2919, 4.52691461e-15, -21.8730154, 73.387411
2920, 4.53703196e-15, -22.2639955, 73.4329754
2921, 4.45045633e-15, -21.7130164, 73.0430735
2922, 4.57056571e-15, -20.4790956, 73.583998
2923, 4.50138579e-15, -20.7063161, 73.2724393
2924, 4.54740148e-15, -22.6565542, 73.4796756
2925, 3.97404905e-15, -21.5732929, 70.8975258
2926, 4.72441537e-15, -23.7485397, 74.2768753
2927, 4.73426168e-15, -24.134801, 74.3212191
2928, 4.66560488e-15, -24.3631037, 74.0120164
2929, 3.83528848e-15, -30.3391028, 70.2726038
2930, 3.85086691e-15, -30.7190671, 70.3427628
2931, 3.87487633e-15, -30.928223, 70.4508916
2932, 3.82135705e-15, -30.5762635, 70.2098622
2933, 3.93796011e-15, -31.1439033, 70.7349957
2934, 3.91045586e-15, -31.0921612, 70.6111276
2935, 3.88385992e-15, -31.0811506, 70.4913501
2936, 3.84380864e-15, -31.0625004, 70.3109752
2937, 5.93467388e-15, -13.6608846, 79.7273951
2938, 5.9190954e-15, -13.2809185, 79.6572359
2939, 5.89508621e-15, -13.0717734, 79.549108
2940, 5.94860529e-15, -13.4237232, 79.7901366
2941, 5.83200247e-15, -12.8560949, 79.2650042
2942, 5.85950671e-15, -12.9078366, 79.3888722
2943, 5.88610266e-15, -12.9188475, 79.5086497
2944, 5.92615393e-15, -12.9374977, 79.6890246
2945, 4.85801361e-15, -30.5557203, 74.8785483
2946, 3.84346659e-15, -12.8640912, 70.3094347
2947, 5.92649564e-15, -31.1359079, 79.6905636
2948, 5.99919691e-15, -30.6343818, 80.017981
2949, 3.77076139e-15, -13.3656079, 69.9819996
2950, 4.85234595e-15, -30.2097171, 74.8530234
2951, 2, -20.8036258, 70.1879279
2952, 2, -24.0000774, 70.1475564
2953, 2, -22.4, 79.8071797
2954, 2, -20.0046836, 79.8946187
2955, 2, -24.7673276, 79.8308212
2956, 2, -15.3816634, 76.4700487
2957, 2, -28.6094497, 76.4961184
2958, 2, -18.3951318, 70.1310628
2959, 2, -28.2730669, 72.4807056
2960, 2, -15.4069561, 73.4966565
2961, 2, -17.6634273, 79.8051365
2962, 2, -26.3593429, 70.1435014
2963, 2, -26.3577617, 79.6757992
2964, 2, -22.397522, 70.1902301
2965, 2, -16.7949132, 70.1677889
2966, 2, -15.7581911, 77.5015959
2967, 2, -28.1779915, 77.0254203
2968, 2, -27.8927932, 76.4293365
2969, 2, -27.4480909, 76.9871703
2970, 2, -27.1731517, 76.3329065
2971, 2, -26.7304889, 76.9291244
2972, 2, -26.4308641, 76.2369983
2973, 2, -25.9853467, 76.8553351
2974, 2, -25.6783562, 76.1588838
2975, 2, -25.2282639, 76.7809194
2976, 2, -24.9168982, 76.0829962
2977, 2, -25.3705789, 75.4588275
2978, 2, -24.6033471, 75.3770113
2979, 2, -24.1475719, 76.0019521
2980, 2, -23.832451, 75.2919681
2981, 2, -23.3749053, 75.920015
2982, 2, -23.0584487, 75.2070514
2983, 2, -22.5995629, 75.8233419
2984, 2, -22.2800312, 75.1191847
2985, 2, -21.819009, 75.7370407
2986, 2, -21.5006851, 75.0342852
2987, 2, -21.0381918, 75.6634012
2988, 2, -20.7240385, 74.953427
2989, 2, -20.2637971, 75.5787189
2990, 2, -19.9526707, 74.8731733
2991, 2, -25.0599129, 74.7566199
2992, 2, -19.4971709, 75.4952479
2993, 2, -19.1885259, 74.7928833
2994, 2, -22.7418971, 74.4944199
2995, 2, -19.6396413, 74.1724685
2996, 2, -18.8984619, 74.0835286
2997, 2, -21.3471946, 76.3699811
2998, 2, -18.4600116, 74.6082139
2999, 2, -19.3311861, 73.4722794
3000, 2, -18.5912405, 73.382607
3001, 2, -19.8050707, 76.1988434
3002, 2, -19.0551722, 76.1227056
3003, 2, -25.8241933, 74.8380162
3004, 2, -25.515237, 74.1380169
3005, 2, -23.6901264, 76.6335262
3006, 2, -21.1835477, 74.3220374
3007, 2, -27.5844059, 75.7803457
3008, 2, -19.3519438, 76.8165944
3009, 2, -18.6044269, 76.7407528
3010, 2, -15.830139, 72.9397302
3011, 2, -28.6177476, 73.5300074
3012, 2, -18.8990176, 77.4322169
3013, 2, -30.9828897, 79.9709984
3014, 2, -30.3024047, 80.2617509
3015, 2, -31.4454088, 79.4640894
3016, 2, -30.9707133, 70.0107116
3017, 2, -30.3782925, 69.7956319
3018, 2, -31.4465618, 70.5425294
3019, 2, -13.0171103, 70.0290016
3020, 2, -13.6975953, 69.7382491
3021, 2, -12.5545912, 70.5359106
3022, 2, -13.0292867, 79.9892884
3023, 2, -13.6217075, 80.2043681
3024, 2, -12.5534382, 79.4574706
3025, 2, -19.6665353, 77.5455101
3026, 2, -16.1105954, 73.5450749
3027, 2, -19.0354761, 72.7808634
3028, 2, -19.7827661, 72.8512154
3029, 2, -18.3337217, 72.6570232
3030, 2, -15.0189563, 75.930421
3031, 2, -15.685443, 75.8395379
3032, 2, -29.0148769, 74.1024618
3033, 2, -18.1711435, 77.359477
3034, 2, -26.2750065, 74.2202527
3035, 2, -25.9673264, 73.5265044
3036, 2, -25.2056936, 73.435382
3037, 2, -25.6613864, 72.8213922
3038, 2, -24.8949861, 72.7267059
3039, 2, -28.2434873, 71.8079642
3040, 2, -15.7637889, 78.1916141
3041, 2, -25.5416472, 77.4779679
3042, 2, -28.6161141, 78.5054592
3043, 2, -17.8788383, 76.7737864
3044, 2, -19.4858039, 72.1571834
3045, 2, -20.2417762, 72.2258172
3046, 2, -27.0137315, 77.5905821
3047, 2, -12.5573078, 75.0045324
3048, 2, -31.3651032, 75.039665
3049, 2, -25.3301691, 72.113684
3050, 2, -26.1638209, 72.1755048
3051, 2, -29.646321, 70.0444798
3052, 2, -14.4147783, 70.0369361
3053, 2, -29.5676512, 79.9301235
3054, 2, -14.353679, 79.9555202
3055, 2, -24.5740755, 72.0460989
3056, 2, -24.116171, 72.6473689
3057, 2, -23.7987399, 71.9619761
3058, 2, -23.338614, 72.5558962
3059, 2, -15.3414247, 71.5927346
3060, 2, -26.6862378, 73.6374303
3061, 2, -31.6849937, 78.9898369
3062, 2, -12.3150063, 71.0101631
3063, 2, -31.6445101, 70.9321908
3064, 2, -12.3554899, 79.0678092
3065, 2, -14.5093277, 74.1447408
3066, 2, -29.5463993, 75.8066963
3067, 2, -18.4500049, 78.049107
3068, 2, -17.615769, 77.9516927
3069, 2, -28.3301128, 74.1573989
3070, 2, -16.0964498, 76.3944063
3071, 2, -16.39521, 75.7587225
3072, 2, -16.5214019, 73.0001802
3073, 2, -16.8190772, 73.6638752
3074, 2, -23.0344505, 71.8018463
3075, 2, -22.5603271, 72.4652393
3076, 2, -22.2725149, 71.6824642
3077, 2, -15.7090269, 74.1310152
3078, 2, -24.9030681, 71.4661458
3079, 2, -28.0576774, 70.245898
3080, 2, -15.9441643, 79.7566127
3081, 2, -31.6955784, 71.4157551
3082, 2, -31.7035558, 78.6122154
3083, 2, -12.3044216, 78.5842449
3084, 2, -12.2964442, 71.3877846
3085, 2, -19.9268387, 71.515452
3086, 2, -24.7899491, 77.3993065
3087, 2, -25.0991765, 78.0766244
3088, 2, -24.3333005, 77.9263327
3089, 2, -25.8609983, 78.1744251
3090, 2, -20.7070889, 71.5834031
3091, 2, -21.0113305, 72.3015026
3092, 2, -27.6438296, 72.146571
3093, 2, -23.6598891, 73.2683674
3094, 2, -28.7406395, 74.7341149
3095, 2, -29.4003716, 74.6668506
3096, 2, -28.0032082, 79.8398106
3097, 2, -26.9752941, 74.2794338
3098, 2, -30.5257851, 79.0521215
3099, 2, -30.5156495, 70.896826
3100, 2, -13.4843505, 79.103174
3101, 2, -13.4742149, 70.9478785
3102, 2, -19.1681733, 71.4505069
3103, 2, -13.8473985, 74.4052425
3104, 2, -30.1596815, 75.650242
3105, 2, -16.2651776, 72.362087
3106, 2, -16.9532732, 72.4089632
3107, 2, -16.6765917, 71.7489536
3108, 2, -17.3897458, 71.8005692
3109, 2, -27.6150863, 71.4236028
3110, 2, -16.3590563, 77.8463586
3111, 2, -16.4083621, 78.495244
3112, 2, -14.3824611, 74.8270911
3113, 2, -30.3901368, 74.0726853
3114, 2, -13.4773553, 75.8918264
3115, 2, -19.5865239, 70.8223225
3116, 2, -27.969557, 73.5886775
3117, 2, -18.0178035, 78.6485646
3118, 2, -18.7619027, 78.7494986
3119, 2, -25.4170965, 78.7815913
3120, 2, -15.0044051, 70.9759918
3121, 2, -15.6725909, 70.8854476
3122, 2, -29.0141749, 79.0557671
3123, 2, -15.3312027, 75.2729802
3124, 2, -12.6586149, 71.1756436
3125, 2, -12.6018379, 78.8044265
3126, 2, -31.3413851, 78.8243564
3127, 2, -31.3981621, 71.1955735
3128, 2, -23.6002866, 71.2512709
3129, 2, -16.7842696, 76.3314752
3130, 2, -17.0896403, 75.6721761
3131, 2, -16.6888831, 75.0947538
3132, 2, -17.3844936, 75.0336898
3133, 2, -17.8507624, 75.6120779
3134, 2, -28.0284838, 74.812759
3135, 2, -28.5098034, 75.3225476
3136, 2, -17.8747858, 73.2408388
3137, 2, -26.9557108, 71.7807171
3138, 2, -27.0152414, 72.5277399
3139, 2, -26.3906232, 71.333864
3140, 2, -28.1703052, 77.9878824
3141, 2, -27.8759626, 78.614255
3142, 2, -17.0956081, 71.2781282
3143, 2, -17.7531404, 71.2347884
3144, 2, -26.1826321, 78.8855781
3145, 2, -29.3115147, 70.7606353
3146, 2, -28.7990001, 71.0947196
3147, 2, -14.6875767, 79.2392794
3148, 2, -15.2009999, 78.9052804
3149, 2, -14.1152958, 75.62278
3150, 2, -13.6724081, 75.1466238
3151, 2, -17.2268506, 78.5794387
3152, 2, -16.4281174, 77.0668619
3153, 2, -28.8565641, 70.1075972
3154, 2, -15.1425314, 79.8927074
3155, 2, -29.9117649, 79.3785686
3156, 2, -30.3543735, 79.6501072
3157, 2, -30.774794, 79.465407
3158, 2, -14.0858112, 70.6168178
3159, 2, -13.6454792, 70.3496126
3160, 2, -13.2251814, 70.5345463
3161, 2, -27.0554513, 71.0317016
3162, 2, -18.0588753, 71.933929
3163, 2, -15.1557788, 70.2262422
3164, 2, -18.2928661, 79.3579933
3165, 2, -19.0196363, 79.4295175
3166, 2, -19.5333037, 78.8334186
3167, 2, -28.8873636, 79.8455647
3168, 2, -16.9610552, 74.3505058
3169, 2, -17.7340054, 74.4317862
3170, 2, -31.157031, 73.9683655
3171, 2, -12.7867323, 76.0844238
3172, 2, -27.2088828, 79.8123082
3173, 2, -17.6035573, 70.1507814
3174, 2, -27.1480621, 70.2692193
3175, 2, -26.5676735, 74.9137401
3176, 2, -25.5122728, 79.8345205
3177, 2, -16.7948629, 79.8207082
3178, 2, -26.1249262, 75.5349151
3179, 2, -17.0414776, 77.5618736
3180, 2, -31.3816688, 75.7442574
3181, 2, -12.6686871, 74.2306889
3182, 2, -18.6267875, 75.3960925
3183, 2, -25.5980295, 70.1783395
3184, 2, -27.6491997, 72.9512497
3185, 2, -24.7993099, 70.1558627
3186, 2, -24.3357131, 70.8372539
3187, 2, -26.6024256, 78.2304307
3188, 2, -26.9839207, 78.9561711
3189, 2, -23.9959018, 79.8154045
3190, 2, -24.3085208, 79.175778
3191, 2, -23.5402432, 79.1367586
3192, 2, -20.7976461, 79.8232847
3193, 2, -20.290492, 79.127217
3194, 2, -21.1718025, 79.1234309
3195, 2, -20.7926093, 78.4385437
3196, 2, -21.5771194, 78.4359526
3197, 2, -21.2065, 77.7490896
3198, 2, -21.9725595, 77.7534704
3199, 2, -22.3662936, 78.4309967
3200, 2, -22.7559466, 77.7693493
3201, 2, -22.4262658, 77.125033
3202, 2, -23.1319002, 78.4458526
3203, 2, -23.5457215, 77.8520899
3204, 2, -21.5912272, 79.8113213
3205, 2, -20.5739424, 76.2864418
3206, 2, -20.8758612, 77.0277746
3207, 2, -23.1965696, 70.1394702
3208, 2, -21.962583, 74.4053406
3209, 2, -21.6439185, 73.6934772
3210, 2, -20.8644249, 73.6196574
3211, 2, -22.4258787, 73.7846062
3212, 2, -20.4083477, 74.2491923
3213, 2, -21.6004013, 70.1907845
3214, 2, -21.9879988, 70.8920475
3215, 2, -21.1585869, 70.9030041
3216, 2, -20.4406445, 77.7001509
3217, 2, -23.1831684, 79.8112344
3218, 2, -23.5190777, 74.5838094
3219, 2, -24.4352588, 73.3505664
3220, 2, -21.9780692, 79.1168174
3221, 2, -15.9979903, 70.2251891
3222, 2, -22.7666124, 79.1248066
3223, 2, -24.2916002, 74.6724971
3224, 2, -20.369968, 70.8639142
3225, 2, -26.8662492, 75.6346248
3226, 2, -27.3754594, 74.9906077
3227, 2, -24.475994, 76.6988145
3228, 2, -20.1189996, 76.9292192
3229, 2, -24.7482058, 74.0540916
3230, 2, -15.997607, 75.2034124
3231, 2, -26.2891064, 77.5429776
3232, 2, -20.0937663, 73.5483386
3233, 2, -19.2329656, 78.1672652
3234, 2, -22.8964596, 76.5137472
3235, 2, -22.8699735, 70.9402185
3236, 2, -21.4876948, 71.6248294
3237, 2, -21.7929834, 72.3600304
3238, 2, -30.0232531, 70.5842046
3239, 2, -30.5285614, 70.4150089
3240, 2, -30.9468732, 70.6312665
3241, 2, -13.9765955, 79.4157812
3242, 2, -13.4714133, 79.5849888
3243, 2, -13.0531232, 79.3687331
3244, 2, -15.0432154, 74.6092755
3245, 2, -23.9780017, 73.9699412
3246, 2, -20.5482072, 72.9252213
3247, 2, -12.9846737, 70.8941856
3248, 2, -31.0153222, 79.1058066
3249, 2, -22.1021124, 73.0813447
3250, 2, -28.3319877, 79.1812776
3251, 2, -22.8872298, 73.174745
3252, 2, -23.2019957, 73.8793149
3253, 2, -16.2291266, 74.5870771
3254, 2, -19.1920712, 70.1591807
3255, 2, -21.3239205, 73.0048023
3256, 2, -26.4162699, 72.9450927
3257, 2, -31.3212392, 76.4254631
3258, 2, -12.7075933, 73.5720949
3259, 2, -16.4912922, 70.943561
3260, 2, -19.9920315, 70.1722242
3261, 2, -29.1620493, 75.2717088
3262, 2, -21.6618683, 77.0692254
3263, 2, -12.7208499, 71.5755611
3264, 2, -12.6570073, 78.3830364
3265, 2, -31.2791501, 78.4244389
3266, 2, -31.3429927, 71.6169636
3267, 2, -31.3409334, 70.8387248
3268, 2, -31.215428, 70.3514336
3269, 2, -30.9422725, 71.0322185
3270, 2, -31.3566833, 79.1737304
3271, 2, -12.6433164, 70.8262689
3272, 2, -12.6590666, 79.1612752
3273, 2, -12.7845718, 79.6485663
3274, 2, -13.0577275, 78.9677815
3275, 2, -18.800699, 70.7542244
3276, 2, -13.1790977, 74.722354
3277, 2, -27.6807924, 79.2807645
3278, 2, -31.6607789, 78.1628993
3279, 2, -12.3403557, 78.141796
3280, 2, -12.3392211, 71.8371007
3281, 2, -31.6596443, 71.858204
3282, 2, -18.2705658, 76.1264377
3283, 2, -30.7817582, 75.3814026
3284, 2, -22.12506, 76.4397282
3285, 2, -17.2032669, 73.0919096
3286, 2, -24.0606478, 77.2913889
3287, 2, -20.0526741, 78.3603771
3288, 2, -27.3105324, 78.2371522
3289, 2, -12.8706191, 70.566063
3290, 2, -31.1293809, 79.433937
3291, 2, -17.1805925, 76.8894386
3292, 2, -17.6356114, 72.5222055
3293, 2, -30.6855224, 79.8662758
3294, 2, -13.3144601, 70.1336908
3295, 2, -27.666107, 74.2555366
3296, 2, -16.0141841, 71.6496314
3297, 2, -25.9603139, 70.7752832
3298, 2, -18.7572071, 72.0525852
3299, 2, -17.1687837, 79.331035
3300, 2, -30.1496441, 70.1301987
3301, 2, -30.6239655, 70.0047155
3302, 2, -13.8503559, 79.8698013
3303, 2, -13.3760332, 79.9952844
3304, 2, -30.7921351, 74.6599114
3305, 2, -30.1001287, 74.6088616
3306, 2, -27.612177, 70.7725363
3307, 2, -16.4418736, 79.2369038
3308, 2, -23.2291946, 77.1975224
3309, 2, -30.0604713, 79.9539592
3310, 2, -13.937816, 70.0428236
3311, 2, -31.2690527, 79.6757029
3312, 2, -12.7309473, 70.3242971
3313, 2, -18.1854125, 73.933598
3314, 2, -23.8929832, 78.5073518
3315, 2, -25.2043306, 70.7793905
3316, 2, -15.7760988, 78.909293
3317, 2, -29.7628246, 75.1855086
3318, 2, -30.5832413, 80.1696861
3319, 2, -13.4167558, 69.8303084
3320, 2, -13.1965919, 69.8826382
3321, 2, -30.8034041, 80.117354
3322, 2, -28.2166769, 71.0697509
3323, 2, -31.6133791, 79.2786047
3324, 2, -12.3866208, 70.7213951
3325, 2, -31.602363, 70.7096156
3326, 2, -12.397637, 79.2903844
3327, 2, -27.6927694, 77.5839623
3328, 2, -17.4629338, 73.7854189
3329, 2, -12.2346331, 78.8511533
3330, 2, -31.7653669, 71.1488467
3331, 2, -14.696388, 75.3709293
3332, 2, -28.2351866, 75.8607482
3333, 2, -30.1266991, 69.8027808
3334, 2, -13.8733009, 80.1972192
3335, 2, -28.8978225, 75.8879083
3336, 2, -29.6217105, 74.0984478
3337, 2, -13.3465407, 74.0272524
3338, 2, -25.6611991, 71.4698722
3339, 2, -18.4231994, 71.3420503
3340, 2, -15.0784394, 73.9780607
3341, 2, -17.4800626, 76.2296921
3342, 2, -27.0169367, 73.153171
3343, 2, -13.0028781, 75.4683179
3344, 2, -15.6297927, 72.3369848
3345, 2, -30.7760984, 75.9831489
3346, 2, -27.3177347, 73.7043425
3347, 2, -15.7854485, 76.9198726
3348, 2, -28.2321997, 73.0804767
3349, 2, -18.4349812, 79.9809083
3350, 2, -24.6736255, 78.6174723
3351, 2, -15.6620357, 74.7607521
3352, 2, -30.9095728, 70.2705167
3353, 2, -13.0904236, 79.7294829
3354, 2, -24.2423767, 71.5125491
3355, 2, -16.8667497, 78.1193719
3356, 2, -28.5873485, 70.6257691
3357, 2, -14.6194657, 70.5675883
3358, 2, -15.4088021, 79.3720783
3359, 2, -25.0205991, 79.2420508
3360, 2, -29.3928998, 79.4692643
3361, 2, -30.3972026, 79.9803558
3362, 2, -13.6024213, 70.0189369
3363, 2, -17.5642048, 77.329062
3364, 2, -18.0112121, 75.0163721
3365, 2, -31.4628538, 74.4224773
3366, 2, -12.5551502, 76.5744153
3367, 2, -31.436816, 73.4331261
3368, 2, -18.0011011, 70.6262679
3369, 2, -19.2124689, 80.0242867
3370, 2, -31.0027632, 79.7054242
3371, 2, -12.997235, 70.2945723
3372, 2, -14.474082, 71.0360344
3373, 2, -29.5315032, 78.9442525
3374, 2, -30.3193056, 75.0971852
3375, 2, -14.4707812, 76.0541177
3376, 2, -31.1858719, 79.8723484
3377, 2, -12.8141279, 70.1276511
3378, 2, -30.7893142, 69.8415538
3379, 2, -30.6149154, 69.7724581
3380, 2, -13.390664, 80.2244955
3381, 2, -13.2061234, 80.1577756
3382, 2, -28.410877, 77.513895
3383, 2, -23.6004857, 70.6343401
3384, 2, -31.5281118, 72.4775173
3385, 2, -31.5281945, 77.5240208
3386, 2, -12.4718055, 72.4759792
3387, 2, -12.4718882, 77.5224827
3388, 2, -28.7460788, 71.5804886
3389, 2, -15.2539265, 78.41733
3390, 2, -13.0265364, 71.2667077
3391, 2, -30.9734631, 78.7332915
3392, 2, -17.7283209, 79.1705564
3393, 2, -25.7423057, 79.2686993
3394, 2, -31.1454901, 70.1263483
3395, 2, -12.8545091, 79.8736516
3396, 2, -31.0898451, 71.3535965
3397, 2, -12.9101549, 78.6464035
3398, 2, -16.3900206, 74.0309022
3399, 2, -17.2481643, 70.6563414
3400, 2, -12.7625499, 79.4090113
3401, 2, -31.2374491, 70.5909886
3402, 2, -27.9331446, 75.3274016
3403, 2, -19.6199461, 79.4250235
3404, 2, -12.4654671, 75.6487115
3405, 2, -26.5487332, 70.7221854
3406, 2, -12.160766, 78.6726487
3407, 2, -12.1522108, 78.5421225
3408, 2, -12.1701778, 78.320898
3409, 2, -12.1701778, 77.9320091
3410, 2, -12.3223886, 78.3630205
3411, 2, -12.1513907, 78.9343957
3412, 2, -12.1258717, 78.8061028
3413, 2, -12.2695274, 78.7176991
3414, 2, -12.1482221, 71.4438923
3415, 2, -12.1567772, 71.3133661
3416, 2, -12.1696106, 72.0574393
3417, 2, -12.1696106, 71.6685504
3418, 2, -12.3178326, 71.6124427
3419, 2, -12.2538654, 79.1665881
3420, 2, -12.2118191, 79.0427237
3421, 2, -12.2950615, 78.9594813
3422, 2, -12.3327931, 79.3951922
3423, 2, -12.274939, 79.2778756
3424, 2, -12.3765634, 79.1790968
3425, 2, -12.4833658, 79.5874967
3426, 2, -12.4106937, 79.4787353
3427, 2, -12.4755376, 79.3739275
3428, 2, -12.6851791, 79.7813899
3429, 2, -12.5989325, 79.6830446
3430, 2, -12.669005, 79.5530184
3431, 2, -12.8184931, 79.9801791
3432, 2, -12.7201478, 79.8939326
3433, 2, -12.8195404, 79.761109
3434, 2, -13.0146433, 80.1106696
3435, 2, -12.9058819, 80.0379975
3436, 2, -12.9418979, 79.93147
3437, 2, -13.2203783, 80.2527673
3438, 2, -13.1030617, 80.1949132
3439, 2, -13.117705, 80.073532
3440, 2, -13.4365129, 80.3281736
3441, 2, -13.3126486, 80.2861273
3442, 2, -13.2983937, 80.1911356
3443, 2, -13.6803276, 80.3436289
3444, 2, -13.5520347, 80.3181099
3445, 2, -13.5061858, 80.2144318
3446, 2, -13.9366504, 80.3486096
3447, 2, -13.8061243, 80.3400544
3448, 2, -13.7475042, 80.2007936
3449, 2, -14.5768395, 80.2277601
3450, 2, -14.1768395, 80.2277601
3451, 2, -14.1134899, 80.0763697
3452, 2, -30.2817285, 80.3723203
3453, 2, -30.1512023, 80.3808754
3454, 2, -29.7838256, 80.2150618
3455, 2, -29.3838256, 80.2150618
3456, 2, -30.181438, 80.1078551
3457, 2, -30.0302356, 80.2269796
3458, 2, -29.8140612, 79.9420414
3459, 2, -30.4100214, 80.3468013
3460, 2, -30.6743041, 80.2587226
3461, 2, -30.5504397, 80.3007689
3462, 2, -30.442823, 80.2157185
3463, 2, -30.901702, 80.1747024
3464, 2, -30.7843855, 80.2325566
3465, 2, -30.6933227, 80.1435201
3466, 2, -31.1002063, 80.0288526
3467, 2, -30.9914449, 80.1015246
3468, 2, -30.8931469, 80.0441762
3469, 2, -31.3000427, 79.893281
3470, 2, -31.2016974, 79.9795276
3471, 2, -31.0843808, 79.9216734
3472, 2, -31.4278797, 79.6966129
3473, 2, -31.3416331, 79.7949582
3474, 2, -31.2274623, 79.7740257
3475, 2, -31.5887298, 79.4820447
3476, 2, -31.5160577, 79.5908061
3477, 2, -31.3572308, 79.5698962
3478, 2, -31.7305691, 79.2719858
3479, 2, -31.672715, 79.3893024
3480, 2, -31.529394, 79.3713471
3481, 2, -31.8084227, 79.0037375
3482, 2, -31.7663764, 79.1276019
3483, 2, -31.6491864, 79.1342208
3484, 2, -31.8339417, 78.8754446
3485, 2, -31.8517779, 78.5561077
3486, 2, -31.8432228, 78.6866339
3487, 2, -31.6942748, 78.8010261
3488, 2, -31.8303894, 77.9425607
3489, 2, -31.8303894, 78.3314496
3490, 2, -31.6821674, 78.3875573
3491, 2, -31.839234, 71.3273513
3492, 2, -31.8477892, 71.4578775
3493, 2, -31.8298222, 71.679102
3494, 2, -31.8298222, 72.0679909
3495, 2, -31.6776114, 71.6369795
3496, 2, -31.8486093, 71.0656043
3497, 2, -31.8741283, 71.1938972
3498, 2, -31.7304726, 71.2823009
3499, 2, -31.7461346, 70.8334119
3500, 2, -31.7881809, 70.9572763
3501, 2, -31.7049385, 71.0405187
3502, 2, -31.6672069, 70.6048078
3503, 2, -31.725061, 70.7221244
3504, 2, -31.6234366, 70.8209032
3505, 2, -31.5166342, 70.4125033
3506, 2, -31.5893063, 70.5212647
3507, 2, -31.5244624, 70.6260725
3508, 2, -31.3148208, 70.21861
3509, 2, -31.4010673, 70.3169554
3510, 2, -31.3309949, 70.4469815
3511, 2, -31.1815065, 70.0198208
3512, 2, -31.2798518, 70.1060674
3513, 2, -31.180459, 70.238891
3514, 2, -30.9853567, 69.8893304
3515, 2, -31.0941181, 69.9620025
3516, 2, -31.0581017, 70.06853
3517, 2, -30.7773405, 69.7468974
3518, 2, -30.8946571, 69.8047515
3519, 2, -30.8800138, 69.9261327
3520, 2, -30.5662768, 69.6703032
3521, 2, -30.6901411, 69.7123495
3522, 2, -30.7021148, 69.807006
3523, 2, -30.3196724, 69.6563711
3524, 2, -30.4479653, 69.6818901
3525, 2, -30.4966039, 69.784045
3526, 2, -30.0633496, 69.6513904
3527, 2, -30.1938757, 69.6599456
3528, 2, -30.2524958, 69.7992064
3529, 2, -29.4231605, 69.7722399
3530, 2, -29.8231605, 69.7722399
3531, 2, -29.8865101, 69.9236303
3532, 2, -13.7182715, 69.6276797
3533, 2, -13.8487977, 69.6191246
3534, 2, -14.2073891, 69.7684681
3535, 2, -14.6073891, 69.7684681
3536, 2, -13.8177057, 69.8905364
3537, 2, -13.968908, 69.7714118
3538, 2, -14.1762972, 70.0398799
3539, 2, -13.5899786, 69.6531987
3540, 2, -13.3256945, 69.7412747
3541, 2, -13.4495589, 69.6992284
3542, 2, -13.5571756, 69.7842787
3543, 2, -13.0982959, 69.8252937
3544, 2, -13.2156125, 69.7674396
3545, 2, -13.3066738, 69.8564733
3546, 2, -12.8997937, 69.9711474
3547, 2, -13.0085551, 69.8984754
3548, 2, -13.1068511, 69.9558199
3549, 2, -12.6999572, 70.1067188
3550, 2, -12.7983025, 70.0204722
3551, 2, -12.9156191, 70.0783263
3552, 2, -12.5721203, 70.3033871
3553, 2, -12.6583669, 70.2050418
3554, 2, -12.7725376, 70.2259741
3555, 2, -12.4112702, 70.5179553
3556, 2, -12.4839423, 70.4091939
3557, 2, -12.6427692, 70.4301038
3558, 2, -12.2694309, 70.7280141
3559, 2, -12.327285, 70.6106976
3560, 2, -12.470606, 70.6286529
3561, 2, -12.1915773, 70.9962625
3562, 2, -12.2336236, 70.8723981
3563, 2, -12.3508135, 70.8657791
3564, 2, -12.1660583, 71.1245554
3565, 2, -12.3057252, 71.1989739
3566, 2, -30.1950684, 73.8613426
3567, 2, -30.5330449, 73.7515274
3568, 2, -29.4728787, 73.7644087
3569, 2, -29.8108553, 73.8742239
3570, 2, -30.0059236, 74.0855666
3571, 2, -14.2546639, 73.8973704
3572, 2, -14.5926404, 73.7875552
3573, 2, -13.3352938, 73.728811
3574, 2, -13.6732703, 73.8386262
3575, 2, -13.9236992, 74.0276213
3576, 2, -14.1783631, 74.2749916
3577, 2, -13.5969696, 74.2162475
3578, 2, -30.2628925, 78.8510607
3579, 2, -30.600869, 78.7412455
3580, 2, -29.4277751, 78.687311
3581, 2, -29.7657516, 78.7971263
3582, 2, -29.9558824, 79.0142843
3583, 2, -30.218775, 79.215345
3584, 2, -29.7216341, 79.1614106
3585, 2, -14.3437883, 78.9446397
3586, 2, -14.6817649, 78.8348244
3587, 2, -13.4041987, 78.7667718
3588, 2, -13.7421753, 78.876587
3589, 2, -13.730473, 79.2594776
3590, 2, -13.9882977, 79.0328906
3591, 2, -14.3320861, 79.3275303
3592, 2, -12.2359027, 72.7657674
3593, 2, -12.2359027, 72.3768785
3594, 2, -12.4055133, 72.1565399
3595, 2, -12.3537966, 73.7027141
3596, 2, -12.3537966, 73.3138252
3597, 2, -12.8069391, 73.2137322
3598, 2, -12.4531425, 72.9554625
3599, 2, -12.6728625, 72.6704992
3600, 2, -12.3343435, 74.4209
3601, 2, -12.3343435, 74.0320111
3602, 2, -12.6881402, 73.9013919
3603, 2, -12.2786539, 75.1967107
3604, 2, -12.2786539, 74.8078218
3605, 2, -12.6129974, 74.6176107
3606, 2, -12.2327336, 75.9076891
3607, 2, -12.2327336, 75.5188002
3608, 2, -12.5113875, 75.326622
3609, 2, -12.2775751, 76.7594299
3610, 2, -12.2775751, 76.370541
3611, 2, -12.6709413, 76.3294196
3612, 2, -12.3933662, 76.1255453
3613, 2, -12.6260997, 75.8665677
3614, 2, -12.2359441, 77.6223525
3615, 2, -12.2359441, 77.2334636
3616, 2, -12.7307176, 76.8595229
3617, 2, -12.4531425, 77.0445375
3618, 2, -12.6890866, 77.3335566
3619, 2, -12.4061219, 77.8321393
3620, 2, -15.3712657, 80.1963537
3621, 2, -14.9712657, 80.1963537
3622, 2, -14.7481052, 79.9241138
3623, 2, -16.1720821, 80.1283063
3624, 2, -15.7720821, 80.1283063
3625, 2, -15.5433478, 79.82466
3626, 2, -16.9974315, 80.1603541
3627, 2, -16.5974315, 80.1603541
3628, 2, -16.3695136, 79.7886604
3629, 2, -17.8317137, 80.1525683
3630, 2, -17.4317137, 80.1525683
3631, 2, -17.2291451, 79.8129224
3632, 2, -18.6174906, 80.2404541
3633, 2, -18.2174906, 80.2404541
3634, 2, -18.0492042, 79.8930224
3635, 2, -19.4062344, 80.2621433
3636, 2, -19.0062344, 80.2621433
3637, 2, -18.823725, 80.0025975
3638, 2, -20.2023418, 80.1973093
3639, 2, -19.8023418, 80.1973093
3640, 2, -19.6085762, 79.9594527
3641, 2, -20.9988231, 80.1616424
3642, 2, -20.5988231, 80.1616424
3643, 2, -20.4011649, 79.8589517
3644, 2, -21.7956136, 80.1556607
3645, 2, -21.3956136, 80.1556607
3646, 2, -21.1944366, 79.817303
3647, 2, -22.6, 80.1535898
3648, 2, -22.2, 80.1535898
3649, 2, -21.9956136, 79.8092505
3650, 2, -23.3915842, 80.1556172
3651, 2, -22.9915842, 80.1556172
3652, 2, -22.7915842, 79.809207
3653, 2, -24.1979509, 80.1577023
3654, 2, -23.7979509, 80.1577023
3655, 2, -23.5895351, 79.8133195
3656, 2, -24.9836638, 80.1654106
3657, 2, -24.5836638, 80.1654106
3658, 2, -24.3816147, 79.8231129
3659, 2, -25.7561364, 80.1672602
3660, 2, -25.3561364, 80.1672602
3661, 2, -25.1398002, 79.8326709
3662, 2, -26.5788808, 80.0878996
3663, 2, -26.1788808, 80.0878996
3664, 2, -25.9350172, 79.7551598
3665, 2, -27.4044414, 80.1561541
3666, 2, -27.0044414, 80.1561541
3667, 2, -26.7833223, 79.7440537
3668, 2, -28.2016041, 80.1699053
3669, 2, -27.8016041, 80.1699053
3670, 2, -27.6060455, 79.8260594
3671, 2, -29.0436818, 80.1727823
3672, 2, -28.6436818, 80.1727823
3673, 2, -28.4452859, 79.8426876
3674, 2, -29.2275074, 79.8878441
3675, 2, -31.7665761, 77.2331755
3676, 2, -31.7640973, 77.6231215
3677, 2, -31.5944867, 77.8434601
3678, 2, -31.6606196, 76.2960649
3679, 2, -31.6606196, 76.6849537
3680, 2, -31.2074771, 76.7850468
3681, 2, -31.5468575, 77.0445375
3682, 2, -31.3251837, 77.3312161
3683, 2, -31.6908344, 75.5665732
3684, 2, -31.6908344, 75.9554621
3685, 2, -31.351454, 76.0848602
3686, 2, -31.6825516, 74.825388
3687, 2, -31.6825516, 75.2142769
3688, 2, -31.373386, 75.3919612
3689, 2, -31.7314269, 74.1279053
3690, 2, -31.7314269, 74.5167942
3691, 2, -31.4139785, 74.7310711
3692, 2, -31.718408, 73.2443408
3693, 2, -31.718408, 73.6332297
3694, 2, -31.3099424, 74.1954214
3695, 2, -31.5785155, 73.9008494
3696, 2, -31.2969235, 73.7007458
3697, 2, -31.7640559, 72.3776475
3698, 2, -31.7640559, 72.7665364
3699, 2, -31.2740502, 73.1446189
3700, 2, -31.5468575, 72.9554625
3701, 2, -31.3109134, 72.6664434
3702, 2, -31.5950025, 72.1657148
3703, 2, -28.628282, 69.8037986
3704, 2, -29.028282, 69.8037986
3705, 2, -29.2514426, 70.0760385
3706, 2, -27.8288387, 69.872949
3707, 2, -28.2288387, 69.872949
3708, 2, -28.4571207, 70.1767476
3709, 2, -26.9740311, 69.8846097
3710, 2, -27.3740311, 69.8846097
3711, 2, -27.6028698, 70.2575587
3712, 2, -26.1796714, 69.8217507
3713, 2, -26.5796714, 69.8217507
3714, 2, -26.7537025, 70.2063604
3715, 2, -25.3990147, 69.8391698
3716, 2, -25.7990147, 69.8391698
3717, 2, -25.9786862, 70.1609204
3718, 2, -24.5996549, 69.8279314
3719, 2, -24.9996549, 69.8279314
3720, 2, -25.1986697, 70.1671011
3721, 2, -23.8000387, 69.8237782
3722, 2, -24.2000387, 69.8237782
3723, 2, -24.3996936, 70.1517096
3724, 2, -22.9982848, 69.8197351
3725, 2, -23.3982848, 69.8197351
3726, 2, -23.5983235, 70.1435133
3727, 2, -22.198761, 69.8451151
3728, 2, -22.598761, 69.8451151
3729, 2, -22.7970458, 70.1648502
3730, 2, -21.4002006, 69.8453922
3731, 2, -21.8002006, 69.8453922
3732, 2, -21.9989616, 70.1905073
3733, 2, -20.6018129, 69.8439639
3734, 2, -21.0018129, 69.8439639
3735, 2, -21.2020135, 70.1893562
3736, 2, -19.7960157, 69.8361121
3737, 2, -20.1960157, 69.8361121
3738, 2, -20.3978286, 70.180076
3739, 2, -18.9960356, 69.8295903
3740, 2, -19.3960356, 69.8295903
3741, 2, -19.5920514, 70.1657024
3742, 2, -18.1975659, 69.8155314
3743, 2, -18.5975659, 69.8155314
3744, 2, -18.7936015, 70.1451218
3745, 2, -17.4017787, 69.8253907
3746, 2, -17.8017787, 69.8253907
3747, 2, -17.9993445, 70.1409221
3748, 2, -16.5974566, 69.8338945
3749, 2, -16.9974566, 69.8338945
3750, 2, -17.1992352, 70.1592852
3751, 2, -15.7989952, 69.8625945
3752, 2, -16.1989952, 69.8625945
3753, 2, -16.3964518, 70.196489
3754, 2, -14.9778894, 69.8631211
3755, 2, -15.3778894, 69.8631211
3756, 2, -15.5768846, 70.2257156
3757, 2, -14.7852785, 70.1315892
3758, 2, -31.063391, 73.4407621
3759, 2, -30.7735839, 74.0205254
3760, 2, -30.916492, 73.6993675
3761, 2, -31.3258084, 72.3026451
3762, 2, -31.2183538, 71.880797
3763, 2, -31.0094728, 71.593297
3764, 2, -31.3766797, 72.0014172
3765, 2, -31.5013185, 71.7375838
3766, 2, -30.5958013, 71.2332282
3767, 2, -30.2578247, 71.123413
3768, 2, -30.8091128, 71.3009245
3769, 2, -30.728961, 70.9645223
3770, 2, -31.2164189, 71.4852801
3771, 2, -30.8828991, 71.4616135
3772, 2, -31.0160588, 71.1929075
3773, 2, -29.6557573, 71.0553176
3774, 2, -29.3177808, 71.1651329
3775, 2, -30.2694513, 70.7405153
3776, 2, -30.0116266, 70.9671023
3777, 2, -29.6673839, 70.6724199
3778, 2, -29.0350629, 71.5750595
3779, 2, -28.8261819, 71.8625595
3780, 2, -29.0552574, 70.9276774
3781, 2, -29.0615235, 71.332175
3782, 2, -28.7725394, 71.3376041
3783, 2, -28.5896759, 72.3126681
3784, 2, -28.5896759, 72.6680376
3785, 2, -28.5748862, 71.9762973
3786, 2, -28.2582771, 72.1443349
3787, 2, -28.4947831, 71.6942264
3788, 2, -28.7620163, 73.1926885
3789, 2, -28.9708973, 73.4801885
3790, 2, -28.2526333, 72.7805912
3791, 2, -28.5692423, 72.9679231
3792, 2, -28.4249736, 73.305242
3793, 2, -28.8163123, 73.8162346
3794, 2, -29.1694619, 73.7664157
3795, 2, -29.3182937, 74.1004548
3796, 2, -15.0414546, 73.463513
3797, 2, -15.2503356, 73.176013
3798, 2, -14.8771962, 73.7042151
3799, 2, -15.2426978, 73.7373586
3800, 2, -14.7938836, 74.0614007
3801, 2, -15.3617539, 72.5961772
3802, 2, -15.3617539, 72.2408076
3803, 2, -15.6185476, 73.2181933
3804, 2, -15.461927, 72.8975499
3805, 2, -15.7299659, 72.6383575
3806, 2, -15.2175698, 71.8686825
3807, 2, -15.0086889, 71.5811825
3808, 2, -15.4856087, 71.9648597
3809, 2, -14.5750175, 71.3028324
3810, 2, -14.237041, 71.1930172
3811, 2, -15.1729149, 71.2843632
3812, 2, -14.8401791, 71.2728111
3813, 2, -14.7392435, 71.0060131
3814, 2, -13.7371075, 71.1489393
3815, 2, -13.399131, 71.2587545
3816, 2, -14.0429056, 70.9834089
3817, 2, -13.7800131, 70.7823482
3818, 2, -14.2799466, 70.8264261
3819, 2, -13.0224484, 71.5725958
3820, 2, -12.8135674, 71.8600958
3821, 2, -13.2503757, 71.1072931
3822, 2, -13.1752917, 71.4181691
3823, 2, -12.8736932, 71.4211344
3824, 2, -12.6763427, 72.3014929
3825, 2, -12.5300355, 71.7063309
3826, 2, -12.6232111, 71.9920715
3827, 2, -13.0158201, 73.5012322
3828, 2, -13.027067, 73.7996736
3829, 2, -30.9775516, 78.4274042
3830, 2, -31.1864326, 78.1399042
3831, 2, -30.7496241, 78.8927065
3832, 2, -30.8247081, 78.5818305
3833, 2, -31.1263066, 78.5788652
3834, 2, -31.3235394, 77.6963613
3835, 2, -31.4699645, 78.2936691
3836, 2, -31.3772469, 78.0091344
3837, 2, -31.0027436, 76.4890877
3838, 2, -30.7260257, 76.2763897
3839, 2, -30.3880492, 76.1665744
3840, 2, -31.0486688, 76.204306
3841, 2, -29.7731997, 76.0783481
3842, 2, -29.4352231, 76.1881634
3843, 2, -30.0798407, 76.000121
3844, 2, -29.8530404, 75.7284692
3845, 2, -30.4678899, 75.8166954
3846, 2, -28.9667483, 76.5328744
3847, 2, -28.7578673, 76.8203744
3848, 2, -29.1109348, 76.2287694
3849, 2, -28.7536361, 76.1920133
3850, 2, -29.2221109, 75.8473023
3851, 2, -28.658581, 77.3292627
3852, 2, -28.658581, 77.6846323
3853, 2, -28.3937206, 76.7607693
3854, 2, -28.5421383, 77.0850254
3855, 2, -28.2944343, 77.2696576
3856, 2, -28.7611995, 78.1804144
3857, 2, -28.9700805, 78.4679144
3858, 2, -28.5382951, 77.921626
3859, 2, -28.3932096, 78.2466708
3860, 2, -28.2905911, 77.7508887
3861, 2, -28.8151445, 78.7806132
3862, 2, -29.1691109, 78.7430683
3863, 2, -29.2728391, 79.0000098
3864, 2, -14.9649398, 78.4238498
3865, 2, -15.1738208, 78.1363498
3866, 2, -14.9442883, 79.0722799
3867, 2, -14.9384765, 78.667825
3868, 2, -15.2274632, 78.6613052
3869, 2, -15.425953, 77.6784827
3870, 2, -15.425953, 77.3231132
3871, 2, -15.4287519, 78.0234918
3872, 2, -15.76099, 77.846605
3873, 2, -15.5088577, 78.3044721
3874, 2, -15.2376892, 76.8073396
3875, 2, -15.0288082, 76.5198396
3876, 2, -15.4395817, 77.0322515
3877, 2, -15.5835559, 76.6949607
3878, 2, -15.7718198, 77.2107343
3879, 2, -14.5733671, 76.3118741
3880, 2, -14.2353906, 76.2020588
3881, 2, -15.2003098, 76.2002348
3882, 2, -14.8474547, 76.2500257
3883, 2, -14.7448687, 75.9922693
3884, 2, -13.7386776, 76.1209132
3885, 2, -13.4007011, 76.2307284
3886, 2, -14.0576479, 75.98639
3887, 2, -13.7963255, 75.7573032
3888, 2, -14.2930385, 75.8384488
3889, 2, -12.9395986, 76.5720229
3890, 2, -13.1320438, 75.9881251
3891, 2, -13.0553896, 76.3270271
3892, 2, -12.6890866, 77.6889261
3893, 2, -12.7816462, 78.119203
3894, 2, -12.9905272, 78.406703
3895, 2, -12.6233203, 77.9985828
3896, 2, -12.4986815, 78.2624162
3897, 2, -13.1908872, 78.6990755
3898, 2, -13.271039, 79.0354777
3899, 2, -12.7835811, 78.5147199
3900, 2, -13.1171009, 78.5383865
3901, 2, -12.9839412, 78.8070925
3902, 2, -20.9811064, 70.545466
3903, 2, -21.3794941, 70.5468943
3904, 2, -20.5867969, 70.525921
3905, 2, -20.7642775, 70.8834591
3906, 2, -20.1809998, 70.5180692
3907, 2, -24.1678953, 70.4924051
3908, 2, -24.5675115, 70.4965583
3909, 2, -23.8002816, 70.3909482
3910, 2, -23.9680994, 70.735797
3911, 2, -23.3985277, 70.3869051
3912, 2, -22.1890346, 79.4619985
3913, 2, -21.7846482, 79.4640694
3914, 2, -22.9748904, 79.4680205
3915, 2, -22.5833062, 79.4659931
3916, 2, -22.3723408, 79.120812
3917, 2, -20.5440691, 79.4752509
3918, 2, -20.1475878, 79.5109178
3919, 2, -19.955219, 79.2761202
3920, 2, -19.8123148, 79.6598211
3921, 2, -19.4162075, 79.7246551
3922, 2, -25.2664359, 79.5382856
3923, 2, -24.8939633, 79.536436
3924, 2, -24.5379242, 79.5032996
3925, 2, -24.1522113, 79.4955913
3926, 2, -24.6645599, 79.2089144
3927, 2, -15.5335532, 76.1547933
3928, 2, -15.3521996, 75.8849794
3929, 2, -15.7390566, 76.4322275
3930, 2, -15.8909464, 76.1169721
3931, 2, -15.9409491, 76.6571394
3932, 2, -28.2511214, 76.4627275
3933, 2, -28.0353924, 76.7273784
3934, 2, -28.4223181, 76.1784333
3935, 2, -28.0639899, 76.1450423
3936, 2, -28.5665046, 75.8743282
3937, 2, -17.8023292, 70.3885246
3938, 2, -18.1981164, 70.3786653
3939, 2, -18.5979154, 70.4426436
3940, 2, -18.9963851, 70.4567025
3941, 2, -18.4009, 70.6902461
3942, 2, -27.9436585, 71.9772676
3943, 2, -27.9584483, 72.3136383
3944, 2, -27.6465147, 72.5489103
3945, 2, -27.9611333, 72.7159777
3946, 2, -27.9406997, 73.0158632
3947, 2, -15.7587758, 73.5208657
3948, 2, -15.9703672, 73.2424025
3949, 2, -15.5579915, 73.8138359
3950, 2, -15.9098112, 73.8380451
3951, 2, -15.3937332, 74.054538
3952, 2, -18.3639236, 79.6694508
3953, 2, -17.9781467, 79.5815649
3954, 2, -18.0105935, 79.2642749
3955, 2, -17.6958741, 79.4878465
3956, 2, -17.4161055, 79.5680858
3957, 2, -16.9818233, 79.5758716
3958, 2, -17.4485523, 79.2507957
3959, 2, -26.4540381, 70.4328434
3960, 2, -26.8483977, 70.4957024
3961, 2, -25.7791717, 70.4768113
3962, 2, -26.1598284, 70.4593923
3963, 2, -26.2545236, 70.7487343
3964, 2, -26.6708412, 79.3159851
3965, 2, -26.5832764, 78.9208746
3966, 2, -26.2701969, 79.2806886
3967, 2, -25.9624689, 79.0771387
3968, 2, -26.0500337, 79.4722492
3969, 2, -27.0964018, 79.3842396
3970, 2, -25.6272893, 79.5516099
3971, 2, -22.6337477, 70.5652243
3972, 2, -23.0332715, 70.5398443
3973, 2, -21.7942, 70.541416
3974, 2, -22.1927604, 70.5411388
3975, 2, -22.4289861, 70.916133
3976, 2, -17.0215387, 70.4120652
3977, 2, -17.4258608, 70.4035614
3978, 2, -16.2446413, 70.584375
3979, 2, -16.6431027, 70.5556749
3980, 2, -16.8697283, 70.7999512
3981, 2, -16.0614226, 78.0189864
3982, 2, -16.0586237, 77.6739773
3983, 2, -16.3935869, 77.4566103
3984, 2, -16.0931542, 77.2842289
3985, 2, -16.1067829, 76.9933673
3986, 2, -27.670442, 76.7082534
3987, 2, -27.8130412, 77.0062953
3988, 2, -27.5704302, 77.2855663
3989, 2, -27.9353805, 77.3046913
3990, 2, -28.0518232, 77.5489287
3991, 2, -27.5329725, 76.3811215
3992, 2, -27.3106213, 76.6600384
3993, 2, -27.7385995, 76.1048411
3994, 2, -27.3787788, 76.0566261
3995, 2, -27.9097962, 75.8205469
3996, 2, -26.9518203, 76.6310155
3997, 2, -27.0892899, 76.9581473
3998, 2, -26.8721102, 77.2598533
3999, 2, -27.2309112, 77.2888762
4000, 2, -27.3532505, 77.5872722
4001, 2, -26.8020079, 76.2849524
4002, 2, -26.5806765, 76.5830614
4003, 2, -27.0197005, 75.9837657
4004, 2, -26.6485567, 75.9358116
4005, 2, -27.2253276, 75.7074853
4006, 2, -26.2081054, 76.5461667
4007, 2, -26.3579178, 76.8922297
4008, 2, -26.1372265, 77.1991563
4009, 2, -26.5097976, 77.236051
4010, 2, -26.6514189, 77.5667798
4011, 2, -26.0546102, 76.197941
4012, 2, -25.8318515, 76.5071094
4013, 2, -26.2778951, 75.8859567
4014, 2, -25.9016412, 75.8468994
4015, 2, -26.4955877, 75.5847699
4016, 2, -25.4533101, 76.4699016
4017, 2, -25.6068053, 76.8181273
4018, 2, -25.3849556, 77.1294437
4019, 2, -25.763497, 77.1666515
4020, 2, -25.9153768, 77.5104727
4021, 2, -25.2976272, 76.12094
4022, 2, -25.072581, 76.4319578
4023, 2, -25.5244676, 75.8088556
4024, 2, -25.1437385, 75.7709118
4025, 2, -25.7477525, 75.4968713
4026, 2, -24.6964461, 76.3909053
4027, 2, -24.8521289, 76.739867
4028, 2, -25.0091065, 77.090113
4029, 2, -25.1657982, 77.4386372
4030, 2, -24.6329715, 77.0490605
4031, 2, -24.986963, 75.4179194
4032, 2, -24.7601226, 75.7300037
4033, 2, -24.3754595, 75.6894817
4034, 2, -24.532235, 76.0424741
4035, 2, -24.3117829, 76.3503833
4036, 2, -25.2152459, 75.1077237
4037, 2, -24.83163, 75.0668156
4038, 2, -25.5973861, 75.1484218
4039, 2, -25.4420531, 74.797318
4040, 2, -25.9745597, 75.1864656
4041, 2, -24.2178991, 75.3344897
4042, 2, -23.9900114, 75.6469601
4043, 2, -24.4474737, 75.0247542
4044, 2, -24.0620256, 74.9822326
4045, 2, -24.6757566, 74.7145585
4046, 2, -23.6036781, 75.6059915
4047, 2, -23.7612386, 75.9609836
4048, 2, -23.5325158, 76.2767706
4049, 2, -23.9188491, 76.3177392
4050, 2, -24.0830602, 76.6661704
4051, 2, -23.4454499, 75.2495097
4052, 2, -23.216677, 75.5635332
4053, 2, -23.6757643, 74.9378888
4054, 2, -23.2887632, 74.8954304
4055, 2, -23.905339, 74.6281533
4056, 2, -22.8290058, 75.5151967
4057, 2, -22.9872341, 75.8716785
4058, 2, -22.7480112, 76.1685445
4059, 2, -23.1356824, 76.2168811
4060, 2, -23.293293, 76.5736367
4061, 2, -22.66924, 75.1631181
4062, 2, -22.4397971, 75.4712633
4063, 2, -22.9001729, 74.8507357
4064, 2, -22.5109641, 74.8068023
4065, 2, -23.1304874, 74.5391147
4066, 2, -22.0495201, 75.4281127
4067, 2, -22.209286, 75.7801913
4068, 2, -21.9720345, 76.0883845
4069, 2, -22.3623115, 76.1315351
4070, 2, -22.5107598, 76.4767377
4071, 2, -21.8903581, 75.076735
4072, 2, -21.659847, 75.385663
4073, 2, -22.1213071, 74.7622626
4074, 2, -21.731634, 74.7198129
4075, 2, -22.35224, 74.4498803
4076, 2, -21.2694384, 75.3488432
4077, 2, -21.4286004, 75.700221
4078, 2, -21.1926932, 76.0166911
4079, 2, -21.5831018, 76.0535109
4080, 2, -21.7361273, 76.4048547
4081, 2, -21.1123618, 74.9938561
4082, 2, -20.8811152, 75.3084141
4083, 2, -21.3421164, 74.6781613
4084, 2, -20.9537931, 74.6377322
4085, 2, -21.5730653, 74.363689
4086, 2, -20.4939178, 75.266073
4087, 2, -20.6509945, 75.62106
4088, 2, -20.4188698, 75.9325804
4089, 2, -20.8060671, 75.9749215
4090, 2, -20.9605685, 76.3282115
4091, 2, -20.3383546, 74.9133002
4092, 2, -20.1082339, 75.2259461
4093, 2, -20.5661931, 74.6013097
4094, 2, -20.1805092, 74.5611828
4095, 2, -20.7959477, 74.2856149
4096, 2, -19.7249208, 75.1842106
4097, 2, -19.880484, 75.5369834
4098, 2, -19.6511208, 75.8470457
4099, 2, -20.0344339, 75.8887812
4100, 2, -20.1895066, 76.2426426
4101, 2, -19.5705983, 74.8330283
4102, 2, -19.3428484, 75.1440656
4103, 2, -19.796156, 74.5228209
4104, 2, -19.4140836, 74.4826759
4105, 2, -20.0239945, 74.2108304
4106, 2, -25.6697151, 74.4880166
4107, 2, -25.2875749, 74.4473184
4108, 2, -25.1317214, 74.0960543
4109, 2, -24.9040593, 74.4053557
4110, 2, -24.519903, 74.3632944
4111, 2, -18.9076567, 75.0944879
4112, 2, -19.0619792, 75.4456702
4113, 2, -19.2761716, 75.8089768
4114, 2, -19.4301215, 76.1607745
4115, 2, -18.8409799, 75.7593991
4116, 2, -19.2690516, 74.1279986
4117, 2, -19.0434939, 74.438206
4118, 2, -18.6792367, 74.3458713
4119, 2, -18.8242687, 74.7005486
4120, 2, -18.5433996, 75.0021532
4121, 2, -22.5838879, 74.1395131
4122, 2, -22.1942308, 74.0949734
4123, 2, -22.9719464, 74.1868674
4124, 2, -22.8139372, 73.8319605
4125, 2, -23.3605367, 74.2315621
4126, 2, -19.4854137, 73.822374
4127, 2, -19.114824, 73.777904
4128, 2, -19.8667038, 73.8604036
4129, 2, -19.7124762, 73.510309
4130, 2, -20.251057, 73.8987655
4131, 2, -18.5419372, 74.0085633
4132, 2, -18.3227121, 74.270906
4133, 2, -18.9612133, 73.4274432
4134, 2, -18.7448512, 73.7330678
4135, 2, -18.3883265, 73.6581025
4136, 2, -20.7249018, 76.6571082
4137, 2, -21.1115279, 76.6988778
4138, 2, -21.2688647, 77.0485
4139, 2, -21.5045314, 76.7196033
4140, 2, -21.8934642, 76.7544768
4141, 2, -17.959709, 74.1826921
4142, 2, -18.0970085, 74.5200001
4143, 2, -17.8726088, 74.7240791
4144, 2, -18.2356118, 74.812293
4145, 2, -18.3189998, 75.2062323
4146, 2, -19.1833311, 73.1265714
4147, 2, -18.8133583, 73.0817352
4148, 2, -19.5569761, 73.1617474
4149, 2, -19.4091211, 72.8160394
4150, 2, -19.9382662, 73.199777
4151, 2, -18.6845989, 72.7189433
4152, 2, -18.4624811, 73.0198151
4153, 2, -18.1042537, 72.948931
4154, 2, -18.2330132, 73.3117229
4155, 2, -18.0300992, 73.5872184
4156, 2, -19.203558, 76.46965
4157, 2, -19.5785072, 76.5077189
4158, 2, -19.7354717, 76.8729068
4159, 2, -19.9620352, 76.5640313
4160, 2, -20.346471, 76.6078305
4161, 2, -18.8297995, 76.4317292
4162, 2, -18.9781853, 76.7786736
4163, 2, -18.662869, 76.1245716
4164, 2, -18.4374964, 76.4335952
4165, 2, -18.4486767, 75.7612651
4166, 2, -26.0495999, 74.5291345
4167, 2, -25.8951217, 74.1791348
4168, 2, -26.1959334, 74.8758781
4169, 2, -26.42134, 74.5669964
4170, 2, -26.3462998, 75.2243276
4171, 2, -26.1211664, 73.8733785
4172, 2, -25.7412817, 73.8322606
4173, 2, -25.58651, 73.4809432
4174, 2, -25.3604653, 73.7866995
4175, 2, -24.9769497, 73.7447368
4176, 2, -23.8753871, 76.9624576
4177, 2, -24.2683209, 76.9951017
4178, 2, -23.0628271, 76.8556348
4179, 2, -23.4596605, 76.9155243
4180, 2, -23.6449212, 77.2444557
4181, 2, -21.8032507, 74.0494089
4182, 2, -21.4137331, 74.0077573
4183, 2, -21.2541717, 73.6565673
4184, 2, -21.0239863, 73.9708474
4185, 2, -20.6363863, 73.9344249
4186, 2, -27.4799326, 75.3854767
4187, 2, -27.1208543, 75.3126162
4188, 2, -27.7587752, 75.5538736
4189, 2, -27.654302, 75.1590046
4190, 2, -28.0841656, 75.5940749
4191, 2, -18.7517222, 77.0864849
4192, 2, -19.1254807, 77.1244057
4193, 2, -19.2827764, 77.4888635
4194, 2, -19.5092395, 77.1810523
4195, 2, -19.8927675, 77.2373647
4196, 2, -18.3877852, 77.0501149
4197, 2, -18.5350805, 77.395847
4198, 2, -18.2416326, 76.7572696
4199, 2, -18.0249909, 77.0666317
4200, 2, -18.0747021, 76.450112
4201, 2, -16.3159987, 73.2726275
4202, 2, -16.1757705, 72.9699552
4203, 2, -16.3932898, 72.6811336
4204, 2, -16.0476583, 72.6509086
4205, 2, -15.9474852, 72.3495359
4206, 2, -28.4739302, 73.8437031
4207, 2, -28.6724948, 74.1299304
4208, 2, -28.2936523, 73.5593424
4209, 2, -28.1498349, 73.8730382
4210, 2, -28.1008783, 73.3345771
4211, 2, -19.0659916, 77.7997411
4212, 2, -19.4497504, 77.8563877
4213, 2, -18.3105742, 77.704292
4214, 2, -18.6745112, 77.740662
4215, 2, -18.8414853, 78.1081861
4216, 2, -30.7444632, 79.9918149
4217, 2, -30.8342061, 79.9186371
4218, 2, -30.9928264, 79.8382113
4219, 2, -30.8441428, 79.78585
4220, 2, -31.0943175, 79.7888863
4221, 2, -30.3498037, 80.1210534
4222, 2, -30.2288369, 79.9671575
4223, 2, -30.490222, 80.075021
4224, 2, -31.2430321, 79.3038337
4225, 2, -31.2873948, 79.4490132
4226, 2, -31.401046, 79.3189099
4227, 2, -31.4850312, 79.2261676
4228, 2, -31.1992168, 79.5548199
4229, 2, -30.7667692, 70.1376161
4230, 2, -30.9401431, 70.1406142
4231, 2, -30.7973394, 70.0077136
4232, 2, -30.7066399, 69.9231347
4233, 2, -31.0275315, 70.1984325
4234, 2, -30.3868048, 70.0674571
4235, 2, -30.501129, 69.9001737
4236, 2, -30.2639683, 69.9629153
4237, 2, -30.1381716, 69.9664897
4238, 2, -30.6194405, 69.8885868
4239, 2, -31.4716482, 70.7741702
4240, 2, -31.3937476, 70.6906271
4241, 2, -31.3420054, 70.566759
4242, 2, -31.2891913, 70.7148567
4243, 2, -31.2264385, 70.4712111
4244, 2, -13.255526, 70.0081645
4245, 2, -13.1657852, 70.0813462
4246, 2, -13.0071726, 70.1617869
4247, 2, -13.1558476, 70.2141316
4248, 2, -12.9056814, 70.2111117
4249, 2, -13.6500083, 69.878593
4250, 2, -13.7701187, 70.0308802
4251, 2, -13.5095885, 69.9246226
4252, 2, -12.7569677, 70.696166
4253, 2, -12.7126052, 70.5509868
4254, 2, -12.5989538, 70.6810897
4255, 2, -12.5149686, 70.773832
4256, 2, -12.8007832, 70.4451801
4257, 2, -13.2332284, 79.8623837
4258, 2, -13.0598551, 79.8593857
4259, 2, -13.2026599, 79.9922864
4260, 2, -13.2910783, 80.07653
4261, 2, -12.9724663, 79.8015673
4262, 2, -13.6131945, 79.9325429
4263, 2, -13.4988704, 80.0998262
4264, 2, -13.7360317, 80.0370847
4265, 2, -13.8618284, 80.0335103
4266, 2, -13.3833486, 80.1098899
4267, 2, -12.5283518, 79.2258298
4268, 2, -12.6062524, 79.3093729
4269, 2, -12.6579941, 79.4332409
4270, 2, -12.7108083, 79.2851432
4271, 2, -12.7735609, 79.5287888
4272, 2, -20.2798221, 77.314685
4273, 2, -20.0535899, 77.6228305
4274, 2, -19.8596047, 77.9529436
4275, 2, -20.2466593, 78.030264
4276, 2, -19.6428198, 78.2638212
4277, 2, -16.4648363, 73.604475
4278, 2, -16.6702396, 73.3320277
4279, 2, -16.250308, 73.7879886
4280, 2, -16.6045489, 73.8473887
4281, 2, -16.0495237, 74.0809587
4282, 2, -19.634285, 72.5041994
4283, 2, -19.26064, 72.4690234
4284, 2, -18.8963416, 72.4167243
4285, 2, -18.5454644, 72.3548042
4286, 2, -19.1215055, 72.1048843
4287, 2, -20.0122712, 72.5385163
4288, 2, -19.8637901, 72.1915003
4289, 2, -20.1654867, 72.8882183
4290, 2, -20.3949917, 72.5755192
4291, 2, -20.3209868, 73.23678
4292, 2, -17.9846666, 72.5896144
4293, 2, -17.7551986, 72.8815222
4294, 2, -17.8472434, 72.2280672
4295, 2, -18.1962985, 72.2954761
4296, 2, -18.4080412, 71.9932571
4297, 2, -15.5083229, 75.556259
4298, 2, -15.1750795, 75.6017006
4299, 2, -15.0137953, 75.3219547
4300, 2, -14.8576721, 75.6506751
4301, 2, -14.5835846, 75.7125235
4302, 2, -16.2458299, 76.0765644
4303, 2, -16.0403265, 75.7991302
4304, 2, -16.1964085, 75.4810674
4305, 2, -15.841525, 75.5214751
4306, 2, -15.6644049, 75.2381963
4307, 2, -28.5353762, 74.4457569
4308, 2, -28.8777582, 74.4182884
4309, 2, -29.0705056, 74.7004828
4310, 2, -29.2076243, 74.3846562
4311, 2, -29.5110411, 74.3826492
4312, 2, -17.7215216, 77.0514242
4313, 2, -17.8676741, 77.3442695
4314, 2, -17.8934563, 77.6555848
4315, 2, -18.032887, 78.0003999
4316, 2, -17.5899869, 77.6403774
4317, 2, -26.4806221, 73.9288415
4318, 2, -26.3267821, 73.5819673
4319, 2, -26.6251503, 74.2498433
4320, 2, -26.8307659, 73.9584321
4321, 2, -26.7714838, 74.596587
4322, 2, -25.8143564, 73.1739483
4323, 2, -25.43354, 73.1283871
4324, 2, -26.1917982, 73.2357985
4325, 2, -26.0388282, 72.8832425
4326, 2, -26.5512539, 73.2912615
4327, 2, -25.2781863, 72.774049
4328, 2, -25.0503399, 73.0810439
4329, 2, -24.6651224, 73.0386361
4330, 2, -24.8204762, 73.3929742
4331, 2, -24.5917323, 73.702329
4332, 2, -25.4957778, 72.4675381
4333, 2, -25.1125776, 72.4201949
4334, 2, -25.9126037, 72.4984485
4335, 2, -25.746995, 72.1445944
4336, 2, -26.2900454, 72.5602988
4337, 2, -24.9521223, 72.0798915
4338, 2, -24.7345308, 72.3864024
4339, 2, -24.3451233, 72.3467339
4340, 2, -24.5055786, 72.6870374
4341, 2, -24.2757149, 72.9989676
4342, 2, -27.9292868, 71.6157835
4343, 2, -27.629458, 71.7850869
4344, 2, -28.2300821, 71.4388576
4345, 2, -27.9158816, 71.2466768
4346, 2, -28.4813778, 71.3251197
4347, 2, -16.0860755, 78.3434291
4348, 2, -16.3837092, 78.1708013
4349, 2, -15.7699439, 78.5504536
4350, 2, -16.0922305, 78.7022685
4351, 2, -15.5150127, 78.6633115
4352, 2, -24.9445628, 77.7379654
4353, 2, -25.3204119, 77.7772961
4354, 2, -25.4800874, 78.1255248
4355, 2, -25.7013227, 77.8261965
4356, 2, -26.0750523, 77.8587013
4357, 2, -28.4740509, 78.8433684
4358, 2, -28.6730813, 79.1185223
4359, 2, -28.0231339, 78.3010687
4360, 2, -28.2460383, 78.5598571
4361, 2, -28.1039752, 78.8977663
4362, 2, -17.8753142, 76.1780649
4363, 2, -17.6794505, 76.5017392
4364, 2, -17.3303276, 76.5595654
4365, 2, -17.5297154, 76.8316125
4366, 2, -17.3723987, 77.1092503
4367, 2, -20.0843074, 71.8706346
4368, 2, -19.7063213, 71.8363177
4369, 2, -19.547506, 71.4829795
4370, 2, -19.3269886, 71.8038451
4371, 2, -18.9626902, 71.7515461
4372, 2, -20.4744326, 71.9046102
4373, 2, -20.3169638, 71.5494276
4374, 2, -20.6265533, 72.2636599
4375, 2, -20.8592097, 71.9424529
4376, 2, -20.7797689, 72.6133619
4377, 2, -26.445766, 77.8867041
4378, 2, -26.8080786, 77.9105064
4379, 2, -26.956479, 78.2337915
4380, 2, -27.162132, 77.9138671
4381, 2, -27.5016509, 77.9105572
4382, 2, -12.8682027, 74.8634432
4383, 2, -12.9238924, 74.4765214
4384, 2, -12.780093, 75.2364252
4385, 2, -13.0909879, 75.095336
4386, 2, -12.7341726, 75.5585147
4387, 2, -31.0734307, 75.2105338
4388, 2, -31.0817135, 75.56283
4389, 2, -31.0786191, 74.8497882
4390, 2, -30.7869466, 75.020657
4391, 2, -31.1274945, 74.5411943
4392, 2, -25.91251, 71.8226885
4393, 2, -25.4956841, 71.7917781
4394, 2, -25.1166186, 71.7899149
4395, 2, -24.7385718, 71.7561223
4396, 2, -25.2821336, 71.468009
4397, 2, -26.5895312, 72.3516224
4398, 2, -26.9854761, 72.1542285
4399, 2, -26.5597659, 71.9781109
4400, 2, -26.673167, 71.5572906
4401, 2, -26.277222, 71.7546844
4402, 2, -26.7157557, 72.7364163
4403, 2, -26.0259111, 71.4018681
4404, 2, -29.0840394, 70.4341162
4405, 2, -29.4789179, 70.4025575
4406, 2, -29.8347871, 70.3143422
4407, 2, -30.0864486, 70.3572016
4408, 2, -29.8979826, 70.0873392
4409, 2, -14.0118136, 70.3298207
4410, 2, -14.2502948, 70.326877
4411, 2, -14.3526385, 70.5922031
4412, 2, -14.517122, 70.3022622
4413, 2, -14.8876222, 70.3969153
4414, 2, -29.9861181, 79.6662639
4415, 2, -29.739708, 79.6543461
4416, 2, -29.6523323, 79.4239165
4417, 2, -29.4802755, 79.6996939
4418, 2, -29.1401317, 79.6574145
4419, 2, -14.9150541, 79.5659934
4420, 2, -14.5206278, 79.5973998
4421, 2, -14.1651372, 79.6856507
4422, 2, -13.9134757, 79.6427913
4423, 2, -14.1020174, 79.9126608
4424, 2, -24.1864077, 72.0040375
4425, 2, -23.9574555, 72.3046725
4426, 2, -24.4082261, 71.779324
4427, 2, -24.0205583, 71.7372626
4428, 2, -24.5727224, 71.4893474
4429, 2, -23.568677, 72.2589361
4430, 2, -23.7273925, 72.6016326
4431, 2, -23.4992515, 72.9121318
4432, 2, -23.88803, 72.9578681
4433, 2, -24.0475739, 73.3094669
4434, 2, -23.4165952, 71.8819112
4435, 2, -23.1865323, 72.1788712
4436, 2, -23.6995133, 71.6066235
4437, 2, -23.3173685, 71.5265586
4438, 2, -23.9213316, 71.38191
4439, 2, -22.7973888, 72.1335428
4440, 2, -22.9494706, 72.5105678
4441, 2, -22.7237784, 72.8199922
4442, 2, -23.1129219, 72.8653206
4443, 2, -23.2735594, 73.2215562
4444, 2, -15.5070078, 71.2390911
4445, 2, -15.338498, 70.9307197
4446, 2, -15.6778044, 71.621183
4447, 2, -15.8433875, 71.2675395
4448, 2, -15.8219884, 71.9933081
4449, 2, -27.1465144, 73.9918881
4450, 2, -27.0019863, 73.6708864
4451, 2, -26.8515872, 73.3953007
4452, 2, -26.7166033, 73.0491319
4453, 2, -27.1673357, 73.4287567
4454, 2, -31.5224705, 78.7182859
4455, 2, -31.5131894, 78.9070966
4456, 2, -31.3490342, 78.9990434
4457, 2, -31.5208385, 79.0817837
4458, 2, -12.4775295, 71.2817141
4459, 2, -12.4868106, 71.0929034
4460, 2, -12.6509656, 71.0009563
4461, 2, -12.4791613, 70.918216
4462, 2, -31.4927218, 70.8854578
4463, 2, -31.3695478, 71.0171492
4464, 2, -31.5213361, 71.0638821
4465, 2, -31.5817645, 71.1722101
4466, 2, -12.5072782, 79.1145422
4467, 2, -12.6304522, 78.9828508
4468, 2, -12.4786639, 78.9361179
4469, 2, -12.4182355, 78.8277899
4470, 2, -14.1149298, 74.6161668
4471, 2, -14.4458944, 74.485916
4472, 2, -14.7128382, 74.7181833
4473, 2, -14.7762716, 74.3770081
4474, 2, -15.0608274, 74.2936681
4475, 2, -29.9612531, 75.4178753
4476, 2, -29.654612, 75.4961024
4477, 2, -29.462437, 75.2286087
4478, 2, -29.3542243, 75.5392025
4479, 2, -29.0299359, 75.5798085
4480, 2, -17.8167863, 78.3001287
4481, 2, -18.2339042, 78.3488358
4482, 2, -18.3898531, 78.6990316
4483, 2, -18.6059538, 78.3993028
4484, 2, -18.9974341, 78.4583819
4485, 2, -17.4213098, 78.2655657
4486, 2, -17.6223271, 78.6140016
4487, 2, -17.2412594, 78.0355323
4488, 2, -17.0468002, 78.3494053
4489, 2, -16.9541137, 77.8406227
4490, 2, -17.3286233, 77.7567832
4491, 2, -17.3028412, 77.4454678
4492, 2, -28.1792983, 74.4850789
4493, 2, -28.3845617, 74.773437
4494, 2, -27.817832, 73.9221071
4495, 2, -27.9981099, 74.2064677
4496, 2, -27.8472954, 74.5341478
4497, 2, -16.4403597, 76.3629407
4498, 2, -16.5897398, 76.0450988
4499, 2, -16.2622836, 76.7306341
4500, 2, -16.6061935, 76.6991686
4501, 2, -16.9369549, 76.0018257
4502, 2, -16.7424251, 75.7154493
4503, 2, -16.8892617, 75.3834649
4504, 2, -16.5420466, 75.4267381
4505, 2, -16.3432451, 75.1490831
4506, 2, -17.011172, 73.3778924
4507, 2, -16.8623344, 73.0460449
4508, 2, -16.7373376, 72.7045717
4509, 2, -16.6092254, 72.3855251
4510, 2, -17.0782701, 72.7504364
4511, 2, -17.2119945, 74.0679624
4512, 2, -17.1410055, 73.7246471
4513, 2, -16.8900662, 74.0071905
4514, 2, -16.6755379, 74.190704
4515, 2, -17.3331003, 73.4386643
4516, 2, -22.6534827, 71.7421552
4517, 2, -22.416421, 72.0738518
4518, 2, -22.952212, 71.3710324
4519, 2, -22.5712442, 71.3113413
4520, 2, -23.23513, 71.0957447
4521, 2, -22.0327492, 72.0212473
4522, 2, -22.1766552, 72.4126349
4523, 2, -21.9475479, 72.7206876
4524, 2, -22.3312197, 72.773292
4525, 2, -22.4946711, 73.1280449
4526, 2, -22.1302569, 71.2872559
4527, 2, -21.7378468, 71.2584385
4528, 2, -21.8801049, 71.6536468
4529, 2, -21.6403391, 71.9924299
4530, 2, -15.3761212, 74.3701454
4531, 2, -15.3526256, 74.6850138
4532, 2, -15.6855313, 74.4458837
4533, 2, -15.9455812, 74.6739146
4534, 2, -15.9690768, 74.3590462
4535, 2, -16.3095736, 74.3089897
4536, 2, -25.0536994, 71.1227681
4537, 2, -24.7700219, 70.8083222
4538, 2, -24.6193906, 71.1516998
4539, 2, -24.2890449, 71.1749015
4540, 2, -25.4327649, 71.1246314
4541, 2, -28.3225129, 70.4358336
4542, 2, -28.7219563, 70.3666832
4543, 2, -27.3801196, 70.5208778
4544, 2, -27.8349272, 70.5092171
4545, 2, -27.914427, 70.9211436
4546, 2, -28.1371771, 70.6578244
4547, 2, -28.4020127, 70.84776
4548, 2, -15.6764832, 79.5643455
4549, 2, -15.2756667, 79.6323928
4550, 2, -16.6183683, 79.528806
4551, 2, -16.193019, 79.4967582
4552, 2, -16.1089862, 79.0730984
4553, 2, -15.8601315, 79.3329528
4554, 2, -15.5924504, 79.1406857
4555, 2, -31.3705774, 71.4062686
4556, 2, -31.5192855, 71.5163593
4557, 2, -31.5468703, 71.3056643
4558, 2, -31.491353, 78.5183271
4559, 2, -31.310281, 78.6242506
4560, 2, -12.6294226, 78.5937314
4561, 2, -12.4807145, 78.4836407
4562, 2, -12.4531297, 78.6943357
4563, 2, -12.508647, 71.4816729
4564, 2, -12.6897324, 71.3756024
4565, 2, -20.5385285, 71.2236586
4566, 2, -20.1484033, 71.1896831
4567, 2, -19.7566813, 71.1688873
4568, 2, -19.3773486, 71.1364147
4569, 2, -19.978246, 70.8431183
4570, 2, -24.5616248, 77.6628196
4571, 2, -24.7162385, 78.0014786
4572, 2, -24.4252985, 77.3453477
4573, 2, -24.1969742, 77.6088608
4574, 2, -24.503463, 78.2719025
4575, 2, -24.886401, 78.3470483
4576, 2, -25.2581365, 78.4291078
4577, 2, -25.6390474, 78.4780082
4578, 2, -25.045361, 78.6995318
4579, 2, -23.8031847, 77.5717394
4580, 2, -23.939511, 77.8892113
4581, 2, -23.7193524, 78.1797208
4582, 2, -24.1131419, 78.2168423
4583, 2, -24.2833044, 78.562412
4584, 2, -25.7998643, 78.8335847
4585, 2, -26.0218152, 78.5300016
4586, 2, -26.3925288, 78.5580044
4587, 2, -26.2317119, 78.2024279
4588, 2, -21.2495126, 71.963166
4589, 2, -21.0973919, 71.6041163
4590, 2, -20.9328379, 71.2432036
4591, 2, -21.3231409, 71.2639168
4592, 2, -21.4021569, 72.3307665
4593, 2, -21.1676255, 72.6531525
4594, 2, -21.5584519, 72.6824164
4595, 2, -20.9360639, 72.9650118
4596, 2, -27.2853985, 71.6021599
4597, 2, -27.2997702, 71.963644
4598, 2, -27.3295355, 72.3371554
4599, 2, -27.3322206, 72.7394948
4600, 2, -23.8189454, 73.6191543
4601, 2, -24.2066302, 73.6602538
4602, 2, -23.4309424, 73.5738411
4603, 2, -23.5899987, 73.924628
4604, 2, -23.0446127, 73.5270299
4605, 2, -28.9513444, 75.0029118
4606, 2, -29.2812105, 74.9692797
4607, 2, -28.2691436, 75.0676533
4608, 2, -28.6252215, 75.0283312
4609, 2, -28.8359264, 75.2971282
4610, 2, -29.5815981, 74.9261796
4611, 2, -29.9314766, 74.8971851
4612, 2, -29.7502501, 74.6378561
4613, 2, -29.8609196, 74.3536547
4614, 2, -28.6096757, 79.5134211
4615, 2, -28.167598, 79.5105441
4616, 2, -27.8420003, 79.5602876
4617, 2, -27.4448376, 79.5465363
4618, 2, -28.0063901, 79.231021
4619, 2, -26.9715664, 74.9521739
4620, 2, -27.1753768, 74.6350208
4621, 2, -27.5207832, 74.6230721
4622, 2, -27.3207005, 74.2674852
4623, 2, -27.4919208, 73.9799395
4624, 2, -30.1330692, 79.5143379
4625, 2, -30.4400793, 79.3511143
4626, 2, -30.5645838, 79.5577571
4627, 2, -30.6502895, 79.2587642
4628, 2, -30.8950581, 79.2856068
4629, 2, -30.7705536, 79.078964
4630, 2, -30.9943927, 78.919549
4631, 2, -30.5221055, 70.6559175
4632, 2, -30.2759073, 70.4996067
4633, 2, -30.7312613, 70.7640463
4634, 2, -30.7377173, 70.5231377
4635, 2, -30.9445728, 70.8317425
4636, 2, -13.4778819, 79.3440814
4637, 2, -13.7240044, 79.500385
4638, 2, -13.2687368, 79.2359536
4639, 2, -13.2622683, 79.476861
4640, 2, -13.0554254, 79.1682573
4641, 2, -13.8656452, 70.4832152
4642, 2, -13.5598471, 70.6487456
4643, 2, -13.4353303, 70.4420795
4644, 2, -13.3496982, 70.7412124
4645, 2, -13.1049276, 70.714366
4646, 2, -13.2294443, 70.9210321
4647, 2, -13.0056051, 71.0804467
4648, 2, -19.1936115, 70.7882734
4649, 2, -18.9844361, 71.1023656
4650, 2, -18.6119492, 71.0481373
4651, 2, -18.7956863, 71.3962786
4652, 2, -18.5902032, 71.6973178
4653, 2, -13.7599033, 74.7759331
4654, 2, -14.0274346, 74.9868574
4655, 2, -13.5132481, 74.5637983
4656, 2, -13.4257529, 74.9344889
4657, 2, -13.2628192, 74.3748032
4658, 2, -30.7789283, 75.6822757
4659, 2, -30.4707198, 75.5158223
4660, 2, -30.5505319, 75.2392939
4661, 2, -30.2394935, 75.3737136
4662, 2, -30.0410651, 75.1413469
4663, 2, -16.8149325, 72.0789584
4664, 2, -16.4708847, 72.0555203
4665, 2, -16.3453879, 71.6992925
4666, 2, -16.1396809, 72.0058592
4667, 2, -17.1715095, 72.1047662
4668, 2, -17.0331688, 71.7747614
4669, 2, -17.2944423, 72.4655844
4670, 2, -17.5126786, 72.1613874
4671, 2, -17.4194392, 72.8070575
4672, 2, -17.2426769, 71.5393487
4673, 2, -16.8860999, 71.5135409
4674, 2, -16.7934501, 71.1108446
4675, 2, -16.583942, 71.3462573
4676, 2, -16.2527382, 71.2965962
4677, 2, -17.5714431, 71.5176788
4678, 2, -17.4243742, 71.2564583
4679, 2, -17.7243105, 71.8672491
4680, 2, -17.9060078, 71.5843587
4681, 2, -27.3352688, 71.2276522
4682, 2, -27.005581, 71.4062094
4683, 2, -27.6136317, 71.0980695
4684, 2, -27.3338141, 70.902119
4685, 2, -16.6375559, 78.3073079
4686, 2, -16.612903, 77.9828652
4687, 2, -16.700267, 77.7041161
4688, 2, -16.7347975, 77.3143678
4689, 2, -16.4251179, 78.8660739
4690, 2, -16.8343621, 78.9081712
4691, 2, -16.8176063, 78.5373413
4692, 2, -13.893852, 75.3847019
4693, 2, -14.2488784, 75.2249356
4694, 2, -14.4058419, 75.4968546
4695, 2, -14.5394245, 75.0990102
4696, 2, -14.8698017, 74.9901024
4697, 2, -30.5911359, 74.3662983
4698, 2, -30.974583, 74.3141384
4699, 2, -30.2451327, 74.3407735
4700, 2, -30.4461319, 74.6343865
4701, 2, -13.5748817, 75.5192251
4702, 2, -13.3376431, 75.3074708
4703, 2, -13.2401167, 75.6800722
4704, 2, -12.8948052, 75.7763709
4705, 2, -19.7892777, 70.4972733
4706, 2, -19.3892976, 70.4907516
4707, 2, -27.4834672, 73.3277961
4708, 2, -27.6436458, 73.64651
4709, 2, -27.8093783, 73.2699636
4710, 2, -18.1553348, 79.003279
4711, 2, -18.5273844, 79.053746
4712, 2, -17.4775858, 78.8749975
4713, 2, -17.8730622, 78.9095605
4714, 2, -18.6562512, 79.3937554
4715, 2, -18.8907695, 79.089508
4716, 2, -19.27647, 79.131468
4717, 2, -19.1476032, 78.7914586
4718, 2, -19.3831346, 78.5003419
4719, 2, -25.5797011, 79.0251453
4720, 2, -24.8471123, 78.9297615
4721, 2, -25.2188478, 79.011821
4722, 2, -25.3814524, 79.255375
4723, 2, -15.4141849, 70.5558449
4724, 2, -15.0800919, 70.601117
4725, 2, -14.8119354, 70.7717901
4726, 2, -14.5467739, 70.8018114
4727, 2, -15.8352906, 70.5553184
4728, 2, -16.0819416, 70.9145043
4729, 2, -28.9507692, 79.4506659
4730, 2, -29.2035373, 79.2625157
4731, 2, -29.4622015, 79.2067584
4732, 2, -15.8298214, 74.9820822
4733, 2, -15.4966192, 75.0168661
4734, 2, -15.1872091, 74.9411278
4735, 2, -12.813995, 70.8602273
4736, 2, -12.8216443, 71.0349146
4737, 2, -12.8425757, 71.2211757
4738, 2, -12.7559964, 78.725415
4739, 2, -12.8583971, 79.0645284
4740, 2, -12.8297827, 78.886104
4741, 2, -31.1860028, 79.1397685
4742, 2, -31.1783537, 78.9650815
4743, 2, -31.1574241, 78.7788239
4744, 2, -31.2440036, 71.274585
4745, 2, -31.1416029, 70.9354716
4746, 2, -31.1702173, 71.113896
4747, 2, -23.9679999, 71.0442624
4748, 2, -23.6003862, 70.9428055
4749, 2, -23.2352296, 70.7872793
4750, 2, -17.1321661, 76.2805837
4751, 2, -17.2848514, 75.9509341
4752, 2, -16.8043549, 76.9781503
4753, 2, -16.982431, 76.6104569
4754, 2, -17.237067, 75.3529329
4755, 2, -17.0366884, 75.0642218
4756, 2, -17.4702013, 75.642127
4757, 2, -17.617628, 75.3228839
4758, 2, -17.6654125, 75.920885
4759, 2, -17.1727744, 74.6920978
4760, 2, -16.8249692, 74.7226298
4761, 2, -16.5950909, 74.4687914
4762, 2, -16.4590049, 74.8409154
4763, 2, -16.1133668, 74.8952447
4764, 2, -17.9309872, 75.314225
4765, 2, -17.6978529, 75.0250309
4766, 2, -17.5592495, 74.732738
4767, 2, -17.3475303, 74.391146
4768, 2, -18.0606641, 75.8692578
4769, 2, -18.2387749, 75.5040852
4770, 2, -27.9808142, 75.0700803
4771, 2, -28.221474, 75.3249746
4772, 2, -27.7019716, 74.9016833
4773, 2, -28.703813, 75.6052279
4774, 2, -28.372495, 75.5916479
4775, 2, -17.5390263, 73.1663742
4776, 2, -17.6688598, 73.5131289
4777, 2, -17.8241732, 73.8595085
4778, 2, -26.7230372, 71.1827828
4779, 2, -27.0160891, 72.8404554
4780, 2, -27.3330682, 73.0522103
4781, 2, -26.8020923, 70.8769435
4782, 2, -26.4696782, 71.0280247
4783, 2, -25.8107565, 71.1225777
4784, 2, -26.1754685, 71.0545736
4785, 2, -27.7404188, 78.1125173
4786, 2, -27.5932475, 78.4257036
4787, 2, -27.9315373, 77.7859224
4788, 2, -27.3323566, 79.1184678
4789, 2, -27.7783775, 78.9475097
4790, 2, -27.4299417, 78.785213
4791, 2, -27.1472266, 78.5966616
4792, 2, -17.5006523, 70.9455649
4793, 2, -17.1718862, 70.9672348
4794, 2, -18.2410373, 71.6379896
4795, 2, -18.0881699, 71.2884193
4796, 2, -18.2121502, 70.9841591
4797, 2, -17.8771207, 70.9305281
4798, 2, -17.6246327, 70.6413046
4799, 2, -26.7931732, 78.5933009
4800, 2, -28.9494316, 70.6932022
4801, 2, -28.6931743, 70.8602444
4802, 2, -28.5078385, 71.0822352
4803, 2, -15.0481894, 79.3056788
4804, 2, -15.304901, 79.1386793
4805, 2, -15.4885493, 78.9072867
4806, 2, -16.8053287, 79.2839694
4807, 2, -17.1978171, 78.9552368
4808, 2, -17.1110351, 77.2256561
4809, 2, -30.2074224, 79.8020332
4810, 2, -30.519948, 79.7581915
4811, 2, -30.7301582, 79.6658414
4812, 2, -30.3757881, 79.8152315
4813, 2, -30.5413625, 79.9233158
4814, 2, -30.9520875, 79.449672
4815, 2, -31.0723516, 79.2698718
4816, 2, -30.8887786, 79.5854156
4817, 2, -31.066072, 79.5696806
4818, 2, -13.7916476, 70.1962181
4819, 2, -13.4799697, 70.2416517
4820, 2, -13.2698208, 70.3341186
4821, 2, -13.6239503, 70.1842748
4822, 2, -13.4584407, 70.0763138
4823, 2, -13.0479003, 70.5503047
4824, 2, -12.9276464, 70.7301243
4825, 2, -13.1112082, 70.4145593
4826, 2, -12.9339271, 70.4303177
4827, 2, -27.1017567, 70.6504605
4828, 2, -18.7273087, 79.7052129
4829, 2, -19.3197912, 79.4272705
4830, 2, -19.5766249, 79.1292211
4831, 2, -19.1160526, 79.7269021
4832, 2, -20.171583, 78.743797
4833, 2, -19.7929889, 78.5968979
4834, 2, -19.9118978, 78.9803178
4835, 2, -17.5984696, 74.1086026
4836, 2, -26.7169613, 75.2741824
4837, 2, -31.0788836, 75.8637031
4838, 2, -13.0076139, 74.1289706
4839, 2, -25.0018203, 70.4676266
4840, 2, -25.4011801, 70.478865
4841, 2, -25.5823223, 70.7773368
4842, 2, -23.924382, 79.1562683
4843, 2, -23.7680725, 79.4760816
4844, 2, -23.3617058, 79.4739965
4845, 2, -24.100752, 78.8415649
4846, 2, -23.7166132, 78.8220552
4847, 2, -24.4910732, 78.8966251
4848, 2, -22.9492563, 78.7853296
4849, 2, -23.1534278, 79.1307826
4850, 2, -23.3360717, 78.7913056
4851, 2, -23.5124417, 78.4766022
4852, 2, -20.9847243, 79.4733578
4853, 2, -20.7311472, 79.1253239
4854, 2, -21.3815148, 79.4673761
4855, 2, -20.9822059, 78.7809873
4856, 2, -20.5415506, 78.7828804
4857, 2, -20.4226417, 78.3994604
4858, 2, -21.374461, 78.7796917
4859, 2, -21.1848644, 78.4372482
4860, 2, -21.5749359, 79.1201241
4861, 2, -21.7775943, 78.776385
4862, 2, -21.3918097, 78.0925211
4863, 2, -20.9995546, 78.0938167
4864, 2, -20.8235722, 77.7246203
4865, 2, -20.6166269, 78.0693473
4866, 2, -21.7748395, 78.0947115
4867, 2, -21.5895297, 77.75128
4868, 2, -21.9717065, 78.4334747
4869, 2, -22.1694266, 78.0922335
4870, 2, -22.1721814, 78.7739071
4871, 2, -21.8172139, 77.4113479
4872, 2, -21.4341841, 77.4091575
4873, 2, -20.6582528, 77.3639627
4874, 2, -21.0411806, 77.3884321
4875, 2, -22.5611201, 78.100173
4876, 2, -22.364253, 77.7614098
4877, 2, -22.5911062, 77.4471911
4878, 2, -22.1994126, 77.4392517
4879, 2, -22.044067, 77.0971292
4880, 2, -22.7490969, 78.4384247
4881, 2, -22.9439234, 78.107601
4882, 2, -22.566453, 78.7779016
4883, 2, -22.9925706, 77.4834358
4884, 2, -22.8277302, 77.1612777
4885, 2, -23.3388109, 78.1489713
4886, 2, -23.1508341, 77.8107196
4887, 2, -23.3874581, 77.5248061
4888, 2, -22.2756629, 76.7823806
4889, 2, -22.6613627, 76.8193901
4890, 2, -20.4974304, 76.9784969
4891, 2, -22.0348986, 73.7390417
4892, 2, -21.4839195, 73.3491398
4893, 2, -21.0941727, 73.3122299
4894, 2, -22.2639955, 73.4329754
4895, 2, -21.8730154, 73.387411
4896, 2, -21.7130164, 73.0430735
4897, 2, -20.4790956, 73.583998
4898, 2, -20.7063161, 73.2724393
4899, 2, -22.6565542, 73.4796756
4900, 2, -21.5732929, 70.8975258
4901, 2, -24.134801, 74.3212191
4902, 2, -23.7485397, 74.2768753
4903, 2, -24.3631037, 74.0120164
4904, 2, -30.3391028, 70.2726038
4905, 2, -30.928223, 70.4508916
4906, 2, -30.7190671, 70.3427628
4907, 2, -30.5762635, 70.2098622
4908, 2, -31.1439033, 70.7349957
4909, 2, -31.0921612, 70.6111276
4910, 2, -31.0625004, 70.3109752
4911, 2, -31.0811506, 70.4913501
4912, 2, -13.6608846, 79.7273951
4913, 2, -13.0717734, 79.549108
4914, 2, -13.2809185, 79.6572359
4915, 2, -13.4237232, 79.7901366
4916, 2, -12.8560949, 79.2650042
4917, 2, -12.9078366, 79.3888722
4918, 2, -12.9374977, 79.6890246
4919, 2, -12.9188475, 79.5086497
4920, 2, -30.5557203, 74.8785483
4921, 2, -12.8640912, 70.3094347
4922, 2, -31.1359079, 79.6905636
4923, 2, -30.6343818, 80.017981
4924, 2, -13.3656079, 69.9819996
4925, 2, -30.2097171, 74.8530234
4926, 0.333333333, -12.0085551, 71.3694738
4927, 1.66666667, -12.0085551, 71.3694738
4928, 0.666666667, -12.0085551, 71.3694738
4929, 1.33333333, -12.0085551, 71.3694738
4930, 1, -12.0085551, 71.3694738
4931, 1.66666667, -12.1101946, 79.1415025
4932, 0.333333333, -12.1101946, 79.1415025
4933, 0.666666667, -12.1101946, 79.1415025
4934, 1.33333333, -12.1101946, 79.1415025
4935, 1, -12.1101946, 79.1415025
4936, 0.333333333, -12.0426293, 71.1106548
4937, 0.666666667, -12.0426293, 71.1106548
4938, 1.66666667, -12.0426293, 71.1106548
4939, 1.33333333, -12.0426293, 71.1106548
4940, 1, -12.0426293, 71.1106548
4941, 0.333333333, -12.2100951, 79.3826834
4942, 0.666666667, -12.2100951, 79.3826834
4943, 1.66666667, -12.2100951, 79.3826834
4944, 1.33333333, -12.2100951, 79.3826834
4945, 1, -12.2100951, 79.3826834
4946, 0.333333333, -12.1101946, 70.8584975
4947, 0.666666667, -12.1101946, 70.8584975
4948, 1.66666667, -12.1101946, 70.8584975
4949, 1.33333333, -12.1101946, 70.8584975
4950, 1, -12.1101946, 70.8584975
4951, 0.333333333, -12.3406213, 79.6087614
4952, 0.666666667, -12.3406213, 79.6087614
4953, 1.66666667, -12.3406213, 79.6087614
4954, 1.33333333, -12.3406213, 79.6087614
4955, 1, -12.3406213, 79.6087614
4956, 0.333333333, -12.2100951, 70.6173166
4957, 0.666666667, -12.2100951, 70.6173166
4958, 1.66666667, -12.2100951, 70.6173166
4959, 1.33333333, -12.2100951, 70.6173166
4960, 1, -12.2100951, 70.6173166
4961, 0.333333333, -12.4995399, 79.8158682
4962, 0.666666667, -12.4995399, 79.8158682
4963, 1.66666667, -12.4995399, 79.8158682
4964, 1.33333333, -12.4995399, 79.8158682
4965, 1, -12.4995399, 79.8158682
4966, 0.333333333, -12.3406213, 70.3912386
4967, 0.666666667, -12.3406213, 70.3912386
4968, 1.66666667, -12.3406213, 70.3912386
4969, 1.33333333, -12.3406213, 70.3912386
4970, 1, -12.3406213, 70.3912386
4971, 0.333333333, -12.6841318, 80.0004601
4972, 0.666666667, -12.6841318, 80.0004601
4973, 1.66666667, -12.6841318, 80.0004601
4974, 1.33333333, -12.6841318, 80.0004601
4975, 1, -12.6841318, 80.0004601
4976, 0.333333333, -12.4995399, 70.1841318
4977, 0.666666667, -12.4995399, 70.1841318
4978, 1.66666667, -12.4995399, 70.1841318
4979, 1.33333333, -12.4995399, 70.1841318
4980, 1, -12.4995399, 70.1841318
4981, 0.333333333, -12.8912386, 80.1593787
4982, 0.666666667, -12.8912386, 80.1593787
4983, 1.66666667, -12.8912386, 80.1593787
4984, 1.33333333, -12.8912386, 80.1593787
4985, 1, -12.8912386, 80.1593787
4986, 0.333333333, -12.6841318, 69.9995399
4987, 0.666666667, -12.6841318, 69.9995399
4988, 1.66666667, -12.6841318, 69.9995399
4989, 1.33333333, -12.6841318, 69.9995399
4990, 1, -12.6841318, 69.9995399
4991, 0.333333333, -13.1173166, 80.2899049
4992, 0.666666667, -13.1173166, 80.2899049
4993, 1.66666667, -13.1173166, 80.2899049
4994, 1.33333333, -13.1173166, 80.2899049
4995, 1, -13.1173166, 80.2899049
4996, 0.333333333, -12.8912386, 69.8406213
4997, 0.666666667, -12.8912386, 69.8406213
4998, 1.66701812, -12.8911382, 69.8406883
4999, 1.33333333, -12.8912386, 69.8406213
5000, 1, -12.8912386, 69.8406213
5001, 0.333333333, -13.3584975, 80.3898054
5002, 0.666666667, -13.3584975, 80.3898054
5003, 1.66666667, -13.3584975, 80.3898054
5004, 1.33333333, -13.3584975, 80.3898054
5005, 1, -13.3584975, 80.3898054
5006, 0.333333333, -13.1173166, 69.7100951
5007, 0.666666667, -13.1173166, 69.7100951
5008, 1.66666667, -13.1173166, 69.7100951
5009, 1.33333333, -13.1173166, 69.7100951
5010, 1, -13.1173166, 69.7100951
5011, 0.333333333, -13.6106548, 80.4573707
5012, 0.666666667, -13.6106548, 80.4573707
5013, 1.66666667, -13.6106548, 80.4573707
5014, 1.33333333, -13.6106548, 80.4573707
5015, 1, -13.6106548, 80.4573707
5016, 0.333333333, -13.3584975, 69.6101946
5017, 0.666666667, -13.3584975, 69.6101946
5018, 1.66666667, -13.3584975, 69.6101946
5019, 1.33333333, -13.3584975, 69.6101946
5020, 1, -13.3584975, 69.6101946
5021, 0.333333333, -13.8694738, 80.4914449
5022, 0.666666667, -13.8694738, 80.4914449
5023, 1.66666667, -13.8694738, 80.4914449
5024, 1.33333333, -13.8694738, 80.4914449
5025, 1, -13.8694738, 80.4914449
5026, 0.333333333, -13.6106548, 69.5426293
5027, 0.666666667, -13.6106548, 69.5426293
5028, 1.66666667, -13.6106548, 69.5426293
5029, 1.33333333, -13.6106548, 69.5426293
5030, 1, -13.6106548, 69.5426293
5031, 0.991255971, -14.5749941, 80.5
5032, 1.00874403, -29.4250059, 80.5
5033, 0.692820323, -20, 80.5
5034, 0.692820323, -24, 80.5
5035, 0.66191712, -27.8584402, 80.5
5036, 1.33808288, -16.1415598, 80.5
5037, 0.692820323, -17.6, 80.5
5038, 0.692820323, -21.6, 80.5
5039, 1.33333333, -26.2666667, 80.5
5040, 1.30717968, -20.8, 80.5
5041, 1.30717968, -24.8, 80.5
5042, 0.692820323, -25.6, 80.5
5043, 1.33333333, -22.2666667, 80.5
5044, 1.30717968, -19.2, 80.5
5045, 1.30717968, -23.2, 80.5
5046, 1.30717968, -27.2, 80.5
5047, 0.671817201, -16.69026, 80.5
5048, 0.692820323, -18.4, 80.5
5049, 0.664323043, -28.7506413, 80.5
5050, 1.33567696, -15.2493587, 80.5
5051, 0.563062503, -15.1215198, 80.5
5052, 1.4369375, -28.8784802, 80.5
5053, 0.512297235, -27.171688, 80.5
5054, 0.518477875, -23.2, 80.5
5055, 1.46143594, -20, 80.5
5056, 1.46143594, -24, 80.5
5057, 1.34505956, -28.1145936, 80.5
5058, 0.538564065, -19.2, 80.5
5059, 0.651439923, -15.8671164, 80.5
5060, 1.36769006, -16.8990262, 80.5
5061, 1.48152212, -18.4, 80.5
5062, 0.538564065, -20.8, 80.5
5063, 0.538564065, -24.8, 80.5
5064, 0.641968535, -22.5111111, 80.5
5065, 0.62706727, -26.4759946, 80.5
5066, 1.38251409, -17.7070269, 80.5
5067, 1.46666667, -21.5733333, 80.5
5068, 1.46666667, -25.5733333, 80.5
5069, 1.54094729, -29.4952338, 80.5
5070, 0.459052714, -14.5047662, 80.5
5071, 1.53205325, -14.5248706, 80.5
5072, 0.467946748, -29.4751294, 80.5
5073, 0.229526357, -14.6523831, 80.5
5074, 0.229526357, -14.2523831, 80.5
5075, 0.56285969, -14.2523831, 80.5
5076, 0.233973374, -29.7375647, 80.5
5077, 0.233973374, -29.3375647, 80.5
5078, 0.567306707, -29.7375647, 80.5
5079, 1.76602663, -14.2624353, 80.5
5080, 1.76602663, -14.6624353, 80.5
5081, 1.43269329, -14.2624353, 80.5
5082, 1.77047364, -29.3476169, 80.5
5083, 1.77047364, -29.7476169, 80.5
5084, 1.43714031, -29.7476169, 80.5
5085, 0.281531252, -15.3607599, 80.5
5086, 0.281531252, -14.9607599, 80.5
5087, 0.511057609, -14.813143, 80.5
5088, 0.325719962, -16.1335582, 80.5
5089, 0.325719962, -15.7335582, 80.5
5090, 0.607251213, -15.4943181, 80.5
5091, 0.3359086, -16.94513, 80.5
5092, 0.3359086, -16.54513, 80.5
5093, 0.661628562, -16.2786882, 80.5
5094, 0.346410162, -17.8, 80.5
5095, 0.346410162, -17.4, 80.5
5096, 0.682318762, -17.14513, 80.5
5097, 0.346410162, -18.6, 80.5
5098, 0.346410162, -18.2, 80.5
5099, 0.692820323, -18, 80.5
5100, 0.269282032, -19.4, 80.5
5101, 0.269282032, -19, 80.5
5102, 0.615692194, -18.8, 80.5
5103, 0.346410162, -20.2, 80.5
5104, 0.346410162, -19.8, 80.5
5105, 0.615692194, -19.6, 80.5
5106, 0.269282032, -21, 80.5
5107, 0.269282032, -20.6, 80.5
5108, 0.615692194, -20.4, 80.5
5109, 0.346410162, -21.8, 80.5
5110, 0.346410162, -21.4, 80.5
5111, 0.615692194, -21.2, 80.5
5112, 0.320984267, -22.6555556, 80.5
5113, 0.320984267, -22.2555556, 80.5
5114, 0.667394429, -22.0555556, 80.5
5115, 0.259238938, -23.4, 80.5
5116, 0.259238938, -23, 80.5
5117, 0.580223205, -22.8555556, 80.5
5118, 0.346410162, -24.2, 80.5
5119, 0.346410162, -23.8, 80.5
5120, 0.605649099, -23.6, 80.5
5121, 0.269282032, -25, 80.5
5122, 0.269282032, -24.6, 80.5
5123, 0.615692194, -24.4, 80.5
5124, 0.346410162, -25.8, 80.5
5125, 0.346410162, -25.4, 80.5
5126, 0.615692194, -25.2, 80.5
5127, 0.313533635, -26.6379973, 80.5
5128, 0.313533635, -26.2379973, 80.5
5129, 0.659943797, -26.0379973, 80.5
5130, 0.256148617, -27.385844, 80.5
5131, 0.256148617, -26.985844, 80.5
5132, 0.569682253, -26.8238413, 80.5
5133, 0.33095856, -28.1292201, 80.5
5134, 0.33095856, -27.7292201, 80.5
5135, 0.587107177, -27.5150641, 80.5
5136, 0.332161521, -28.9753206, 80.5
5137, 0.332161521, -28.5753206, 80.5
5138, 0.663120081, -28.3045407, 80.5
5139, 0.566134895, -29.1128853, 80.5
5140, 1.66783848, -15.0246794, 80.5
5141, 1.66783848, -15.4246794, 80.5
5142, 1.4338651, -14.8871147, 80.5
5143, 1.66904144, -15.8707799, 80.5
5144, 1.66904144, -16.2707799, 80.5
5145, 1.33687992, -15.6954593, 80.5
5146, 1.68384503, -16.6495131, 80.5
5147, 1.68384503, -17.0495131, 80.5
5148, 1.35288647, -16.520293, 80.5
5149, 1.69125704, -17.4535135, 80.5
5150, 1.69125704, -17.8535135, 80.5
5151, 1.37510207, -17.3030265, 80.5
5152, 1.74076106, -18.2, 80.5
5153, 1.74076106, -18.6, 80.5
5154, 1.43201811, -18.0535135, 80.5
5155, 1.65358984, -19, 80.5
5156, 1.65358984, -19.4, 80.5
5157, 1.3943509, -18.8, 80.5
5158, 1.73071797, -19.8, 80.5
5159, 1.73071797, -20.2, 80.5
5160, 1.38430781, -19.6, 80.5
5161, 1.65358984, -20.6, 80.5
5162, 1.65358984, -21, 80.5
5163, 1.38430781, -20.4, 80.5
5164, 1.73333333, -21.3866667, 80.5
5165, 1.73333333, -21.7866667, 80.5
5166, 1.38692317, -21.1866667, 80.5
5167, 1.66666667, -22.1333333, 80.5
5168, 1.66666667, -22.5333333, 80.5
5169, 1.4, -21.92, 80.5
5170, 1.65358984, -23, 80.5
5171, 1.65358984, -23.4, 80.5
5172, 1.32025651, -22.7333333, 80.5
5173, 1.73071797, -23.8, 80.5
5174, 1.73071797, -24.2, 80.5
5175, 1.38430781, -23.6, 80.5
5176, 1.65358984, -24.6, 80.5
5177, 1.65358984, -25, 80.5
5178, 1.38430781, -24.4, 80.5
5179, 1.73333333, -25.3866667, 80.5
5180, 1.73333333, -25.7866667, 80.5
5181, 1.38692317, -25.1866667, 80.5
5182, 1.66666667, -26.1333333, 80.5
5183, 1.66666667, -26.5333333, 80.5
5184, 1.4, -25.92, 80.5
5185, 1.65358984, -27, 80.5
5186, 1.65358984, -27.4, 80.5
5187, 1.32025651, -26.7333333, 80.5
5188, 1.67252978, -27.8572968, 80.5
5189, 1.67252978, -28.2572968, 80.5
5190, 1.32611962, -27.6572968, 80.5
5191, 1.71846875, -28.6392401, 80.5
5192, 1.71846875, -29.0392401, 80.5
5193, 1.39099853, -28.4965369, 80.5
5194, 1.48894239, -29.186857, 80.5
5195, 0.828961319, -14.287497, 80.5
5196, 1.16229465, -14.287497, 80.5
5197, 0.725154343, -14.5398801, 80.5
5198, 1.26165461, -14.5499323, 80.5
5199, 1.17103868, -29.712503, 80.5
5200, 0.837705348, -29.712503, 80.5
5201, 0.738345388, -29.4500677, 80.5
5202, 1.27484566, -29.4601199, 80.5
5203, 1.16346646, -14.9121764, 80.5
5204, 0.777159237, -14.848257, 80.5
5205, 0.94936973, -15.1854393, 80.5
5206, 0.836533536, -29.0878236, 80.5
5207, 1.22284076, -29.151743, 80.5
5208, 1.05063027, -28.8145607, 80.5
5209, 1, -20.4, 80.5
5210, 1.07712813, -20, 80.5
5211, 0.922871871, -20.8, 80.5
5212, 1, -19.6, 80.5
5213, 0.922871871, -19.2, 80.5
5214, 1, -24.4, 80.5
5215, 1.07712813, -24, 80.5
5216, 0.922871871, -24.8, 80.5
5217, 1, -23.6, 80.5
5218, 0.912828776, -23.2, 80.5
5219, 0.984548398, -27.5292201, 80.5
5220, 0.909738456, -27.185844, 80.5
5221, 1.00348834, -27.9865169, 80.5
5222, 1.0046913, -28.4326174, 80.5
5223, 1.00495004, -16.4159099, 80.5
5224, 0.994761402, -16.0043381, 80.5
5225, 1.01975363, -16.7946431, 80.5
5226, 0.99355844, -15.5582376, 80.5
5227, 1.03025519, -17.2495131, 80.5
5228, 1.0376672, -18.0535135, 80.5
5229, 1.0376672, -17.6535135, 80.5
5230, 1, -21.2, 80.5
5231, 1.07974349, -21.5866667, 80.5
5232, 1.01307683, -21.9333333, 80.5
5233, 0.987650934, -22.3888889, 80.5
5234, 1.01307683, -25.9333333, 80.5
5235, 0.980200302, -26.3713306, 80.5
5236, 1.07974349, -25.5866667, 80.5
5237, 0.967123474, -26.8379973, 80.5
5238, 1, -25.2, 80.5
5239, 0.974574106, -22.8555556, 80.5
5240, 1, -18.8, 80.5
5241, 1.08717122, -18.4, 80.5
5242, 0.333333333, -13.8694738, 69.5085551
5243, 0.666666667, -13.8694738, 69.5085551
5244, 1.66666667, -13.8694738, 69.5085551
5245, 1.33333333, -13.8694738, 69.5085551
5246, 1, -13.8694738, 69.5085551
5247, 0.333333333, -30.1305262, 80.4914449
5248, 0.666666667, -30.1305262, 80.4914449
5249, 1.66666667, -30.1305262, 80.4914449
5250, 1.33333333, -30.1305262, 80.4914449
5251, 1, -30.1305262, 80.4914449
5252, 1.00874403, -29.4250059, 69.5
5253, 1.00874403, -14.5749941, 69.5
5254, 0.741861759, -23.9717559, 69.5
5255, 0.741861759, -19.9717559, 69.5
5256, 0.66191712, -27.8584402, 69.5
5257, 0.66191712, -16.1415598, 69.5
5258, 0.741861759, -22.4282441, 69.5
5259, 0.692820323, -18.4, 69.5
5260, 0.741861759, -26.4282441, 69.5
5261, 1.25876993, -27.1838121, 69.5
5262, 1.27019059, -23.2, 69.5
5263, 1.28473325, -19.1979414, 69.5
5264, 1.25001647, -24.7105781, 69.5
5265, 1.25001647, -20.7105781, 69.5
5266, 1.30717968, -16.8, 69.5
5267, 1.2418503, -21.6766473, 69.5
5268, 1.2418503, -25.6766473, 69.5
5269, 0.666666667, -17.4666667, 69.5
5270, 0.664323043, -28.7506413, 69.5
5271, 0.664323043, -15.2493587, 69.5
5272, 1.4369375, -28.8784802, 69.5
5273, 1.4369375, -15.1215198, 69.5
5274, 1.33699126, -28.1118956, 69.5
5275, 1.45241376, -23.9764668, 69.5
5276, 1.4553223, -19.9760551, 69.5
5277, 1.34505956, -15.8854064, 69.5
5278, 0.7147903, -21.2, 69.5
5279, 1.34571288, -17.7111111, 69.5
5280, 0.549618223, -27.1814995, 69.5
5281, 0.7147903, -25.2, 69.5
5282, 0.550782822, -23.2, 69.5
5283, 0.543883066, -19.1939394, 69.5
5284, 0.527152693, -16.8016453, 69.5
5285, 1.4484964, -26.4177407, 69.5
5286, 1.45078053, -22.4209783, 69.5
5287, 1.46465329, -18.4218105, 69.5
5288, 0.565065358, -24.6366116, 69.5
5289, 0.565065358, -20.6366116, 69.5
5290, 0.564470156, -25.7624573, 69.5
5291, 0.564470156, -21.7624573, 69.5
5292, 0.467946748, -29.4751294, 69.5
5293, 0.467946748, -14.5248706, 69.5
5294, 1.54094729, -14.5047662, 69.5
5295, 1.54094729, -29.4952338, 69.5
5296, 0.233973374, -29.3375647, 69.5
5297, 0.233973374, -29.7375647, 69.5
5298, 0.567306707, -29.7375647, 69.5
5299, 0.233973374, -14.2624353, 69.5
5300, 0.233973374, -14.6624353, 69.5
5301, 0.567306707, -14.2624353, 69.5
5302, 1.77047364, -29.7476169, 69.5
5303, 1.77047364, -29.3476169, 69.5
5304, 1.43714031, -29.7476169, 69.5
5305, 1.77047364, -14.6523831, 69.5
5306, 1.77047364, -14.2523831, 69.5
5307, 1.43714031, -14.2523831, 69.5
5308, 0.332161521, -28.5753206, 69.5
5309, 0.332161521, -28.9753206, 69.5
5310, 0.566134895, -29.1128853, 69.5
5311, 0.33095856, -27.7292201, 69.5
5312, 0.33095856, -28.1292201, 69.5
5313, 0.663120081, -28.3045407, 69.5
5314, 0.274809111, -26.9907497, 69.5
5315, 0.274809111, -27.3907497, 69.5
5316, 0.605767671, -27.5199698, 69.5
5317, 0.370930879, -26.2141221, 69.5
5318, 0.370930879, -26.6141221, 69.5
5319, 0.645739991, -26.8048718, 69.5
5320, 0.282235078, -25.4812287, 69.5
5321, 0.282235078, -25.8812287, 69.5
5322, 0.653165958, -26.0953507, 69.5
5323, 0.282532679, -24.5183058, 69.5
5324, 0.282532679, -24.9183058, 69.5
5325, 0.35739515, -25.2, 69.5
5326, 0.639927829, -24.9183058, 69.5
5327, 0.639630228, -25.4812287, 69.5
5328, 0.370930879, -23.7858779, 69.5
5329, 0.370930879, -24.1858779, 69.5
5330, 0.653463559, -24.3041837, 69.5
5331, 0.275391411, -23, 69.5
5332, 0.275391411, -23.4, 69.5
5333, 0.64632229, -23.5858779, 69.5
5334, 0.370930879, -22.2141221, 69.5
5335, 0.370930879, -22.6141221, 69.5
5336, 0.64632229, -22.8141221, 69.5
5337, 0.282235078, -21.4812287, 69.5
5338, 0.282235078, -21.8812287, 69.5
5339, 0.653165958, -22.0953507, 69.5
5340, 0.282532679, -20.5183058, 69.5
5341, 0.282532679, -20.9183058, 69.5
5342, 0.35739515, -21.2, 69.5
5343, 0.639927829, -20.9183058, 69.5
5344, 0.639630228, -21.4812287, 69.5
5345, 0.370930879, -19.7858779, 69.5
5346, 0.370930879, -20.1858779, 69.5
5347, 0.653463559, -20.3041837, 69.5
5348, 0.271941533, -18.9969697, 69.5
5349, 0.271941533, -19.3969697, 69.5
5350, 0.642872412, -19.5828476, 69.5
5351, 0.346410162, -18.2, 69.5
5352, 0.346410162, -18.6, 69.5
5353, 0.618351694, -18.7969697, 69.5
5354, 0.333333333, -17.3333333, 69.5
5355, 0.333333333, -17.7333333, 69.5
5356, 0.679743495, -17.9333333, 69.5
5357, 0.263576346, -16.6008226, 69.5
5358, 0.263576346, -17.0008226, 69.5
5359, 0.59690968, -17.134156, 69.5
5360, 0.33095856, -15.8707799, 69.5
5361, 0.33095856, -16.2707799, 69.5
5362, 0.594534906, -16.4716025, 69.5
5363, 0.332161521, -15.0246794, 69.5
5364, 0.332161521, -15.4246794, 69.5
5365, 0.663120081, -15.6954593, 69.5
5366, 0.566134895, -14.8871147, 69.5
5367, 1.71846875, -29.0392401, 69.5
5368, 1.71846875, -28.6392401, 69.5
5369, 1.48894239, -29.186857, 69.5
5370, 1.66849563, -28.2559478, 69.5
5371, 1.66849563, -27.8559478, 69.5
5372, 1.38696438, -28.4951879, 69.5
5373, 1.62938496, -27.391906, 69.5
5374, 1.62938496, -26.991906, 69.5
5375, 1.2978806, -27.6478538, 69.5
5376, 1.7242482, -26.6088704, 69.5
5377, 1.7242482, -26.2088704, 69.5
5378, 1.35363316, -26.8007764, 69.5
5379, 1.62092515, -25.8383237, 69.5
5380, 1.62092515, -25.4383237, 69.5
5381, 1.34517335, -26.047194, 69.5
5382, 1.62500824, -24.9552891, 69.5
5383, 1.62500824, -24.5552891, 69.5
5384, 1.24593339, -25.1936127, 69.5
5385, 1.72620688, -24.1882334, 69.5
5386, 1.72620688, -23.7882334, 69.5
5387, 1.35121512, -24.3435225, 69.5
5388, 1.6350953, -23.4, 69.5
5389, 1.6350953, -23, 69.5
5390, 1.36130218, -23.5882334, 69.5
5391, 1.72539027, -22.6104891, 69.5
5392, 1.72539027, -22.2104891, 69.5
5393, 1.36048556, -22.8104891, 69.5
5394, 1.62092515, -21.8383237, 69.5
5395, 1.62092515, -21.4383237, 69.5
5396, 1.34631542, -22.0488128, 69.5
5397, 1.62500824, -20.9552891, 69.5
5398, 1.62500824, -20.5552891, 69.5
5399, 1.24593339, -21.1936127, 69.5
5400, 1.72766115, -20.1880275, 69.5
5401, 1.72766115, -19.7880275, 69.5
5402, 1.35266938, -20.3433166, 69.5
5403, 1.64236662, -19.3989707, 69.5
5404, 1.64236662, -18.9989707, 69.5
5405, 1.37002777, -19.5869982, 69.5
5406, 1.73232665, -18.6109052, 69.5
5407, 1.73232665, -18.2109052, 69.5
5408, 1.37469327, -18.8098759, 69.5
5409, 1.67285644, -17.8555556, 69.5
5410, 1.67285644, -17.4555556, 69.5
5411, 1.40518309, -18.0664608, 69.5
5412, 1.65358984, -17, 69.5
5413, 1.65358984, -16.6, 69.5
5414, 1.32644628, -17.2555556, 69.5
5415, 1.67252978, -16.1427032, 69.5
5416, 1.67252978, -15.7427032, 69.5
5417, 1.32611962, -16.3427032, 69.5
5418, 1.71846875, -15.3607599, 69.5
5419, 1.71846875, -14.9607599, 69.5
5420, 1.39099853, -15.5034631, 69.5
5421, 1.48894239, -14.813143, 69.5
5422, 1.17103868, -14.287497, 69.5
5423, 0.837705348, -14.287497, 69.5
5424, 0.738345388, -14.5499323, 69.5
5425, 1.27484566, -14.5398801, 69.5
5426, 0.837705348, -29.712503, 69.5
5427, 1.17103868, -29.712503, 69.5
5428, 0.738345388, -29.4500677, 69.5
5429, 1.27484566, -29.4601199, 69.5
5430, 0.836533536, -29.0878236, 69.5
5431, 1.05063027, -28.8145607, 69.5
5432, 1.22284076, -29.151743, 69.5
5433, 0.836533536, -14.9121764, 69.5
5434, 1.22284076, -14.848257, 69.5
5435, 1.05063027, -15.1854393, 69.5
5436, 1.00602618, -23.5858779, 69.5
5437, 1.09713776, -23.9741113, 69.5
5438, 0.910486707, -23.2, 69.5
5439, 0.995939116, -24.341167, 69.5
5440, 0.907540916, -24.6735949, 69.5
5441, 1.0132975, -19.5848486, 69.5
5442, 1.09859203, -19.9739055, 69.5
5443, 0.914308156, -19.1959404, 69.5
5444, 0.995939116, -20.341167, 69.5
5445, 0.907540916, -20.6735949, 69.5
5446, 0.960343524, -27.5211261, 69.5
5447, 0.999454192, -27.9851679, 69.5
5448, 0.904194076, -27.1826558, 69.5
5449, 1.00065715, -28.4312684, 69.5
5450, 0.984548398, -16.4707799, 69.5
5451, 1.00348834, -16.0134831, 69.5
5452, 0.917166185, -16.8008226, 69.5
5453, 1.0046913, -15.5673826, 69.5
5454, 1.00602618, -22.8141221, 69.5
5455, 1.09632114, -22.4246112, 69.5
5456, 0.99185603, -22.0524457, 69.5
5457, 0.903160229, -21.7195523, 69.5
5458, 0.988776784, -18.7989707, 69.5
5459, 1.07873681, -18.4109052, 69.5
5460, 1.00618977, -17.5888889, 69.5
5461, 1.0192666, -18.0555556, 69.5
5462, 1.00031584, -26.8060281, 69.5
5463, 1.09517908, -26.4229924, 69.5
5464, 0.99185603, -26.0524457, 69.5
5465, 0.903160229, -25.7195523, 69.5
5466, 0.978320301, -25.4383237, 69.5
5467, 0.982403387, -24.9552891, 69.5
5468, 0.978320301, -21.4383237, 69.5
5469, 0.982403387, -20.9552891, 69.5
5470, 0.986923172, -17.1333333, 69.5
5471, 0.333333333, -30.3893452, 80.4573707
5472, 0.666666667, -30.3893452, 80.4573707
5473, 1.66666667, -30.3893452, 80.4573707
5474, 1.33333333, -30.3893452, 80.4573707
5475, 1, -30.3893452, 80.4573707
5476, 0.333333333, -30.1305262, 69.5085551
5477, 0.666666667, -30.1305262, 69.5085551
5478, 1.66666667, -30.1305262, 69.5085551
5479, 1.33333333, -30.1305262, 69.5085551
5480, 1, -30.1305262, 69.5085551
5481, 0.333333333, -30.6415025, 80.3898054
5482, 0.666666667, -30.6415025, 80.3898054
5483, 1.66666667, -30.6415025, 80.3898054
5484, 1.33333333, -30.6415025, 80.3898054
5485, 1, -30.6415025, 80.3898054
5486, 0.333333333, -30.3893452, 69.5426293
5487, 0.666666667, -30.3893452, 69.5426293
5488, 1.66666667, -30.3893452, 69.5426293
5489, 1.33333333, -30.3893452, 69.5426293
5490, 1, -30.3893452, 69.5426293
5491, 0.333333333, -30.8826834, 80.2899049
5492, 0.666666667, -30.8826834, 80.2899049
5493, 1.66666667, -30.8826834, 80.2899049
5494, 1.33333333, -30.8826834, 80.2899049
5495, 1, -30.8826834, 80.2899049
5496, 0.333333333, -30.6415025, 69.6101946
5497, 0.666666667, -30.6415025, 69.6101946
5498, 1.66666667, -30.6415025, 69.6101946
5499, 1.33333333, -30.6415025, 69.6101946
5500, 1, -30.6415025, 69.6101946
5501, 0.333333333, -31.1087614, 80.1593787
5502, 0.666666667, -31.1087614, 80.1593787
5503, 1.66687479, -31.1088174, 80.1593414
5504, 1.33333333, -31.1087614, 80.1593787
5505, 1, -31.1087614, 80.1593787
5506, 0.333333333, -30.8826834, 69.7100951
5507, 0.666666667, -30.8826834, 69.7100951
5508, 1.66666667, -30.8826834, 69.7100951
5509, 1.33333333, -30.8826834, 69.7100951
5510, 1, -30.8826834, 69.7100951
5511, 0.333333333, -31.3158682, 80.0004601
5512, 0.666666667, -31.3158682, 80.0004601
5513, 1.66666667, -31.3158682, 80.0004601
5514, 1.33333333, -31.3158682, 80.0004601
5515, 1, -31.3158682, 80.0004601
5516, 0.333333333, -31.1087614, 69.8406213
5517, 0.666666667, -31.1087614, 69.8406213
5518, 1.66666667, -31.1087614, 69.8406213
5519, 1.33333333, -31.1087614, 69.8406213
5520, 1, -31.1087614, 69.8406213
5521, 0.333333333, -31.5004601, 79.8158682
5522, 0.666666667, -31.5004601, 79.8158682
5523, 1.66666667, -31.5004601, 79.8158682
5524, 1.33333333, -31.5004601, 79.8158682
5525, 1, -31.5004601, 79.8158682
5526, 0.333333333, -31.3158682, 69.9995399
5527, 0.666666667, -31.3158682, 69.9995399
5528, 1.66666667, -31.3158682, 69.9995399
5529, 1.33333333, -31.3158682, 69.9995399
5530, 1, -31.3158682, 69.9995399
5531, 0.333333333, -31.6593787, 79.6087614
5532, 0.666666667, -31.6593787, 79.6087614
5533, 1.66666667, -31.6593787, 79.6087614
5534, 1.33333333, -31.6593787, 79.6087614
5535, 1, -31.6593787, 79.6087614
5536, 0.333333333, -31.5004601, 70.1841318
5537, 0.666666667, -31.5004601, 70.1841318
5538, 1.66666667, -31.5004601, 70.1841318
5539, 1.33333333, -31.5004601, 70.1841318
5540, 1, -31.5004601, 70.1841318
5541, 0.333333333, -31.7899049, 79.3826834
5542, 0.666666667, -31.7899049, 79.3826834
5543, 1.66666667, -31.7899049, 79.3826834
5544, 1.33333333, -31.7899049, 79.3826834
5545, 1, -31.7899049, 79.3826834
5546, 0.333333333, -31.6593787, 70.3912386
5547, 0.666666667, -31.6593787, 70.3912386
5548, 1.66666667, -31.6593787, 70.3912386
5549, 1.33333333, -31.6593787, 70.3912386
5550, 1, -31.6593787, 70.3912386
5551, 0.333333333, -31.8898054, 79.1415025
5552, 0.666666667, -31.8898054, 79.1415025
5553, 1.66666667, -31.8898054, 79.1415025
5554, 1.33333333, -31.8898054, 79.1415025
5555, 1, -31.8898054, 79.1415025
5556, 0.333333333, -31.7899049, 70.6173166
5557, 0.666666667, -31.7899049, 70.6173166
5558, 1.66666667, -31.7899049, 70.6173166
5559, 1.33333333, -31.7899049, 70.6173166
5560, 1, -31.7899049, 70.6173166
5561, 0.333333333, -31.9573707, 78.8893452
5562, 0.666666667, -31.9573707, 78.8893452
5563, 1.66666667, -31.9573707, 78.8893452
5564, 1.33333333, -31.9573707, 78.8893452
5565, 1, -31.9573707, 78.8893452
5566, 0.333333333, -31.8898054, 70.8584975
5567, 0.666666667, -31.8898054, 70.8584975
5568, 1.66666667, -31.8898054, 70.8584975
5569, 1.33333333, -31.8898054, 70.8584975
5570, 1, -31.8898054, 70.8584975
5571, 0.333333333, -31.9914449, 78.6305262
5572, 0.666666667, -31.9914449, 78.6305262
5573, 1.66666667, -31.9914449, 78.6305262
5574, 1.33333333, -31.9914449, 78.6305262
5575, 1, -31.9914449, 78.6305262
5576, 0.333333333, -31.9573707, 71.1106548
5577, 0.666666667, -31.9573707, 71.1106548
5578, 1.66666667, -31.9573707, 71.1106548
5579, 1.33333333, -31.9573707, 71.1106548
5580, 1, -31.9573707, 71.1106548
5581, 1, -32, 72.0773503
5582, 1, -32, 77.9226497
5583, 1.32642469, -32, 75.7777778
5584, 1.32642469, -32, 74.2222222
5585, 0.673575314, -32, 76.5555556
5586, 0.673575314, -32, 73.4444444
5587, 0.673575314, -32, 75
5588, 0.584605459, -32, 72.5927742
5589, 0.584605459, -32, 77.4072258
5590, 1.36934573, -32, 77.2999818
5591, 1.36934573, -32, 72.7000182
5592, 0.534715063, -32, 75.7777778
5593, 1.47386915, -32, 76.5488852
5594, 1.46528494, -32, 75
5595, 1.47386915, -32, 73.4511148
5596, 0.534715063, -32, 74.2222222
5597, 1.53528829, -32, 72.0014989
5598, 0.464711711, -32, 77.9985011
5599, 1.53528829, -32, 77.9985011
5600, 0.464711711, -32, 72.0014989
5601, 0.232355856, -32, 77.8603616
5602, 0.232355856, -32, 78.2492505
5603, 0.565689189, -32, 78.2492505
5604, 0.232355856, -32, 71.7507495
5605, 0.232355856, -32, 72.1396384
5606, 0.565689189, -32, 71.7507495
5607, 1.76764414, -32, 78.2492505
5608, 1.76764414, -32, 77.8603616
5609, 1.43431081, -32, 78.2492505
5610, 1.76764414, -32, 72.1396384
5611, 1.76764414, -32, 71.7507495
5612, 1.43431081, -32, 71.7507495
5613, 0.29230273, -32, 77.1758351
5614, 0.29230273, -32, 77.564724
5615, 0.522308477, -32, 77.7084058
5616, 0.336787657, -32, 76.3611111
5617, 0.336787657, -32, 76.75
5618, 0.632995725, -32, 76.9812234
5619, 0.267357531, -32, 75.5833333
5620, 0.267357531, -32, 75.9722222
5621, 0.604145188, -32, 76.1666667
5622, 0.336787657, -32, 74.8055556
5623, 0.336787657, -32, 75.1944444
5624, 0.604145188, -32, 75.3888889
5625, 0.267357531, -32, 74.0277778
5626, 0.267357531, -32, 74.4166667
5627, 0.604145188, -32, 74.6111111
5628, 0.336787657, -32, 73.25
5629, 0.336787657, -32, 73.6388889
5630, 0.604145188, -32, 73.8333333
5631, 0.29230273, -32, 72.435276
5632, 0.29230273, -32, 72.8241649
5633, 0.634637968, -32, 73.0190156
5634, 0.524658585, -32, 72.2971366
5635, 1.68467287, -32, 77.511102
5636, 1.68467287, -32, 77.1222131
5637, 1.45231701, -32, 77.6492414
5638, 1.73693457, -32, 76.7466648
5639, 1.73693457, -32, 76.357776
5640, 1.42160744, -32, 76.9244335
5641, 1.66321234, -32, 75.9722222
5642, 1.66321234, -32, 75.5833333
5643, 1.40014692, -32, 76.1633315
5644, 1.73264247, -32, 75.1944444
5645, 1.73264247, -32, 74.8055556
5646, 1.39585481, -32, 75.3888889
5647, 1.66321234, -32, 74.4166667
5648, 1.66321234, -32, 74.0277778
5649, 1.39585481, -32, 74.6111111
5650, 1.73693457, -32, 73.642224
5651, 1.73693457, -32, 73.2533352
5652, 1.40014692, -32, 73.8366685
5653, 1.68467287, -32, 72.8777869
5654, 1.68467287, -32, 72.488898
5655, 1.42160744, -32, 73.0755665
5656, 1.45231701, -32, 72.3507586
5657, 0.833333333, -32, 78.2113249
5658, 1.16666667, -32, 78.2113249
5659, 0.731384082, -32, 77.9697432
5660, 1.26572343, -32, 77.9606884
5661, 1.16666667, -32, 71.7886751
5662, 0.833333333, -32, 71.7886751
5663, 0.732355856, -32, 72.0394246
5664, 1.26570814, -32, 72.0372337
5665, 0.794765774, -32, 72.3196449
5666, 1.17800135, -32, 72.3828821
5667, 0.96661329, -32, 72.6432194
5668, 0.797241637, -32, 77.6751487
5669, 0.970597242, -32, 77.3536409
5670, 1.18383757, -32, 77.6098865
5671, 1, -32, 76.1666667
5672, 0.930569874, -32, 75.7777778
5673, 1.07372223, -32, 76.5522204
5674, 1, -32, 75.3888889
5675, 1.06943013, -32, 75
5676, 1, -32, 73.8333333
5677, 1.07372223, -32, 73.4477796
5678, 0.930569874, -32, 74.2222222
5679, 1, -32, 74.6111111
5680, 1.02218366, -32, 76.9279057
5681, 1.02444627, -32, 73.0688106
5682, 0.333333333, -31.9914449, 71.3694738
5683, 0.666666667, -31.9914449, 71.3694738
5684, 1.66666667, -31.9914449, 71.3694738
5685, 1.33333333, -31.9914449, 71.3694738
5686, 1, -31.9914449, 71.3694738
5687, 1, -29.4411357, 73.5050725
5688, 1, -30.5588643, 73.5050725
5689, 0.597929121, -31.1474856, 72.5760046
5690, 1.44725257, -28.8500851, 72.5139898
5691, 1.39467184, -30.3392904, 71.4011906
5692, 0.576448956, -29.0685872, 71.8254852
5693, 1.37349664, -31.147653, 72.5734347
5694, 0.66024388, -30.3390681, 71.401122
5695, 0.571896725, -28.8500064, 72.4961541
5696, 0.600382924, -29.6177751, 71.4153783
5697, 1.22587852, -29.324047, 71.5696305
5698, 1.4055472, -30.9299125, 71.8234183
5699, 0.612939259, -30.9303695, 71.824047
5700, 0.63335371, -29.0664309, 73.1715272
5701, 1.37478215, -29.0704207, 73.1770394
5702, 0.637240167, -30.9332866, 73.1719197
5703, 1.36652712, -30.9307392, 73.1754439
5704, 1.49890565, -28.9897506, 71.9505492
5705, 1.11605302, -29.8449174, 71.3605048
5706, 0.467358318, -30.4694753, 73.5498061
5707, 1.53820854, -30.4636678, 73.552384
5708, 1.52069382, -29.518068, 73.5441463
5709, 0.479306184, -29.518068, 73.5441463
5710, 1.00683366, -30.706223, 71.5923938
5711, 1.00416062, -31.081438, 72.1088582
5712, 1.00389998, -31.0902255, 72.865935
5713, 1.0006695, -28.8891806, 72.7976244
5714, 1.57014307, -29.7248604, 71.3833988
5715, 1.01001633, -28.9042044, 72.1510987
5716, 0.233679159, -30.2400239, 73.6246726
5717, 0.233679159, -30.5758193, 73.4954558
5718, 0.239653092, -29.4182692, 73.4920127
5719, 0.239653092, -29.7532899, 73.6232249
5720, 0.567012492, -30.2400239, 73.6246726
5721, 0.572986426, -29.7532899, 73.6232249
5722, 1.76910427, -30.573067, 73.4970427
5723, 1.76910427, -30.236916, 73.6253314
5724, 1.76034691, -29.7532899, 73.6232249
5725, 1.76034691, -29.4182692, 73.4920127
5726, 1.43577094, -30.236916, 73.6253314
5727, 1.42701357, -29.7532899, 73.6232249
5728, 0.318620083, -30.8149307, 73.311411
5729, 0.327902525, -31.0306669, 73.0101233
5730, 0.552299243, -30.7263847, 73.3915521
5731, 0.301805225, -31.1337355, 72.6927274
5732, 0.305306774, -31.1366211, 72.3250929
5733, 0.613539667, -31.0869643, 72.8755112
5734, 0.30646963, -31.0246575, 71.9779109
5735, 0.30646963, -30.8131728, 71.6868272
5736, 0.581326541, -31.0992623, 72.1621799
5737, 0.33012194, -30.5144568, 71.4714893
5738, 0.33012194, -30.1714502, 71.3628523
5739, 0.636591569, -30.6690175, 71.5646307
5740, 0.300191462, -29.806112, 71.3664624
5741, 0.300191462, -29.4653192, 71.4818564
5742, 0.630313402, -29.9772747, 71.3502246
5743, 0.288224478, -29.1861993, 71.6874556
5744, 0.288224478, -28.9749395, 71.9787027
5745, 0.58841594, -29.3119172, 71.5785652
5746, 0.285948363, -28.8644608, 72.3182013
5747, 0.285948363, -28.8638592, 72.6780001
5748, 0.574172841, -28.9066051, 72.1436467
5749, 0.316676855, -28.9741057, 73.0196546
5750, 0.316676855, -29.1848986, 73.3112396
5751, 0.602625217, -28.9048559, 72.8509408
5752, 0.556329947, -29.2681379, 73.3870614
5753, 1.68529675, -31.0255736, 73.0202872
5754, 1.68326356, -30.8133952, 73.3129503
5755, 1.45236783, -30.7222283, 73.3949225
5756, 1.6839213, -31.1366123, 72.3250357
5757, 1.69111684, -31.1351686, 72.6840986
5758, 1.37625235, -31.0911467, 72.8631789
5759, 1.7027736, -30.812898, 71.6865525
5760, 1.7027736, -31.024481, 71.9775647
5761, 1.42074019, -31.0995218, 72.1630256
5762, 1.69733592, -30.1715652, 71.3628697
5763, 1.69733592, -30.5145608, 71.4715413
5764, 1.40010952, -30.668796, 71.5644724
5765, 1.78507154, -29.515423, 71.4570785
5766, 1.78507154, -29.8614204, 71.3583802
5767, 1.48240746, -30.0332862, 71.3504818
5768, 1.74945283, -28.9435515, 72.0456691
5769, 1.74945283, -29.1356538, 71.7414451
5770, 1.61293926, -29.324047, 71.5696305
5771, 1.36239208, -29.1356538, 71.7414451
5772, 1.39801079, -29.515423, 71.4570785
5773, 1.72362629, -28.8652737, 72.6868052
5774, 1.72362629, -28.8630852, 72.3270126
5775, 1.47307911, -28.8837815, 72.223312
5776, 1.68739107, -29.1873023, 73.3136476
5777, 1.68739107, -28.9756476, 73.0226874
5778, 1.41101736, -28.9086784, 72.8626531
5779, 1.44773798, -29.2707655, 73.3892227
5780, 0.833333333, -29.7113249, 73.6131786
5781, 1.16666667, -29.7113249, 73.6131786
5782, 1.16666667, -30.2886751, 73.6131786
5783, 0.833333333, -30.2886751, 73.6131786
5784, 0.739653092, -29.4792352, 73.5253312
5785, 0.733679159, -30.5146561, 73.528411
5786, 1.26034691, -29.4792352, 73.5253312
5787, 1.26910427, -30.5118131, 73.5298288
5788, 0.816676855, -29.2353743, 73.3589805
5789, 1.00406793, -29.0684217, 73.1742862
5790, 1.18739107, -29.2379189, 73.3612389
5791, 0.818620083, -30.7644451, 73.3591413
5792, 1.18326356, -30.7628194, 73.360585
5793, 1.00188364, -30.9320146, 73.173683
5794, 0.764587281, -31.1318545, 72.2965166
5795, 0.802603157, -31.0217614, 71.9722656
5796, 0.824252071, -31.0221281, 73.0270238
5797, 0.798059436, -31.138597, 72.6615449
5798, 1.00733606, -31.1484593, 72.4404909
5799, 1.18772582, -28.9623123, 72.9956857
5800, 1.22396104, -28.8607713, 72.6570285
5801, 1.22863445, -28.8625791, 72.330372
5802, 1.25446099, -28.9422139, 72.048792
5803, 1.00534292, -28.8503104, 72.4732837
5804, 1.02745786, -30.3391792, 71.4011563
5805, 1.25536243, -30.0943237, 71.3538748
5806, 0.888148452, -30.0942078, 71.3538652
5807, 0.833538767, -30.5313234, 71.4801003
5808, 1.20075275, -30.5314266, 71.480154
5809, 1.20619043, -30.8261827, 71.7000487
5810, 1.34309805, -29.7845846, 71.3703557
5811, 0.793232643, -28.9734039, 71.9817332
5812, 0.790956527, -28.8639287, 72.3215567
5813, 0.913130721, -29.4653192, 71.4818564
5814, 0.901163737, -29.1861993, 71.6874556
5815, 1.11794742, -29.0676376, 71.8267984
5816, 1.2094594, -31.0219102, 71.9725537
5817, 1.23064441, -31.1317479, 72.295925
5818, 1.18558236, -31.136293, 72.6770261
5819, 1.18503854, -31.0211707, 73.0288766
5820, 0.858217974, -29.7299489, 71.3821573
5821, 0.809886457, -30.826453, 71.7003279
5822, 0.786283113, -28.8595878, 72.6481894
5823, 0.817011605, -28.9608504, 72.9926135
5824, 1.17096577, -29.5715278, 71.432802
5825, 1.00515344, -30.9347958, 71.8301815
5826, 1, -14.5588643, 73.5050725
5827, 1, -13.4411357, 73.5050725
5828, 1.40561039, -15.1499982, 72.4979912
5829, 1.37208479, -12.8515315, 72.5593304
5830, 0.612939259, -14.3553695, 71.406285
5831, 0.612939259, -13.0696305, 71.824047
5832, 1.40471829, -13.6446849, 71.4062673
5833, 0.612939259, -15.15, 72.5
5834, 0.604588273, -12.8521425, 72.5701647
5835, 1.38706074, -13.0696305, 71.824047
5836, 0.612939259, -13.6446305, 71.406285
5837, 1.38706074, -14.3553695, 71.406285
5838, 1.38706074, -14.9303695, 71.824047
5839, 0.612939259, -14.9303695, 71.824047
5840, 0.636799098, -13.0665845, 73.1717407
5841, 1.36602325, -13.0691497, 73.1752909
5842, 1.3632009, -14.9334155, 73.1717407
5843, 0.633976755, -14.9308503, 73.1752909
5844, 0.461896371, -14.4636979, 73.5523708
5845, 1.53270691, -14.4695111, 73.5497901
5846, 0.479306184, -13.518068, 73.5441463
5847, 1.52069382, -13.518068, 73.5441463
5848, 0.998737687, -14.675953, 71.5696305
5849, 1.00111524, -12.9179944, 72.110431
5850, 1, -13.3252631, 71.5687481
5851, 0.999138911, -14.0002292, 71.35
5852, 0.999195537, -15.0934051, 72.1436782
5853, 1, -15.0962065, 72.8476079
5854, 1.00137949, -12.9127305, 72.8746267
5855, 0.230948185, -14.2369321, 73.625328
5856, 0.230948185, -14.5730813, 73.4970345
5857, 0.239653092, -13.4182692, 73.4920127
5858, 0.239653092, -13.7532899, 73.6232249
5859, 0.564281519, -14.2369321, 73.625328
5860, 0.572986426, -13.7532899, 73.6232249
5861, 1.76635345, -14.5758362, 73.495446
5862, 1.76635345, -14.2400431, 73.6246685
5863, 1.76034691, -13.7532899, 73.6232249
5864, 1.76034691, -13.4182692, 73.4920127
5865, 1.43302012, -14.2400431, 73.6246685
5866, 1.42701357, -13.7532899, 73.6232249
5867, 0.316988377, -14.813462, 73.3128835
5868, 0.316988377, -15.0248432, 73.0217245
5869, 0.547936563, -14.7223147, 73.3948528
5870, 0.30646963, -15.1358416, 72.6798996
5871, 0.30646963, -15.1358416, 72.3201004
5872, 0.623458007, -15.0938413, 72.8549804
5873, 0.30646963, -15.0246575, 71.9779109
5874, 0.30646963, -14.8131728, 71.6868272
5875, 0.612939259, -15.093715, 72.1446305
5876, 0.30646963, -14.5220891, 71.4753425
5877, 0.30646963, -14.1798996, 71.3641584
5878, 0.612939259, -14.675953, 71.5696305
5879, 0.30646963, -13.8201004, 71.3641584
5880, 0.30646963, -13.4779109, 71.4753425
5881, 0.612939259, -14, 71.35
5882, 0.30646963, -13.1868272, 71.6868272
5883, 0.309747782, -12.9738266, 71.9808969
5884, 0.612939259, -13.324047, 71.5696305
5885, 0.304571954, -12.863808, 72.3223271
5886, 0.297892051, -12.8646237, 72.6828131
5887, 0.582347758, -12.9017574, 72.1588795
5888, 0.318399549, -12.9741651, 73.0197719
5889, 0.335114587, -13.1914928, 73.3178118
5890, 0.608349993, -12.9071046, 72.857882
5891, 0.558052641, -13.2682394, 73.3871451
5892, 1.68160045, -15.0258349, 73.0197719
5893, 1.68160045, -14.8150086, 73.3113329
5894, 1.4479539, -14.7264854, 73.3914701
5895, 1.7028052, -15.135684, 72.3191084
5896, 1.7028052, -15.1359983, 72.6789075
5897, 1.38440565, -15.0948232, 72.8519407
5898, 1.69353037, -14.8131728, 71.6868272
5899, 1.69353037, -15.0246575, 71.9779109
5900, 1.39633557, -15.0934042, 72.1436753
5901, 1.69353037, -14.1798996, 71.3641584
5902, 1.69353037, -14.5220891, 71.4753425
5903, 1.38706074, -14.675953, 71.5696305
5904, 1.70235915, -13.4779364, 71.4753295
5905, 1.70235915, -13.8201286, 71.3641539
5906, 1.39588952, -14.0000286, 71.35
5907, 1.69353037, -12.9753425, 71.9779109
5908, 1.69353037, -13.1868272, 71.6868272
5909, 1.39588952, -13.3240701, 71.5696136
5910, 1.6921416, -12.8645046, 72.6820721
5911, 1.68678449, -12.8638088, 72.322322
5912, 1.41112251, -12.9028213, 72.1554728
5913, 1.68301162, -13.186538, 73.3128835
5914, 1.67802482, -12.9730305, 73.0175264
5915, 1.38022908, -12.9072289, 72.8582615
5916, 1.44335853, -13.2699301, 73.388537
5917, 1.16666667, -14.2886751, 73.6131786
5918, 0.833333333, -14.2886751, 73.6131786
5919, 0.833333333, -13.7113249, 73.6131786
5920, 1.16666667, -13.7113249, 73.6131786
5921, 0.730948185, -14.5118278, 73.5298215
5922, 0.739653092, -13.4792352, 73.5253312
5923, 1.26635345, -14.5146736, 73.5284022
5924, 1.26034691, -13.4792352, 73.5253312
5925, 1.18160045, -14.7645275, 73.3590679
5926, 0.998588828, -14.9321346, 73.173517
5927, 0.816988377, -14.7628901, 73.3605223
5928, 0.818399549, -13.2354725, 73.3590679
5929, 1.00141117, -13.0678654, 73.173517
5930, 1.18301162, -13.2371099, 73.3605223
5931, 1.19312814, -15.0244301, 71.9774648
5932, 1.20240297, -15.1356052, 72.3186139
5933, 1.2028052, -15.1366252, 72.6748802
5934, 1.18160045, -15.0276706, 73.0161329
5935, 0.999597769, -15.1499909, 72.4954234
5936, 1.22703985, -12.8682158, 72.2961265
5937, 1.19961102, -12.9820223, 71.9650034
5938, 1.18584513, -12.9776798, 73.0266511
5939, 1.18632949, -12.8636163, 72.6764429
5940, 1.00246308, -12.8511487, 72.4486119
5941, 0.806039085, -14.1800128, 71.3641763
5942, 0.806039085, -13.8202135, 71.3641405
5943, 0.805838473, -14.8131728, 71.6868272
5944, 0.805838473, -14.5220891, 71.4753425
5945, 0.998938299, -14.3554785, 71.4063204
5946, 0.800491005, -12.9769178, 71.9748307
5947, 0.766772058, -12.8684368, 72.2949031
5948, 0.80646963, -13.4785804, 71.4750017
5949, 0.80646963, -13.1873586, 71.6862962
5950, 0.997158055, -13.075825, 71.815602
5951, 1.19353037, -13.1873586, 71.6862962
5952, 1.20235915, -13.4786059, 71.4749887
5953, 1.2019286, -13.8202418, 71.364136
5954, 1.19309983, -14.1800128, 71.3641763
5955, 0.993575794, -13.6324642, 71.4103131
5956, 0.806067398, -15.1357632, 72.3196058
5957, 0.806067398, -15.0244301, 71.9774648
5958, 0.816988377, -15.0266859, 73.0180889
5959, 0.80646963, -15.1364721, 72.6758728
5960, 0.800117766, -12.8625727, 72.6695853
5961, 0.818559458, -12.974838, 73.0210978
5962, 1.19289921, -14.5220891, 71.4753425
5963, 1.19289921, -14.8131728, 71.6868272
5964, 0.998966612, -14.9300751, 71.8236419
5965, 1, -29.4411357, 78.5050725
5966, 1, -30.5588643, 78.5050725
5967, 1.37269084, -31.1497107, 77.4742078
5968, 1.38706074, -28.85, 77.5
5969, 0.612939259, -30.3553695, 76.406285
5970, 0.612939259, -29.0696305, 76.824047
5971, 1.38706074, -29.6446305, 76.406285
5972, 0.604901452, -31.1454707, 77.3980346
5973, 0.594389605, -28.8500018, 77.4979912
5974, 1.38706074, -29.0696305, 76.824047
5975, 0.595281705, -29.6446849, 76.4062673
5976, 1.38706074, -30.3553695, 76.406285
5977, 1.38706074, -30.9303695, 76.824047
5978, 0.612939259, -30.9303695, 76.824047
5979, 0.636799098, -29.0665845, 78.1717407
5980, 1.36602325, -29.0691497, 78.1752909
5981, 0.637240167, -30.9332866, 78.1719197
5982, 1.36652712, -30.9307392, 78.1754439
5983, 0.467358318, -30.4694753, 78.5498061
5984, 1.53820854, -30.4636678, 78.552384
5985, 0.479306184, -29.518068, 78.5441463
5986, 1.52069382, -29.518068, 78.5441463
5987, 1.00126231, -30.675953, 76.5696305
5988, 1.0006913, -28.9066366, 77.1435503
5989, 1, -29.3252631, 76.5687481
5990, 1.00086109, -30.0002292, 76.35
5991, 1.00624825, -31.0853358, 77.1198078
5992, 0.996959397, -31.0849439, 77.8813092
5993, 1, -28.9037935, 77.8476079
5994, 0.233679159, -30.2400239, 78.6246726
5995, 0.233679159, -30.5758193, 78.4954558
5996, 0.239653092, -29.4182692, 78.4920127
5997, 0.239653092, -29.7532899, 78.6232249
5998, 0.567012492, -30.2400239, 78.6246726
5999, 0.572986426, -29.7532899, 78.6232249
6000, 1.76910427, -30.573067, 78.4970427
6001, 1.76910427, -30.236916, 78.6253314
6002, 1.76034691, -29.7532899, 78.6232249
6003, 1.76034691, -29.4182692, 78.4920127
6004, 1.43577094, -30.236916, 78.6253314
6005, 1.42701357, -29.7532899, 78.6232249
6006, 0.318620083, -30.8149307, 78.311411
6007, 0.318620083, -31.025785, 78.0198703
6008, 0.552299243, -30.7263847, 78.3915521
6009, 0.309139968, -31.1367856, 77.6738346
6010, 0.297715413, -31.1343783, 77.3110931
6011, 0.602121286, -31.1030643, 77.8251908
6012, 0.30646963, -31.0246575, 76.9779109
6013, 0.30646963, -30.8131728, 76.6868272
6014, 0.592873749, -31.0873671, 77.1256569
6015, 0.30646963, -30.5220891, 76.4753425
6016, 0.30646963, -30.1798996, 76.3641584
6017, 0.612939259, -30.675953, 76.5696305
6018, 0.297640853, -29.8201286, 76.3641539
6019, 0.297640853, -29.4779364, 76.4753295
6020, 0.604110482, -30.0000286, 76.35
6021, 0.30646963, -29.1868272, 76.6868272
6022, 0.30646963, -28.9753425, 76.9779109
6023, 0.604110482, -29.3240701, 76.5696136
6024, 0.297194803, -28.864316, 77.3191084
6025, 0.297194803, -28.8640017, 77.6789075
6026, 0.603664432, -28.9065958, 77.1436753
6027, 0.318399549, -28.9741651, 78.0197719
6028, 0.318399549, -29.1849914, 78.3113329
6029, 0.615594352, -28.9051768, 77.8519407
6030, 0.558052641, -29.2682394, 78.3871451
6031, 1.68326356, -31.0248003, 78.0218087
6032, 1.68326356, -30.8133952, 78.3129503
6033, 1.45236783, -30.7222283, 78.3949225
6034, 1.69034065, -31.1359328, 77.3206774
6035, 1.68848263, -31.1361021, 77.6782468
6036, 1.40090045, -31.0931731, 77.857033
6037, 1.69353037, -30.8131728, 76.6868272
6038, 1.68830424, -31.0261475, 76.9808457
6039, 1.3848263, -31.0975451, 77.1566419
6040, 1.69353037, -30.1798996, 76.3641584
6041, 1.69353037, -30.5220891, 76.4753425
6042, 1.38706074, -30.675953, 76.5696305
6043, 1.69353037, -29.4779109, 76.4753425
6044, 1.69353037, -29.8201004, 76.3641584
6045, 1.38706074, -30, 76.35
6046, 1.69353037, -28.9753425, 76.9779109
6047, 1.69353037, -29.1868272, 76.6868272
6048, 1.38706074, -29.324047, 76.5696305
6049, 1.69353037, -28.8641584, 77.6798996
6050, 1.69353037, -28.8641584, 77.3201004
6051, 1.38706074, -28.906285, 77.1446305
6052, 1.68301162, -29.186538, 78.3128835
6053, 1.68301162, -28.9751568, 78.0217245
6054, 1.37654199, -28.9061587, 77.8549804
6055, 1.44335853, -29.2699301, 78.388537
6056, 0.833333333, -29.7113249, 78.6131786
6057, 1.16666667, -29.7113249, 78.6131786
6058, 1.16666667, -30.2886751, 78.6131786
6059, 0.833333333, -30.2886751, 78.6131786
6060, 0.739653092, -29.4792352, 78.5253312
6061, 0.733679159, -30.5146561, 78.528411
6062, 1.26034691, -29.4792352, 78.5253312
6063, 1.26910427, -30.5118131, 78.5298288
6064, 0.818399549, -29.2354725, 78.3590679
6065, 1.00141117, -29.0678654, 78.173517
6066, 1.18301162, -29.2371099, 78.3605223
6067, 0.818620083, -30.7644451, 78.3591413
6068, 1.18326356, -30.7628194, 78.360585
6069, 1.00188364, -30.9320146, 78.173683
6070, 1.19977616, -31.0220692, 76.9728619
6071, 1.18511744, -31.1368852, 77.3268182
6072, 1.22764453, -31.1324403, 77.7001974
6073, 1.1828383, -31.0197621, 78.0315875
6074, 1.01456654, -31.1493301, 77.5392475
6075, 1.19387602, -28.8642474, 77.3195394
6076, 1.19387602, -28.9756005, 76.9774049
6077, 1.18301162, -28.9733141, 78.0180889
6078, 1.19353037, -28.8635279, 77.6758728
6079, 1.00034565, -28.8500094, 77.4953562
6080, 0.806900174, -30.1800128, 76.3641763
6081, 0.798071397, -29.8202418, 76.364136
6082, 0.807100786, -30.8131728, 76.6868272
6083, 0.807100786, -30.5220891, 76.4753425
6084, 1.0010867, -30.3594597, 76.4076224
6085, 0.806815278, -28.9756005, 76.9774049
6086, 0.797540451, -28.8644054, 77.3185475
6087, 0.797640853, -29.4786059, 76.4749887
6088, 0.80646963, -29.1873586, 76.6862962
6089, 1.00034565, -29.0704065, 76.8229802
6090, 1.19353037, -29.1873586, 76.6862962
6091, 1.19353037, -29.4785804, 76.4750017
6092, 1.19396092, -29.8202135, 76.3641405
6093, 1.19396092, -30.1800128, 76.3641763
6094, 1.00043054, -29.645454, 76.4060178
6095, 0.792832288, -31.1353326, 77.3169159
6096, 0.807346391, -31.0242942, 76.9771985
6097, 0.817004265, -31.0193142, 78.0324458
6098, 0.777569491, -31.1338205, 77.6922266
6099, 0.797194803, -28.8633748, 77.6748802
6100, 0.818399549, -28.9723294, 78.0161329
6101, 1.19416153, -30.5220891, 76.4753425
6102, 1.19416153, -30.8131728, 76.6868272
6103, 0.995978882, -30.9215009, 76.8120057
6104, 1, -14.5588643, 78.5050725
6105, 1, -13.4411357, 78.5050725
6106, 1.44775582, -15.1499136, 77.5140934
6107, 0.612939259, -12.85, 77.5
6108, 1.39477647, -13.6607374, 76.401182
6109, 0.57716135, -14.9314976, 76.8256023
6110, 1.40561039, -12.8500018, 77.4979912
6111, 0.659851785, -13.6610636, 76.4010814
6112, 0.583914567, -15.1499969, 77.4973498
6113, 0.600440402, -14.382273, 76.4153953
6114, 1.22587852, -14.675953, 76.5696305
6115, 0.612939259, -13.0696305, 76.824047
6116, 1.41346248, -13.0704166, 76.8229663
6117, 0.639642267, -13.0667721, 78.1720013
6118, 1.36924464, -13.0689863, 78.1750656
6119, 1.3696521, -14.9319325, 78.1737966
6120, 0.6303915, -14.9308959, 78.175228
6121, 1.49062657, -15.0105419, 76.9510874
6122, 1.11661022, -14.154958, 76.3604878
6123, 0.46115123, -14.4637653, 78.5523411
6124, 1.53885586, -14.4641158, 78.5521865
6125, 0.479306184, -13.518068, 78.5441463
6126, 1.52069382, -13.518068, 78.5441463
6127, 1.00135333, -12.9066324, 77.1435629
6128, 1.00393978, -13.2947292, 76.5916537
6129, 1.00140399, -12.8928842, 77.8111184
6130, 1.00091428, -15.1068344, 77.8121181
6131, 1.0068119, -15.0956931, 77.1507772
6132, 1.57171573, -14.2748854, 76.3833362
6133, 0.230575615, -14.2369681, 78.6253205
6134, 0.230575615, -14.5731132, 78.4970162
6135, 0.239653092, -13.4182692, 78.4920127
6136, 0.239653092, -13.7532899, 78.6232249
6137, 0.563908949, -14.2369681, 78.6253205
6138, 0.572986426, -13.7532899, 78.6232249
6139, 1.76942793, -14.5732792, 78.4969207
6140, 1.76942793, -14.2371555, 78.625281
6141, 1.76034691, -13.7532899, 78.6232249
6142, 1.76034691, -13.4182692, 78.4920127
6143, 1.4360946, -14.2371555, 78.625281
6144, 1.42701357, -13.7532899, 78.6232249
6145, 0.31519575, -14.8134895, 78.312856
6146, 0.31519575, -15.0248608, 78.0216899
6147, 0.545771365, -14.7223735, 78.3948053
6148, 0.291957284, -15.1360481, 77.6785907
6149, 0.291957284, -15.1356335, 77.3187917
6150, 0.607153034, -15.0942616, 77.8536828
6151, 0.288580675, -15.0250933, 76.9787671
6152, 0.288580675, -14.8138518, 76.6875068
6153, 0.580537959, -15.0936023, 77.1442839
6154, 0.300220201, -14.5347034, 76.4818682
6155, 0.300220201, -14.1939131, 76.3664667
6156, 0.588800876, -14.6881611, 76.5786237
6157, 0.329925893, -13.828618, 76.3628421
6158, 0.329925893, -13.4856049, 76.4714585
6159, 0.630146094, -14.0228197, 76.3502264
6160, 0.30646963, -13.1868272, 76.6868272
6161, 0.30646963, -12.9753425, 76.9779109
6162, 0.636395522, -13.3310386, 76.5645907
6163, 0.30646963, -12.8641584, 77.3201004
6164, 0.30646963, -12.8641584, 77.6798996
6165, 0.612939259, -12.906285, 77.1446305
6166, 0.319821133, -12.9742377, 78.0199151
6167, 0.319821133, -13.1851047, 78.3114467
6168, 0.626290763, -12.9055339, 77.8530495
6169, 0.559474226, -13.2683632, 78.3872472
6170, 1.68482605, -15.0252614, 78.0209022
6171, 1.68482605, -14.8141138, 78.3122307
6172, 1.45425398, -14.7232098, 78.3941295
6173, 1.72387791, -15.1369226, 77.3270638
6174, 1.72387791, -15.1347179, 77.6868563
6175, 1.40870396, -15.0919354, 77.8608007
6176, 1.74531329, -14.8645482, 76.7416753
6177, 1.74531329, -15.0565695, 77.0459505
6178, 1.4691912, -15.1163046, 77.2236596
6179, 1.78585786, -14.1384497, 76.3583645
6180, 1.78585786, -14.4844583, 76.4570234
6181, 1.61293926, -14.675953, 76.5696305
6182, 1.35825255, -14.8645482, 76.7416753
6183, 1.39879712, -14.4844583, 76.4570234
6184, 1.69738823, -13.4854522, 76.4715348
6185, 1.69738823, -13.8284492, 76.3628675
6186, 1.4832461, -13.9665976, 76.3504852
6187, 1.70673124, -12.975646, 76.9773157
6188, 1.70673124, -13.1872998, 76.6863549
6189, 1.40411948, -13.3314433, 76.5643014
6190, 1.7028052, -12.8640017, 77.6789075
6191, 1.7028052, -12.864316, 77.3191084
6192, 1.40953644, -12.906803, 77.1430401
6193, 1.68462232, -13.1864396, 78.312785
6194, 1.68462232, -12.9750937, 78.0216005
6195, 1.38742752, -12.9058062, 77.8538925
6196, 1.44496923, -13.2698226, 78.3884486
6197, 1.16666667, -14.2886751, 78.6131786
6198, 0.833333333, -14.2886751, 78.6131786
6199, 0.833333333, -13.7113249, 78.6131786
6200, 1.16666667, -13.7113249, 78.6131786
6201, 0.730575615, -14.5118607, 78.5298051
6202, 0.739653092, -13.4792352, 78.5253312
6203, 1.26942793, -14.5120322, 78.5297199
6204, 1.26034691, -13.4792352, 78.5253312
6205, 1.18482605, -14.7635802, 78.3599101
6206, 1.0000218, -14.9314144, 78.1745125
6207, 0.81519575, -14.7629192, 78.3604965
6208, 0.819821133, -13.2355925, 78.3591747
6209, 1.00444345, -13.067878, 78.1735343
6210, 1.18462232, -13.2370057, 78.36043
6211, 1.22433505, -15.1381707, 77.6645219
6212, 1.18528319, -15.0352997, 78.0006542
6213, 1.24871923, -15.05784, 77.0489186
6214, 1.22728386, -15.1374037, 77.3302564
6215, 1.00386309, -15.1498368, 77.4806294
6216, 0.807146296, -12.9755975, 76.9774108
6217, 0.807146296, -12.8642464, 77.319546
6218, 0.807171626, -12.8607715, 77.65703
6219, 0.82052313, -12.9639934, 77.9991897
6220, 1.00137866, -12.8502438, 77.4763209
6221, 1.02731413, -13.6609005, 76.4011317
6222, 0.888231003, -13.9057982, 76.3538647
6223, 1.25569335, -13.9056281, 76.3538787
6224, 1.19935813, -13.4691211, 76.4798688
6225, 0.831895785, -13.4692725, 76.47979
6226, 1.20870113, -13.1744314, 76.6994149
6227, 1.34416297, -14.2152251, 76.3703194
6228, 0.795363232, -15.1361378, 77.3219807
6229, 0.791986623, -15.0265526, 76.9816471
6230, 0.901519934, -14.8138518, 76.6875068
6231, 0.91315946, -14.5347034, 76.4818682
6232, 1.11634521, -14.9322636, 76.8266616
6233, 1.20348186, -12.8644044, 77.3185541
6234, 1.20740791, -12.9759013, 76.9768157
6235, 1.18532432, -12.9648153, 78.0008919
6236, 1.20350719, -12.8606348, 77.656035
6237, 0.858525312, -14.2700148, 76.3821485
6238, 0.808439522, -13.1739664, 76.6998947
6239, 0.815652889, -15.0349146, 78.0014496
6240, 0.792414423, -15.1393383, 77.6562317
6241, 1.17124437, -14.4284139, 76.4327786
6242, 1.00264656, -13.059295, 76.8385062
6243, 0.998406615, -19.5265447, 71.7126881
6244, 0.999588303, -30.0080885, 74.9422608
6245, 1.00013735, -15.6556641, 75.1162475
6246, 1.00000084, -28.2154412, 75.1134101
6247, 1.02067392, -29.0580395, 74.4888117
6248, 0.730569066, -30.9427849, 79.3205355
6249, 1.00002621, -17.5520917, 76.954113
6250, 1.00001141, -29.0094495, 79.4899922
6251, 0.969732404, -13.5692297, 79.4840783
6252, 0.999861703, -13.5685246, 74.5497508
6253, 1.00002124, -27.9257308, 73.2496296
6254, 1.00033096, -29.1585026, 75.5328976
6255, 0.999955315, -16.4582953, 73.6726277
6256, 1.00008168, -14.9882693, 70.5437654
6257, 0.729788033, -13.0586539, 70.6784489
6258, 1.00013492, -28.2362888, 76.2500254
6259, 0.999999927, -26.642991, 73.2547768
6260, 1.04925638, -30.2842288, 70.4749406
6261, 1.00008861, -15.4264373, 79.0920564
6262, 1.00002945, -15.8365679, 76.1593468
6263, 0.999986382, -16.6583109, 75.4843496
6264, 1.00008918, -27.4217315, 71.0973653
6265, 0.999743248, -16.6013731, 72.6012531
6266, 0.999984607, -17.0627043, 71.6417522
6267, 1.00000299, -24.1962407, 71.910907
6268, 0.999946547, -17.4944456, 73.3775407
6269, 1.01645848, -16.1055817, 77.4908726
6270, 0.999821258, -30.0297967, 79.5815271
6271, 1.00012943, -27.8347299, 77.2411286
6272, 0.999729946, -30.8199612, 75.5545063
6273, 0.97217237, -15.3825823, 74.1315344
6274, 0.999987428, -26.3341739, 77.111163
6275, 0.999912233, -15.8096945, 71.3429374
6276, 1.00000162, -26.0765317, 75.9729196
6277, 0.999997482, -25.8702408, 74.3990694
6278, 1.00000095, -25.1882174, 77.2176136
6279, 1.00000419, -18.9348365, 73.6500895
6280, 0.9999928, -18.0712626, 74.6304629
6281, 0.999994324, -24.9627557, 75.6397348
6282, 0.99999049, -17.9182741, 72.2778797
6283, 1.00001941, -25.3845235, 79.1551522
6284, 0.999999268, -20.0461783, 73.9908339
6285, 1.00000036, -24.6992473, 74.4960391
6286, 1.00000432, -30.9213042, 74.4695658
6287, 1.00000011, -20.3154982, 75.1346248
6288, 0.999997264, -24.8443986, 73.1711128
6289, 1.00000512, -18.6126786, 77.1460843
6290, 1.00000295, -23.7846839, 75.7380055
6291, 0.999999801, -19.4306689, 72.5914879
6292, 1.00003531, -27.2127927, 75.9346309
6293, 0.999999487, -23.5647343, 74.1395797
6294, 0.999998944, -21.549338, 74.5859078
6295, 1.00000098, -22.6941122, 74.9422418
6296, 0.973999436, -27.3566092, 74.5731454
6297, 1.00000107, -18.36005, 78.9243947
6298, 1.00000157, -22.1854727, 75.9954172
6299, 1.03798752, -26.9529265, 78.1261943
6300, 0.999999595, -24.6806586, 78.1808273
6301, 1.00000081, -20.9143355, 73.177756
6302, 1.0000008, -22.0595962, 73.5270716
6303, 1.0000151, -18.7896858, 71.6328966
6304, 1.36168148, -31.1181445, 70.780323
6305, 0.63876646, -31.1178259, 70.7802069
6306, 0.639037805, -12.882531, 79.2182944
6307, 1.36070162, -12.882711, 79.2181644
6308, 1.00000162, -19.9666156, 71.0658628
6309, 1.00000137, -19.3939067, 79.1560982
6310, 1.00000023, -23.3000542, 73.0018929
6311, 1.00000041, -21.9702892, 78.2079723
6312, 1.00677263, -14.7958404, 75.6062889
6313, 0.999966404, -17.2310993, 77.9780003
6314, 1.00000135, -20.9844666, 76.1077943
6315, 0.999318331, -28.5090196, 70.9354075
6316, 0.999999322, -23.1305079, 78.0038761
6317, 1.00047079, -13.157753, 75.576478
6318, 0.999989113, -17.8143972, 70.9040818
6319, 1.00000287, -17.636049, 75.8956673
6320, 1.00000178, -24.073368, 76.7796722
6321, 1.09164212, -13.8908757, 70.4088358
6322, 1.00000484, -16.7734752, 70.5929845
6323, 0.999977508, -17.3119337, 79.0292929
6324, 1.30582756, -31.1310392, 78.9124149
6325, 1.00000173, -19.7044727, 77.0860901
6326, 1.00000128, -26.2739615, 70.9773458
6327, 1.00000059, -22.3699864, 79.3514102
6328, 0.9999983, -22.8331576, 76.9515978
6329, 1.35155256, -12.7832131, 70.9872945
6330, 1.0000007, -23.8910353, 78.9199424
6331, 1.00000045, -20.6495267, 72.0313266
6332, 1.00000045, -21.2561903, 77.2899091
6333, 0.999999522, -21.0237984, 70.5242793
6334, 1.00000046, -23.9322431, 70.8651083
6335, 1.00231546, -28.1863489, 78.6162207
6336, 1.00102814, -27.8701862, 72.027174
6337, 0.99999571, -25.6141491, 72.4115925
6338, 1.0000041, -19.4424115, 76.0433648
6339, 0.999995061, -26.4815414, 79.2340776
6340, 0.999999013, -17.001639, 74.5287836
6341, 0.99999467, -25.8385771, 77.9976277
6342, 1.00000163, -22.1702354, 72.4593776
6343, 1.00004309, -26.6830992, 72.1539033
6344, 1.00000032, -20.5421855, 78.1049113
6345, 1.0006838, -27.492349, 79.3593788
6346, 1.45121281, -13.0401887, 70.4753775
6347, 1.00000278, -19.0237939, 75.0774871
6348, 1.12264579, -14.4714985, 74.4166606
6349, 1.00000262, -19.0304972, 70.6276595
6350, 1.00000383, -25.2139935, 71.1931998
6351, 0.999769403, -16.3579922, 78.6816946
6352, 1.07157064, -14.5355844, 79.4790451
6353, 0.932825092, -29.3647869, 70.5794541
6354, 0.999999978, -20.7321324, 79.3383034
6355, 1.4216442, -30.9592123, 79.5232626
6356, 0.910227305, -28.1895563, 74.2001876
6357, 1.0000008, -18.9884176, 78.1065533
6358, 1.00000054, -21.7987167, 71.2999735
6359, 0.966933747, -26.5530574, 75.1097654
6360, 1.04895551, -16.7491382, 76.4364138
6361, 0.999999677, -22.8893115, 71.3830103
6362, 0.910714953, -25.7321406, 73.4715988
6363, 1.021482, -22.4094671, 70.4819167
6364, 0.581382479, -13.507321, 70.1945237
6365, 0.582102374, -30.4927717, 79.8041005
6366, 1.09370063, -18.5192795, 76.2118413
6367, 0.863197641, -12.8091148, 74.1159159
6368, 1.18143762, -25.1948236, 70.2920842
6369, 1.20372957, -18.3006237, 73.0574304
6370, 0.835067463, -15.9092983, 73.0570108
6371, 0.919277658, -16.2163035, 79.633727
6372, 0.835457774, -16.155112, 74.4498385
6373, 0.92858205, -24.5431413, 79.6400301
6374, 0.900887654, -26.9244827, 70.3209467
6375, 0.790954384, -27.1205413, 76.783521
6376, 0.77804926, -15.9178995, 72.1642534
6377, 0.816938116, -13.9829371, 75.3022986
6378, 0.772787998, -25.3453402, 76.3900193
6379, 1.22795396, -25.6975996, 75.2222658
6380, 0.78050486, -23.9488656, 74.9010532
6381, 0.822756581, -23.9545419, 77.6634464
6382, 1.19587335, -18.7250985, 79.7170136
6383, 1.21771544, -20.8992651, 74.0318336
6384, 0.783019432, -22.7096076, 74.0854346
6385, 1.22388712, -20.0694139, 73.145484
6386, 1.16674044, -18.1201546, 77.89297
6387, 1.21600819, -21.5281053, 75.4438201
6388, 0.778381092, -24.0346051, 73.4305849
6389, 1.20859423, -23.3485465, 72.1280204
6390, 0.671744791, -31.3098494, 78.7529654
6391, 1.11859641, -21.5483752, 79.6787206
6392, 1.21956665, -23.0263783, 76.1232001
6393, 0.628637697, -30.7836511, 70.334712
6394, 1.12543316, -15.8848275, 70.4457548
6395, 0.764843207, -26.6236125, 74.0753999
6396, 1.49173813, -30.4926974, 79.8033022
6397, 0.848703662, -17.9051112, 79.6763077
6398, 0.927245496, -23.2719861, 79.6343091
6399, 1.21247403, -21.2219395, 78.6315095
6400, 0.780065714, -21.989872, 76.8254235
6401, 1.49467251, -13.5072699, 70.1953403
6402, 0.715864194, -29.8705913, 75.6402918
6403, 1.21004397, -20.5265958, 76.8353611
6404, 0.530465625, -13.3221304, 79.7697788
6405, 1.22156379, -23.0452098, 78.8441419
6406, 0.428667901, -31.2981355, 79.3537036
6407, 0.39311951, -31.1415638, 79.739076
6408, 1.00004877, -29.7558389, 74.2599061
6409, 1.00025392, -31.3131612, 73.7762051
6410, 1.35019409, -13.2209408, 79.7912959
6411, 1.48278535, -30.6331953, 70.2171053
6412, 0.816143341, -18.1540639, 73.8325107
6413, 0.857318378, -23.2573648, 70.3212544
6414, 1.23187504, -12.8326424, 74.8546831
6415, 1.28350636, -16.8296767, 77.2211287
6416, 0.784480041, -15.7059267, 78.2944113
6417, 1.04373759, -27.8653947, 70.3140959
6418, 1.18310861, -20.2270008, 70.2715432
6419, 0.999843338, -12.6439286, 78.6363276
6420, 1.24451058, -19.3306697, 74.3418556
6421, 1.1775035, -24.17437, 72.7190662
6422, 0.999908409, -31.3731862, 71.3340709
6423, 0.733019431, -18.6623313, 72.4921265
6424, 0.457450199, -12.5256581, 71.0020003
6425, 1.23041539, -21.3454224, 72.4743562
6426, 1.30907585, -25.1536596, 73.8902466
6427, 1.32410525, -28.7358109, 73.8674753
6428, 0.699201339, -27.2826122, 72.9086659
6429, 0.414179509, -12.7172609, 70.4902369
6430, 0.650460845, -14.0923905, 79.8137823
6431, 1.30443005, -19.8851307, 71.9590159
6432, 0.439139274, -19.9481612, 72.367708
6433, 1.2631498, -22.2286062, 77.4608632
6434, 1.3008265, -20.2148073, 76.0220831
6435, 0.707922834, -27.7158432, 78.0063486
6436, 0.735486212, -24.777604, 72.4085885
6437, 1.18829913, -27.2879043, 73.7101882
6438, 1.26261645, -21.0037266, 71.3193071
6439, 1.29289814, -18.2091698, 75.3856827
6440, 1.63223283, -31.046002, 79.8435438
6441, 1.34005589, -30.4146983, 79.1804427
6442, 1.18102288, -20.0001619, 79.7082971
6443, 1.35567943, -28.5294059, 75.6714173
6444, 1.32843445, -27.5511647, 75.3241868
6445, 0.805485781, -19.7655165, 78.4091747
6446, 1.35092295, -13.969107, 79.8441348
6447, 1.61659704, -12.464161, 70.8913902
6448, 0.746064805, -31.3186746, 76.1278086
6449, 1.2690508, -24.7083546, 76.3582552
6450, 1.30264788, -17.3169328, 72.6770796
6451, 1.376623, -29.6047986, 79.2108931
6452, 0.623591996, -29.6057988, 79.2108148
6453, 1.19012154, -18.309651, 70.2711551
6454, 0.757182963, -25.8990952, 70.287401
6455, 1.6178619, -31.2977598, 79.3535201
6456, 0.636978225, -29.398361, 74.9769026
6457, 1.28197417, -26.0156743, 71.7275273
6458, 0.755118886, -24.4824208, 70.293435
6459, 1.32791213, -15.7889902, 73.6094649
6460, 0.727574575, -14.952347, 74.8928437
6461, 1.39815904, -29.4336119, 75.026159
6462, 1.34237172, -16.1363636, 76.7669659
6463, 1.61587409, -12.5609318, 79.2955717
6464, 1.26395884, -25.89304, 79.7590707
6465, 0.628930873, -28.5496608, 75.6815898
6466, 1.2965317, -17.5989041, 74.0888458
6467, 0.383935655, -31.4394283, 70.7036478
6468, 0.645817802, -14.3661794, 70.6908006
6469, 0.790658101, -17.4833803, 75.1355207
6470, 1.30644624, -27.6333065, 76.5826592
6471, 1.55507408, -12.5413329, 71.3898885
6472, 1.27919361, -26.622055, 76.4471227
6473, 1.3865616, -16.0504878, 75.5865813
6474, 0.61356722, -16.0506782, 75.5864462
6475, 0.718804386, -18.7497071, 74.3578927
6476, 1.6427103, -12.9539377, 70.1561497
6477, 1.34618193, -17.7387752, 71.6238872
6478, 0.3882815, -12.9269055, 79.7294235
6479, 1.61144556, -31.073037, 70.270251
6480, 1.61836844, -12.4236305, 78.8892598
6481, 0.381428783, -31.5764421, 71.1103172
6482, 0.914415325, -12.6307308, 71.4431389
6483, 1.29718624, -23.3992154, 75.1210727
6484, 1.33227291, -24.3723026, 73.8678348
6485, 0.384339143, -12.9538697, 70.1561381
6486, 1.307703, -24.9317549, 71.8736326
6487, 0.701804512, -20.8246438, 74.6179147
6488, 1.3013574, -16.4174067, 71.9191511
6489, 0.734951374, -15.721374, 76.8434878
6490, 0.687166423, -24.5101796, 71.2753501
6491, 1.50002738, -24.6770495, 78.3991797
6492, 1.00001121, -25.0325814, 78.6679873
6493, 1.5000461, -25.0290085, 78.8863182
6494, 1.46431251, -24.6082553, 79.1287894
6495, 0.964300805, -24.9638642, 79.3975807
6496, 0.964290141, -24.611879, 78.9104439
6497, 1.50002011, -24.2822316, 78.7687313
6498, 1.00000043, -24.2858666, 78.5503861
6499, 0.964290506, -24.2170793, 79.2799894
6500, 0.330783576, -27.92878, 80.1709045
6501, 0.830839412, -28.4338393, 79.9941225
6502, 0.499724792, -28.5042096, 79.6652918
6503, 0.500018583, -27.7456165, 79.6008062
6504, 1.00033451, -28.2499058, 79.4250313
6505, 0.831223087, -27.6751557, 79.9299858
6506, 0.499786352, -17.4368277, 72.3434138
6507, 0.999960756, -17.4903969, 71.9599466
6508, 0.499754278, -17.0091184, 72.0253287
6509, 0.651074173, -17.1367294, 72.5429714
6510, 1.15128096, -17.1900511, 72.1594632
6511, 1.1513215, -17.617591, 72.4774559
6512, 1.19429441, -28.3351269, 77.3704258
6513, 1.000033, -28.3582277, 77.5473277
6514, 0.855366948, -28.3060071, 77.9262505
6515, 0.854264397, -27.7743482, 77.6240874
6516, 1.04807837, -28.272556, 77.7533815
6517, 0.49960824, -28.0733452, 75.220069
6518, 0.499667519, -27.8989415, 75.4462744
6519, 0.313998647, -28.2416168, 75.5048924
6520, 0.314024116, -28.06692, 75.7311307
6521, 0.814285007, -28.3827099, 75.3974287
6522, 0.499988692, -23.4215588, 75.4725275
6523, 0.999998657, -23.2394108, 75.3401225
6524, 0.499991782, -22.876253, 75.0746452
6525, 0.609771112, -23.0423781, 75.6651255
6526, 1.10978254, -22.8602449, 75.5327206
6527, 1.10978477, -23.4055358, 75.9306037
6528, 0.49972678, -16.9026436, 72.8468128
6529, 0.99984319, -16.5302455, 73.1372062
6530, 0.499730399, -16.8313047, 73.3821008
6531, 0.499786599, -17.3496752, 73.2348601
6532, 0.999944023, -16.9762337, 73.5249075
6533, 0.999882788, -17.0475857, 72.9896009
6534, 0.499615826, -16.4913837, 73.3367202
6535, 0.499610428, -16.5629946, 72.8011572
6536, 1.50062866, -30.5688147, 75.3259003
6537, 0.999690455, -30.4138549, 75.2478126
6538, 1.5008847, -30.1641773, 75.0185779
6539, 1.50090179, -30.6202119, 74.7824355
6540, 0.999940062, -30.465182, 74.707925
6541, 0.999978019, -30.8694995, 75.0125438
6542, 0.499184922, -30.1639342, 75.0190893
6543, 0.499294925, -30.5688871, 75.3256897
6544, 0.499009638, -30.620153, 74.7824147
6545, 1.67553294, -13.1555398, 79.7607841
6546, 1.6755001, -13.002535, 79.7201591
6547, 1.67542555, -13.0376611, 79.8323345
6548, 0.99986201, -16.8321339, 72.1213258
6549, 0.499632363, -16.7780129, 72.5050347
6550, 1.15121397, -16.9590256, 72.6391749
6551, 1.50010379, -17.4876887, 79.4172465
6552, 1.50017372, -17.2407336, 79.1803667
6553, 1.50015173, -17.0537981, 79.4252833
6554, 1.50015461, -26.4587912, 73.7375621
6555, 1.5001956, -26.6640504, 73.4462255
6556, 1.50012867, -26.3050443, 73.3906251
6557, 0.787249788, -15.3876731, 76.4873516
6558, 0.500389755, -15.4303363, 76.0412842
6559, 0.287314409, -14.9817194, 76.3731178
6560, 0.795195874, -14.8738127, 76.2058543
6561, 0.502845147, -14.9103606, 75.7636841
6562, 1.00405061, -15.3174502, 75.8818179
6563, 1.38259958, -26.4488002, 74.1478305
6564, 1.3826306, -26.6540662, 73.8565367
6565, 0.882428603, -26.6332647, 73.6651368
6566, 1.50000693, -22.4733886, 73.3509052
6567, 1.00000054, -22.6798313, 73.264482
6568, 1.50000903, -23.0936321, 73.0883161
6569, 1.39151995, -22.7983893, 73.6300872
6570, 0.891509824, -23.0048314, 73.5436643
6571, 0.891510281, -22.3846024, 73.806253
6572, 1.71874051, -28.867018, 69.8031839
6573, 1.49997818, -28.6823641, 70.5211512
6574, 1.21829255, -28.6936866, 70.2177937
6575, 1.18519035, -29.1215787, 70.0404767
6576, 0.96624324, -28.9369437, 70.7567482
6577, 1.46695532, -29.1100375, 70.3432396
6578, 1.01899254, -26.7173829, 78.6802072
6579, 1.50012514, -26.5412814, 78.7324306
6580, 1.51917239, -26.777323, 78.1783708
6581, 1.01899903, -26.3959571, 78.0618453
6582, 1.50011366, -26.2198713, 78.1141689
6583, 0.99998911, -26.1599854, 78.6158602
6584, 0.499855592, -26.5413336, 78.7324147
6585, 0.518816169, -26.777327, 78.1784062
6586, 0.499873929, -26.2198993, 78.114172
6587, 0.49999223, -22.6468258, 75.3827921
6588, 0.60977236, -22.8129535, 75.973272
6589, 0.499963344, -25.0486835, 78.4812621
6590, 0.499955132, -25.4006317, 78.9684092
6591, 0.499929862, -25.6277698, 78.3896479
6592, 1.00000875, -25.6115928, 78.5764088
6593, 0.9999984, -25.2597109, 78.0892152
6594, 1.50003491, -25.0486824, 78.4812629
6595, 1.50006598, -25.4006302, 78.96841
6596, 1.50006642, -25.6277632, 78.389649
6597, 0.499776855, -17.1577037, 73.5209724
6598, 0.499669241, -16.6392044, 73.6683015
6599, 0.49974963, -16.9112794, 74.0966416
6600, 0.999985071, -16.7297242, 74.1006119
6601, 0.999982655, -17.2480903, 73.9533155
6602, 1.50009912, -26.0305796, 76.4140998
6603, 0.999989467, -26.2053226, 76.542004
6604, 1.50011091, -26.1594768, 76.9832488
6605, 1.38647359, -25.6647951, 76.6226585
6606, 0.886382257, -25.8398695, 76.7505921
6607, 0.886392379, -25.7109545, 76.1814821
6608, 0.781405882, -15.2733386, 79.796082
6609, 0.499718149, -15.2843305, 79.4931626
6610, 0.281316809, -15.1325018, 80.1969274
6611, 0.81705423, -14.8287972, 79.9883553
6612, 0.535277862, -14.8399704, 79.6859883
6613, 1.03586251, -14.9809833, 79.2855628
6614, 1.50001122, -23.2509993, 73.4406038
6615, 1.39152083, -22.9557593, 73.9823736
6616, 0.999999133, -25.7613394, 77.1644262
6617, 1.50006903, -25.5863587, 77.0364488
6618, 0.886393308, -25.2667577, 76.8038124
6619, 1.45546517, -25.8492805, 73.499083
6620, 0.955357131, -26.1876891, 73.3631548
6621, 1.38257787, -26.2950302, 73.800948
6622, 0.837785675, -26.1779036, 73.7734749
6623, 1.50052515, -27.6402775, 77.1142718
6624, 1.50037053, -27.4241078, 77.4167877
6625, 1.39591571, -27.2819778, 76.8849777
6626, 1.39579074, -27.0655455, 77.1871668
6627, 0.895396071, -27.4780926, 77.01234
6628, 0.264979398, -13.3490853, 79.8824821
6629, 0.265028342, -13.3564425, 79.9967284
6630, 0.265021392, -13.2641426, 79.9633473
6631, 1.45547415, -26.0030505, 73.8459749
6632, 0.459362409, -15.6801081, 79.7640029
6633, 0.741057133, -15.6691542, 80.0672639
6634, 0.959637702, -15.8211101, 79.3624753
6635, 0.499983821, -20.1341541, 75.0039012
6636, 0.999999349, -20.1808348, 74.5627305
6637, 0.499982093, -19.9994876, 74.4320046
6638, 0.622226791, -19.6417389, 74.6075132
6639, 1.12225239, -19.6884194, 74.1663431
6640, 1.12225247, -19.8230631, 74.7382383
6641, 1.50033783, -30.4887616, 75.5989958
6642, 1.50069839, -30.0840439, 75.2920578
6643, 0.856918813, -29.9391727, 75.2904015
6644, 1.35604913, -30.0150443, 75.6369129
6645, 0.857991454, -30.3451179, 75.5948535
6646, 1.50002641, -24.4315159, 77.0894989
6647, 0.999999885, -24.6308369, 76.9986355
6648, 1.50003695, -24.9889887, 77.308466
6649, 1.41140281, -24.3720772, 77.5313871
6650, 0.911376816, -24.5714353, 77.4405327
6651, 0.911378276, -24.0139517, 77.22156
6652, 0.64857976, -23.228795, 75.1640602
6653, 1.14859505, -23.5919492, 75.4295387
6654, 1.14859188, -23.0466649, 75.0316568
6655, 0.499984937, -23.579772, 75.8290086
6656, 0.609767523, -23.2005877, 76.0216086
6657, 0.955358822, -25.8011865, 73.9353517
6658, 1.50011529, -26.0721852, 74.3096951
6659, 0.882445784, -26.2469584, 74.2371921
6660, 0.509867533, -29.0343861, 74.2978792
6661, 0.749344519, -29.2842087, 74.0208604
6662, 0.238851179, -29.2647606, 73.8254966
6663, 0.663134668, -28.8705738, 73.9895915
6664, 0.903135292, -29.1242124, 73.7145818
6665, 1.17268068, -28.8959909, 74.1792723
6666, 0.999999733, -19.490471, 73.8204572
6667, 0.499976186, -19.6888018, 73.7315576
6668, 0.499965347, -19.1330892, 73.5611906
6669, 1.11194491, -19.5020942, 73.3977803
6670, 0.611919402, -19.7004585, 73.3088871
6671, 1.11194332, -20.0578001, 73.5681603
6672, 0.499939353, -25.4650196, 74.5778325
6673, 0.999996122, -25.2848043, 74.4475427
6674, 0.49996007, -24.8794172, 74.6263215
6675, 0.613912416, -25.3785722, 74.9894447
6676, 1.11396666, -25.198461, 74.8591634
6677, 1.11397079, -25.7839224, 74.8106627
6678, 0.663760427, -27.740318, 75.3252447
6679, 1.16422915, -27.8831419, 75.2187106
6680, 0.663791439, -27.5659809, 75.5515496
6681, 0.333019428, -30.0745109, 69.8136564
6682, 0.33303498, -29.8228606, 69.7709417
6683, 0.5241836, -30.2161266, 70.299788
6684, 0.524561686, -29.9635997, 70.2573056
6685, 0.85798191, -30.1412164, 69.9879379
6686, 0.499967985, -19.3810415, 73.0318863
6687, 1.00000384, -19.1827573, 73.1207863
6688, 1.11194571, -19.7500326, 72.8684878
6689, 0.335994646, -12.3911081, 76.3176745
6690, 0.642884665, -12.5308185, 76.6820792
6691, 0.306963434, -12.9224167, 76.4485171
6692, 0.504227117, -13.0289206, 76.3223992
6693, 0.838160739, -12.6426348, 76.5661974
6694, 1.25837596, -23.2127978, 75.6221364
6695, 1.50000887, -22.2427242, 73.6558367
6696, 1.39152108, -22.5677324, 73.9350198
6697, 0.499973617, -19.4882418, 74.9753277
6698, 1.00000012, -19.6696104, 75.1060567
6699, 1.12225642, -19.1772334, 74.7096738
6700, 0.999999436, -24.8310099, 75.0678876
6701, 0.499955989, -25.0111799, 75.1981781
6702, 1.11396931, -25.330187, 75.4310004
6703, 1.17265261, -28.5619473, 79.9942222
6704, 1.17301198, -27.8031096, 79.9301533
6705, 1.01002787, -29.2448927, 74.0043749
6706, 1.16206413, -29.0874535, 73.6941744
6707, 0.499980724, -19.7548383, 76.6424684
6708, 1.105023, -20.1155255, 76.9607245
6709, 0.605001542, -20.1659361, 76.5171024
6710, 0.650395004, -20.010049, 76.1104674
6711, 1.25543508, -20.3707024, 76.4287219
6712, 1.15041353, -19.9596409, 76.5540855
6713, 1.50003178, -24.6512077, 74.9365198
6714, 1.50003448, -24.7829807, 75.5083771
6715, 1.39027675, -24.2759568, 75.1390313
6716, 0.890250509, -24.4558364, 75.2704006
6717, 0.890250812, -24.3240671, 74.6985447
6718, 0.559293068, -21.7632235, 79.3977746
6719, 1.05929839, -21.9591824, 79.5150649
6720, 0.499995487, -22.1740304, 79.2341184
6721, 0.60623105, -21.5999994, 78.8741689
6722, 1.10623632, -21.7959581, 78.9914594
6723, 1.16553521, -21.3851565, 79.1551168
6724, 0.999999754, -24.3737528, 75.6888741
6725, 1.50002307, -24.1939022, 75.5575025
6726, 0.890252799, -23.8667737, 75.319529
6727, 0.499892192, -26.3317773, 79.0598983
6728, 0.499890134, -26.0102786, 78.4417313
6729, 1.50009497, -26.3317589, 79.0599161
6730, 1.50010257, -26.0102599, 78.4417364
6731, 1.00000027, -22.1701356, 78.7796919
6732, 0.49999478, -21.9741794, 78.662399
6733, 1.10623731, -21.5961152, 78.4197405
6734, 1.36970676, -12.5301385, 76.2928941
6735, 1.66405218, -12.3921306, 75.929159
6736, 1.70638842, -12.9230166, 76.448568
6737, 1.49891254, -13.0273084, 76.3219817
6738, 1.16418529, -12.6440959, 76.178974
6739, 1.24049523, -28.371648, 69.9066378
6740, 1.52220327, -28.3602083, 70.2099868
6741, 1.02146827, -28.1871876, 70.6253412
6742, 0.314101049, -30.964585, 70.2307828
6743, 0.314039557, -30.9997048, 70.3428913
6744, 0.313959806, -30.8466478, 70.3023129
6745, 0.818402286, -29.0320002, 78.8376763
6746, 1.00001971, -29.2239567, 79.0004008
6747, 0.740655191, -29.2623476, 79.0215233
6748, 0.499130389, -30.0540326, 74.7772665
6749, 0.498780622, -30.5102017, 74.5409052
6750, 0.499491514, -29.9278791, 74.4359806
6751, 1.00002526, -30.3387169, 74.370629
6752, 0.999865798, -29.8815368, 74.6017421
6753, 1.50122666, -30.510295, 74.540742
6754, 1.50069715, -30.0541431, 74.7770048
6755, 1.50047954, -29.9279793, 74.4357875
6756, 0.499518037, -28.6678658, 79.3383565
6757, 0.500052685, -27.9095734, 79.2730241
6758, 1.19878759, -29.7206021, 74.9837583
6759, 1.69976741, -29.7965904, 75.3360619
6760, 1.05618024, -29.6511199, 75.3319768
6761, 1.50048564, -28.6688409, 79.3368128
6762, 1.50028598, -28.505711, 79.6647161
6763, 1.50063038, -27.9105749, 79.2714329
6764, 1.50063424, -27.7471906, 79.6001664
6765, 0.999999402, -24.9344422, 77.6992301
6766, 1.50003277, -24.7351579, 77.7900808
6767, 0.911377207, -24.3176073, 77.9221319
6768, 1.18303691, -29.0334007, 78.8393178
6769, 1.25937048, -29.2624897, 79.0212093
6770, 0.49993442, -18.4246771, 71.7833744
6771, 0.499949883, -18.6067051, 71.4874258
6772, 0.672964096, -18.0813182, 71.4828897
6773, 1.1730728, -18.2641543, 71.6284144
6774, 0.67292453, -17.8994249, 71.7788229
6775, 1.01909948, -27.3941797, 77.6847232
6776, 1.51927137, -26.9821972, 77.8583242
6777, 0.914643245, -27.0361638, 77.4549633
6778, 1.00117615, -28.5942932, 79.0556606
6779, 0.500854024, -28.2565019, 78.9020236
6780, 1.00152976, -27.839685, 78.9878074
6781, 1.67272184, -28.0583887, 80.1703705
6782, 0.499977479, -25.0290072, 78.8863174
6783, 0.49997202, -24.6770511, 78.3991794
6784, 0.464270279, -24.6082756, 79.1287827
6785, 1.50148475, -28.2574957, 78.9004114
6786, 0.999988626, -18.3538861, 71.9553787
6787, 0.499887217, -17.988891, 72.105849
6788, 1.17307828, -17.8285898, 71.9508791
6789, 1.50005009, -25.2025057, 79.198621
6790, 1.46431921, -24.7817434, 79.4410827
6791, 1.50020392, -16.8314382, 73.3821682
6792, 1.50024154, -16.4916078, 73.3367442
6793, 1.65150773, -17.2605731, 72.8846646
6794, 1.65155129, -16.920424, 72.8389017
6795, 1.15126624, -16.8879541, 73.1747139
6796, 0.499818315, -17.4791452, 73.5815904
6797, 0.499795153, -17.2327942, 74.1572618
6798, 1.74156604, -30.711136, 70.0297833
6799, 1.74154783, -30.6239036, 69.9952525
6800, 1.74161627, -30.6284681, 70.1110263
6801, 0.499867766, -17.0537284, 79.425248
6802, 0.83583459, -17.001408, 79.7648899
6803, 0.335804901, -16.7429424, 80.1605711
6804, 0.42425101, -17.3503126, 79.7486867
6805, 0.760213688, -17.297923, 80.0882988
6806, 0.92434085, -17.6084547, 79.3527795
6807, 0.499779237, -17.2266666, 71.7211097
6808, 0.499814039, -17.6547094, 72.0391288
6809, 1.41760248, -16.0916013, 72.7082835
6810, 1.41722219, -15.8755536, 72.9979526
6811, 1.38939034, -15.8799839, 72.5542188
6812, 0.806375648, -15.9139728, 72.6111726
6813, 1.38928568, -16.0953245, 72.2639179
6814, 0.999941006, -27.7250284, 76.0927717
6815, 0.999991054, -27.7139381, 75.5236591
6816, 1.00008446, -28.2267837, 75.6812866
6817, 0.81474978, -28.3930231, 75.9655391
6818, 0.814227301, -27.8809378, 75.8082523
6819, 0.60500379, -20.5503228, 76.5609001
6820, 0.65039513, -20.3944318, 76.1542645
6821, 0.499992909, -22.4870723, 75.0307121
6822, 1.00000016, -22.1217263, 74.7640748
6823, 0.499993319, -21.9146716, 74.8525468
6824, 0.607996795, -21.9040569, 75.2815016
6825, 1.1080037, -21.5387226, 75.0148641
6826, 1.10800402, -22.1111106, 75.1930307
6827, 1.00013379, -28.4057299, 73.0231827
6828, 1.22237879, -28.3802027, 72.8822833
6829, 0.999754087, -28.368651, 72.4143574
6830, 1.22362276, -28.3545598, 72.2711194
6831, 1.00024317, -27.8963843, 72.6388698
6832, 0.49995342, -25.7832558, 79.0204628
6833, 1.50002178, -24.0997191, 79.047878
6834, 1.46431582, -24.4257595, 79.4079265
6835, 1.50006616, -25.7832522, 79.020472
6836, 1.50000689, -22.3283559, 74.6737904
6837, 1.50000662, -21.7559545, 74.4956249
6838, 1.39151763, -22.3360992, 74.2453878
6839, 0.891510235, -22.1294735, 74.3356717
6840, 0.891510484, -22.7018593, 74.513838
6841, 1.44291163, -12.5321887, 76.680575
6842, 1.23907906, -12.6399772, 76.5609122
6843, 0.49971001, -27.397508, 75.8570967
6844, 1.10800527, -20.9217918, 75.2892227
6845, 0.607995447, -21.2831802, 75.5536102
6846, 0.49998899, -20.6768511, 75.3990126
6847, 0.85090187, -20.5700713, 74.8762704
6848, 0.35089501, -20.9314238, 75.1406576
6849, 0.958908066, -21.1763771, 75.0308673
6850, 0.30663087, -28.613804, 76.919588
6851, 0.503457425, -28.5216384, 77.0783384
6852, 0.805156718, -28.6470459, 76.5329994
6853, 1.00033055, -28.5692997, 76.6955899
6854, 0.50059472, -28.2039169, 76.635324
6855, 1.69336669, -28.613891, 76.9197574
6856, 1.49705381, -28.5213812, 77.0781762
6857, 1.49939844, -28.2040442, 76.6351952
6858, 1.19477616, -28.6471917, 76.5330508
6859, 0.499927418, -18.1189802, 71.1230473
6860, 0.499885986, -17.9370488, 71.4189744
6861, 1.17307204, -17.7766269, 71.2639618
6862, 0.499993571, -22.4733882, 73.3509059
6863, 0.499991197, -23.0936317, 73.0883169
6864, 0.499993397, -22.5287062, 72.8170605
6865, 1.0000001, -22.7351508, 72.730635
6866, 1.00000146, -22.1149156, 72.9932248
6867, 1.50000728, -22.5287071, 72.8170596
6868, 1.19503492, -30.5894545, 75.97176
6869, 1.69287401, -30.2592428, 76.021025
6870, 1.05183059, -30.1155395, 76.007792
6871, 0.485811638, -15.7480654, 73.8388805
6872, 0.986006441, -15.9204016, 73.9018216
6873, 0.499688389, -16.2860041, 73.6095492
6874, 0.417269245, -16.0106072, 73.301505
6875, 0.917326726, -16.1834999, 73.3645889
6876, 0.903983075, -15.6451395, 73.5943399
6877, 0.499869005, -17.784204, 71.0693493
6878, 0.672915259, -17.7466271, 71.4291599
6879, 0.499924154, -18.6087714, 76.9433922
6880, 0.499964622, -18.9823517, 76.9813318
6881, 0.546762692, -18.5620936, 76.4762936
6882, 0.546801897, -18.9356765, 76.5142345
6883, 1.04685401, -18.5659857, 76.6789539
6884, 0.499992681, -21.5966355, 74.1396926
6885, 1.00000009, -21.8044669, 74.0564898
6886, 0.499993612, -21.8517702, 73.6102728
6887, 0.608848664, -21.2715981, 73.8626543
6888, 1.10885659, -21.4794276, 73.7794519
6889, 1.10885698, -21.2243011, 74.3088706
6890, 0.499980398, -24.2822307, 78.7687308
6891, 1.00000003, -21.4869612, 73.3524131
6892, 0.499992671, -21.2791244, 73.4356171
6893, 1.10885776, -20.9068015, 73.6047952
6894, 0.503238819, -15.243912, 75.7204329
6895, 0.499604795, -15.7622065, 75.9976732
6896, 0.306531029, -15.8689541, 75.7123457
6897, 0.806776254, -15.9433475, 75.8728135
6898, 0.810639686, -15.4246372, 75.5959073
6899, 1.00000974, -25.9331088, 79.1945621
6900, 1.65317472, -31.2071891, 78.6711269
6901, 1.65372039, -31.2372778, 78.8697883
6902, 1.6536391, -31.4178771, 78.7627213
6903, 0.499993258, -22.2327457, 75.5573013
6904, 1.00000072, -22.4397932, 75.4688296
6905, 1.10800433, -21.8567895, 75.7196185
6906, 1.50056829, -15.4186451, 79.2335366
6907, 1.50033145, -15.2843107, 79.4931403
6908, 1.50037633, -15.6851482, 79.4242195
6909, 0.454752018, -28.4016996, 73.8667401
6910, 0.454554231, -28.6000873, 74.15296
6911, 1.11762633, -28.4622653, 74.0339893
6912, 0.663465068, -28.6720927, 73.7018052
6913, 0.500862506, -12.9701066, 75.8249966
6914, 1.00282379, -13.2265527, 76.0820791
6915, 0.837524639, -12.5760154, 76.0616338
6916, 0.499961496, -24.88974, 78.1287608
6917, 0.49993782, -25.4688448, 78.0371276
6918, 1.5000379, -24.88974, 78.1287626
6919, 1.5000589, -25.4688415, 78.0371266
6920, 1.50033029, -28.3711316, 71.3710993
6921, 1.2510646, -28.7372087, 71.4374271
6922, 1.74882649, -28.6137784, 71.878576
6923, 1.50007891, -28.0537976, 71.9161102
6924, 1.24777653, -28.4267235, 71.9858039
6925, 0.99943027, -28.1875843, 71.4809271
6926, 1.00001953, -17.3916809, 77.4660031
6927, 0.499837547, -17.3981212, 77.6534901
6928, 0.499838448, -17.5587386, 77.1416539
6929, 1.08338225, -17.8361551, 77.4235702
6930, 0.583244002, -17.8429748, 77.6110523
6931, 1.08337083, -17.6754967, 77.9354498
6932, 1.5000072, -22.0110899, 73.9662055
6933, 0.83165238, -28.6296697, 70.2177667
6934, 0.798456554, -29.0575849, 70.040453
6935, 1.50021479, -26.6727598, 77.3509309
6936, 1.50020695, -26.5314423, 77.0200911
6937, 1.39582047, -26.9245033, 76.856275
6938, 0.895519309, -26.7274601, 76.9474435
6939, 0.315236031, -29.0320332, 73.64325
6940, 0.97984721, -28.8983236, 73.521178
6941, 0.78679775, -28.379839, 72.8733116
6942, 0.785122751, -28.3521018, 72.2605096
6943, 0.917766354, -15.9052919, 74.7833096
6944, 1.41817347, -16.1932575, 74.5187115
6945, 1.5004159, -15.9431173, 74.852376
6946, 1.19338781, -15.8531924, 75.3511351
6947, 1.69343646, -16.1398273, 75.0873891
6948, 1.11102144, -16.1026917, 75.018144
6949, 1.16793635, -15.337312, 79.7959627
6950, 1.20373161, -14.8927685, 79.9882363
6951, 0.99999421, -18.3020225, 71.2685251
6952, 1.5001681, -16.5636311, 72.8012351
6953, 0.319132851, -12.6397104, 79.2540668
6954, 0.318934218, -12.7699936, 79.1903027
6955, 0.319155429, -12.7177246, 79.337571
6956, 1.50010053, -25.8772519, 76.0658951
6957, 1.38647668, -25.5114399, 76.2744227
6958, 0.499993025, -21.7470982, 72.7320899
6959, 0.49999383, -21.6917791, 73.2659345
6960, 1.11520723, -21.7025094, 73.000714
6961, 0.615199739, -21.3346917, 72.7395773
6962, 1.11520765, -21.7578281, 72.4668665
6963, 1.4997184, -12.9710311, 75.8256385
6964, 1.16275873, -12.5771745, 75.6745738
6965, 0.795500674, -16.4531987, 80.0667231
6966, 0.459476903, -16.5057259, 79.7271911
6967, 0.959619035, -16.7642629, 79.3315081
6968, 1.50055584, -15.7618713, 75.9981332
6969, 1.50395417, -15.2431099, 75.7213764
6970, 1.69357517, -15.8687717, 75.7125476
6971, 1.19683637, -15.4244011, 75.5961697
6972, 1.19335583, -15.9431993, 75.8729319
6973, 1.51082363, -28.8983447, 74.6115136
6974, 1.01033734, -28.6367566, 74.8002204
6975, 1.50043358, -28.4769705, 74.9239195
6976, 1.45557583, -28.4638622, 74.467267
6977, 0.955089305, -28.2029169, 74.6568782
6978, 0.965630408, -28.6231525, 74.3449448
6979, 0.321165761, -28.8339357, 73.3555006
6980, 0.917386064, -16.255285, 72.8285792
6981, 1.50027913, -16.4364965, 72.4817839
6982, 0.888908758, -16.2592193, 72.3835502
6983, 1.67538506, -13.2135863, 79.9742008
6984, 1.67538609, -13.3058883, 80.0075936
6985, 1.67546835, -13.2985118, 79.8934273
6986, 0.499625171, -15.4184406, 79.2334619
6987, 0.459309691, -15.8138164, 79.503924
6988, 0.499980397, -24.1561473, 72.2791356
6989, 1.10429905, -23.772402, 72.0194672
6990, 0.604278341, -23.7322616, 72.387688
6991, 0.588730846, -24.1451964, 72.6832106
6992, 1.19304885, -23.7614687, 72.4235433
6993, 1.08875264, -24.1852985, 72.3149865
6994, 1.50015861, -17.3497622, 73.234914
6995, 1.15131075, -17.4057755, 73.0273632
6996, 1.50006524, -25.2080301, 76.9992446
6997, 1.38647596, -25.2864962, 76.5854617
6998, 1.01901173, -26.643376, 77.6186225
6999, 1.00026113, -28.3690885, 77.1919245
7000, 0.500476748, -28.0025025, 77.1334338
7001, 1.00005056, -28.0346789, 76.745296
7002, 1.49953359, -28.0020123, 77.1332567
7003, 0.293579596, -15.1676129, 76.6414653
7004, 0.499207874, -15.6121674, 76.3117545
7005, 1.69943347, -29.0864344, 74.8809912
7006, 1.20930096, -29.2459601, 74.7576713
7007, 1.1990786, -28.8236886, 75.0693434
7008, 0.499974996, -19.8430021, 74.0816506
7009, 0.622220598, -19.4852665, 74.2571646
7010, 1.77073925, -29.531186, 80.2156508
7011, 1.50054242, -29.7982014, 79.7562717
7012, 1.27074915, -29.7620085, 80.0398712
7013, 1.45911897, -29.549752, 79.8538187
7014, 1.18837817, -29.8174119, 79.396629
7015, 1.68868285, -29.5860933, 79.5694151
7016, 1.50027917, -16.6392889, 73.6683493
7017, 1.00000098, -20.6499792, 75.6212091
7018, 0.499989628, -21.0113502, 75.8855963
7019, 1.10800481, -21.256285, 75.7758071
7020, 0.499981815, -23.9974645, 71.9364363
7021, 0.604278606, -23.5735725, 72.0449896
7022, 1.74605053, -30.5379389, 79.9861691
7023, 1.74610278, -30.4448952, 79.891936
7024, 1.74603576, -30.3974448, 80.032151
7025, 1.16404058, -16.1236844, 73.6409872
7026, 1.15029622, -15.5855859, 73.8704358
7027, 1.08131371, -15.8495266, 73.333279
7028, 0.499898933, -25.8469663, 74.618532
7029, 0.613872688, -25.7605, 75.0301294
7030, 0.499675457, -27.7948921, 75.052114
7031, 0.663882371, -27.4620225, 75.1572672
7032, 0.499373939, -28.5465085, 70.778886
7033, 0.499379166, -28.682092, 70.520538
7034, 0.52150181, -28.2246312, 70.4683369
7035, 0.521530278, -28.359919, 70.2096634
7036, 1.6811108, -31.3607177, 70.745242
7037, 1.68112674, -31.2825157, 70.6617504
7038, 1.68142744, -31.2307001, 70.8087862
7039, 0.499974911, -19.6237927, 76.1211031
7040, 1.00000387, -19.5734438, 76.564728
7041, 1.15041759, -19.8286013, 76.032728
7042, 1.00000078, -19.0275088, 76.5947111
7043, 0.499976674, -19.3972914, 76.4299805
7044, 1.0468461, -18.9808076, 76.1276096
7045, 0.499978874, -19.9117686, 77.0076612
7046, 0.605000867, -20.3228793, 76.8822925
7047, 1.49572357, -28.516692, 77.9230119
7048, 1.69247268, -28.502035, 77.7438293
7049, 1.35406925, -27.9384786, 77.9975268
7050, 1.5007056, -15.4291801, 76.0417007
7051, 1.50383943, -14.9098092, 75.7661805
7052, 1.50020206, -16.2201132, 72.7711542
7053, 0.503117651, -15.0653148, 75.4387852
7054, 0.306550743, -15.6915837, 75.4292355
7055, 1.5004723, -15.6597171, 74.9391195
7056, 0.986076905, -15.5181181, 74.6237415
7057, 1.48649497, -15.5226486, 74.4460805
7058, 1.41816994, -15.909925, 74.6057573
7059, 0.903791663, -15.7686549, 74.2903513
7060, 0.499991377, -21.1191353, 73.0912787
7061, 1.11520828, -21.1298785, 72.8260555
7062, 0.499948394, -25.1664527, 75.5492757
7063, 0.61388912, -25.5338075, 75.3405306
7064, 1.01930808, -27.2223205, 78.7432056
7065, 1.02028998, -27.5688156, 78.371919
7066, 0.855309725, -27.9501173, 78.311843
7067, 0.872990957, -27.3345787, 78.066199
7068, 0.854385707, -27.604385, 78.6831027
7069, 0.782232571, -21.3931198, 70.0121387
7070, 0.499994964, -21.312097, 70.3575297
7071, 0.282232202, -21.6814329, 69.8453879
7072, 0.792974819, -22.0859689, 69.9909565
7073, 0.510737026, -22.0049435, 70.3363474
7074, 1.01074149, -21.7166299, 70.5031006
7075, 1.73319214, -31.6831973, 75.0195837
7076, 1.23306306, -31.4100196, 75.278704
7077, 1.50079512, -31.0921867, 75.2982914
7078, 1.50072654, -31.1434348, 74.7536541
7079, 1.23289331, -31.4610382, 74.7338466
7080, 1.50018221, -17.1577956, 73.5210112
7081, 0.499977976, -20.0700284, 73.7695836
7082, 0.611917623, -20.081674, 73.3469103
7083, 0.49997586, -19.7766447, 70.9440766
7084, 0.499986427, -19.9793445, 70.6190316
7085, 0.499972935, -19.3085597, 70.7249811
7086, 0.499979553, -19.5112388, 70.3999469
7087, 1.00000422, -19.4985464, 70.8467704
7088, 0.499983375, -20.0725699, 77.3931297
7089, 1.0000005, -20.1233177, 77.595504
7090, 0.499986415, -20.4914591, 77.9025352
7091, 0.605008784, -20.4836753, 77.2677608
7092, 1.10502044, -20.5343981, 77.470136
7093, 1.00000048, -20.6371609, 78.7216093
7094, 1.50000765, -20.5113466, 79.2327692
7095, 1.50001081, -20.4163757, 78.6160734
7096, 0.902743449, -20.1538476, 78.2570426
7097, 1.40275828, -20.0280359, 78.7682092
7098, 0.902743822, -20.2488085, 78.873741
7099, 0.288846352, -28.6489515, 71.8126544
7100, 0.787902727, -28.7831108, 71.3789953
7101, 0.499613165, -28.3713124, 71.3699712
7102, 0.500751393, -28.0517827, 71.915386
7103, 0.788653923, -28.4592427, 71.9208265
7104, 1.50001311, -23.3833469, 74.0094473
7105, 0.999999769, -23.4323926, 73.5707372
7106, 0.89150929, -23.1371755, 74.1125065
7107, 0.49988464, -17.7578144, 76.3346831
7108, 1.00000654, -17.5940644, 76.4248342
7109, 0.499898394, -17.7157631, 76.8639465
7110, 0.546776553, -18.1995196, 76.4927908
7111, 1.04685717, -18.0355391, 76.5829745
7112, 1.04685567, -18.0776092, 76.0537781
7113, 0.49997184, -19.6067725, 72.7213468
7114, 0.611913664, -19.9262043, 72.998347
7115, 0.604280397, -23.3435301, 72.3419564
7116, 0.49990479, -17.8618081, 77.1568554
7117, 0.583257091, -18.1461131, 77.6262108
7118, 0.499992322, -22.3924999, 75.9093815
7119, 1.10978265, -22.605928, 76.0593086
7120, 1.74757527, -13.5549145, 70.1072084
7121, 1.74749373, -13.6025574, 69.9673194
7122, 1.74753048, -13.4620593, 70.0133346
7123, 0.499823707, -17.4079495, 71.4382505
7124, 0.672891488, -17.5652834, 71.7120587
7125, 1.17310321, -17.4006865, 71.632865
7126, 1.50025349, -27.2382398, 71.0643935
7127, 1.50022489, -27.1879875, 71.4390334
7128, 1.50017009, -26.6639772, 71.0042778
7129, 1.500169, -26.6139298, 71.3788057
7130, 1.0000352, -26.848132, 71.0375516
7131, 0.499923016, -27.1878316, 71.4389421
7132, 0.499833076, -27.2380944, 71.0643188
7133, 0.499853379, -26.6138819, 71.3788094
7134, 0.499856014, -26.6639105, 71.0042618
7135, 0.499989741, -23.2615892, 76.7925627
7136, 1.00000049, -23.4532816, 76.8656352
7137, 0.499983989, -23.8817122, 76.7066039
7138, 0.60977131, -23.3581823, 76.3783665
7139, 1.10978399, -23.5498861, 76.4514356
7140, 1.10978235, -22.9297667, 76.5373987
7141, 0.591543631, -20.1095581, 70.2218673
7142, 1.09155505, -20.0968083, 70.6687006
7143, 1.09155954, -19.6287131, 70.4496131
7144, 1.5000091, -23.031141, 77.0745613
7145, 1.50001389, -23.6512777, 76.9886022
7146, 1.41139389, -23.5918402, 77.4304846
7147, 0.911380743, -23.3938621, 77.3075172
7148, 1.69445884, -15.2962436, 72.07388
7149, 1.49513897, -15.3868467, 72.2339521
7150, 1.00052684, -15.4541644, 71.7422329
7151, 1.49956864, -15.7258482, 71.8365742
7152, 1.19438058, -15.3741613, 71.5801157
7153, 1.50387227, -15.0647611, 75.4396913
7154, 1.69359032, -15.6913319, 75.4294708
7155, 1.48361481, -26.5598937, 75.0117591
7156, 1.48359559, -26.4136723, 74.6650972
7157, 1.38262298, -26.5950374, 74.4945293
7158, 0.865883647, -26.5883762, 74.592594
7159, 1.00000126, -23.9290252, 76.2588361
7160, 0.499984275, -23.7373582, 76.185766
7161, 1.50003138, -24.4953753, 74.5842628
7162, 1.39027922, -24.120119, 74.7867732
7163, 1.40815216, -18.1700721, 73.8830901
7164, 1.40814831, -18.5263954, 73.958021
7165, 1.35948173, -18.4680005, 74.1457907
7166, 1.35947395, -18.8243665, 74.2207321
7167, 0.767476355, -18.4518554, 74.0951958
7168, 1.5004062, -28.1211031, 74.9633017
7169, 1.45555836, -28.1082733, 74.5061779
7170, 1.69426017, -29.8987387, 76.0163755
7171, 1.4971548, -30.0785496, 75.9773875
7172, 1.0538733, -29.7546869, 76.0102156
7173, 0.859673269, -29.9367186, 75.9915869
7174, 1.6783058, -28.6352895, 75.2030985
7175, 1.17806893, -28.3725692, 75.3923089
7176, 1.37709883, -28.9814186, 75.3473191
7177, 1.61281675, -14.8512632, 76.2467817
7178, 1.11316393, -15.2601642, 76.3589355
7179, 1.11775582, -14.7400548, 76.0839406
7180, 0.499842685, -17.2407234, 79.1803776
7181, 0.424247407, -17.5373211, 79.5038605
7182, 1.5002236, -28.0942328, 72.8648865
7183, 1.71916933, -28.5527934, 72.4978796
7184, 1.50047472, -28.0681879, 72.2538431
7185, 1.50002192, -23.8085112, 75.5149834
7186, 1.39027864, -23.890577, 75.0965078
7187, 0.853963678, -28.3076652, 69.90663
7188, 0.499802513, -15.494585, 75.1939655
7189, 1.00353263, -15.2259926, 75.3616637
7190, 0.806921957, -15.853306, 75.351027
7191, 0.499850681, -27.8172651, 71.0821157
7192, 0.499740503, -27.5168186, 71.2596605
7193, 0.499931108, -28.0403746, 71.5459553
7194, 0.499895377, -27.7410231, 71.7243966
7195, 1.00034922, -27.646136, 71.5620041
7196, 1.50038778, -27.5170508, 71.2598513
7197, 1.50027831, -27.8175429, 71.0823634
7198, 1.50068064, -27.7416147, 71.724709
7199, 1.50047887, -28.0410343, 71.5465941
7200, 0.230010602, -14.7726857, 73.7695367
7201, 0.234912604, -14.4906239, 73.8554247
7202, 0.485366565, -14.9474633, 74.1414701
7203, 0.717676449, -14.9241628, 73.8477037
7204, 0.486233424, -15.2327059, 74.0579322
7205, 0.499823915, -17.7775492, 72.4000578
7206, 0.651098732, -17.4771401, 72.5996421
7207, 0.651080386, -17.2613624, 72.8846412
7208, 0.588733166, -23.7564746, 72.6374773
7209, 0.983470612, -26.2116832, 74.7544587
7210, 1.50006407, -18.4849253, 74.3570015
7211, 1.50007956, -18.1285792, 74.2820587
7212, 0.859393342, -18.410488, 74.4941849
7213, 1.50008738, -26.0145923, 72.6783516
7214, 1.0000036, -26.1286549, 72.8331145
7215, 1.50015529, -26.5291234, 73.0999361
7216, 1.45547482, -26.0735386, 73.2083671
7217, 0.955358313, -25.6730958, 72.9416123
7218, 0.314115338, -30.877144, 70.1730333
7219, 1.63967712, -26.3037005, 76.6512911
7220, 1.13957418, -26.3493099, 76.2100272
7221, 1.13957348, -26.4780391, 76.7791358
7222, 0.486048095, -15.3971799, 73.8163459
7223, 0.417679598, -15.6607242, 73.2781381
7224, 0.290631011, -28.5522045, 72.4885964
7225, 0.499739711, -28.0936087, 72.8649072
7226, 0.499634955, -28.0664723, 72.253749
7227, 1.50006539, -18.560437, 73.791882
7228, 1.50005088, -18.9168096, 73.8668256
7229, 0.908081421, -18.5444276, 73.7412933
7230, 1.74591555, -28.8567472, 71.7586905
7231, 1.50034173, -28.6230551, 71.2552271
7232, 0.908069227, -18.1126758, 74.2315023
7233, 1.09051059, -20.3661487, 79.5233003
7234, 1.59052041, -20.1453527, 79.4177655
7235, 0.993255455, -19.8828511, 79.0587449
7236, 0.499991105, -22.9618605, 71.5924239
7237, 1.00000065, -22.5297726, 71.9211942
7238, 0.499993367, -22.6023138, 72.130607
7239, 0.604285171, -23.1914729, 71.9649296
7240, 1.10429677, -22.7593946, 72.2937004
7241, 1.10429619, -23.1189284, 71.7555157
7242, 1.50001337, -23.8919592, 78.7136569
7243, 1.00000093, -23.510771, 78.4619082
7244, 1.50001157, -23.5116891, 78.255626
7245, 1.411396, -23.9237011, 78.0854139
7246, 0.911379397, -23.5425329, 77.8336614
7247, 0.911380009, -23.9227849, 78.2916965
7248, 1.27089447, -14.7468305, 70.0220574
7249, 1.50092357, -14.7023482, 70.2892504
7250, 1.77088425, -14.4600984, 69.7676232
7251, 1.31630581, -14.1983958, 69.9552402
7252, 1.54619739, -14.1536795, 70.2221002
7253, 1.04634707, -14.4406514, 70.4748892
7254, 1.50001763, -20.1044476, 77.8252172
7255, 1.50002544, -19.6855822, 77.3158149
7256, 0.902744043, -19.7350082, 77.7476355
7257, 1.40276482, -19.7161399, 77.9773557
7258, 1.00000611, -18.0822662, 77.0501325
7259, 0.499923036, -18.2462001, 76.9598979
7260, 0.49999124, -22.0808525, 73.3042059
7261, 0.499991445, -22.1361716, 72.7703613
7262, 1.50000851, -22.0808523, 73.304205
7263, 1.50000771, -22.1361704, 72.7703601
7264, 0.518798759, -26.9670085, 78.5421133
7265, 0.500128738, -27.2364396, 79.1586349
7266, 0.353788195, -27.3498524, 78.4816689
7267, 0.499993056, -21.7737153, 78.3219656
7268, 0.606228272, -21.3995365, 78.5337372
7269, 0.499994527, -22.1682816, 78.319487
7270, 0.4999947, -22.3681317, 78.8912082
7271, 0.610775012, -22.7057439, 78.6375736
7272, 1.11078163, -22.7076006, 79.0977759
7273, 1.11078097, -22.5077493, 78.5260555
7274, 0.859407523, -18.84229, 74.0040001
7275, 0.499991226, -21.3664634, 74.4539737
7276, 0.608845558, -21.0414296, 74.1769356
7277, 0.524253819, -30.1535496, 70.5237324
7278, 0.499991676, -21.52502, 74.8100976
7279, 0.607993376, -21.5144095, 75.239052
7280, 1.18386283, -17.1057231, 79.7648481
7281, 1.10821638, -17.4022909, 80.0882758
7282, 1.50002902, -19.3972872, 76.4299795
7283, 1.50003944, -18.9823444, 76.9813332
7284, 1.5468869, -18.9356158, 76.5142359
7285, 1.50000892, -22.7179888, 74.7183302
7286, 1.39152087, -22.7257285, 74.2899273
7287, 1.50104146, -30.6564252, 74.2747937
7288, 1.49945272, -30.073328, 74.171004
7289, 0.499010847, -30.6563384, 74.2749706
7290, 0.500588628, -30.0733586, 74.171244
7291, 0.499984384, -23.8982568, 71.5810809
7292, 0.60428489, -23.474366, 71.6896355
7293, 1.50003054, -19.5283233, 76.951348
7294, 1.00000243, -19.158525, 77.116091
7295, 0.499971074, -19.5283239, 76.9513498
7296, 1.50046357, -15.4943031, 75.1943525
7297, 0.509722901, -28.8982979, 74.6114248
7298, 0.499601183, -28.4769538, 74.9239317
7299, 0.318159428, -29.0687132, 74.8561052
7300, 0.818525224, -28.806089, 75.0445476
7301, 0.828801669, -29.2282123, 74.7329005
7302, 1.35807754, -29.7052225, 75.714758
7303, 1.69960313, -29.4894774, 75.4139373
7304, 0.499987782, -20.8894085, 73.3987087
7305, 0.608843461, -20.8818843, 73.825746
7306, 1.50024973, -16.8459861, 74.8117415
7307, 0.999988072, -16.8298358, 75.0066545
7308, 1.50022779, -16.6741781, 75.2895758
7309, 1.41808238, -16.4227148, 74.772071
7310, 0.917775329, -16.4065215, 74.9667871
7311, 0.917727908, -16.5783844, 74.4892506
7312, 0.999668684, -27.9650069, 71.0169625
7313, 1.49991542, -28.3608134, 71.0020327
7314, 0.499502459, -28.360394, 71.0014758
7315, 1.50000761, -21.1658372, 76.238889
7316, 1.00000076, -21.5849668, 76.0516058
7317, 1.50000693, -21.7663531, 76.1827009
7318, 1.39004005, -21.6685535, 76.5977033
7319, 0.890033599, -22.0876726, 76.4104206
7320, 0.890032981, -21.4871666, 76.4666084
7321, 1.50008273, -17.6650935, 78.8389387
7322, 0.999982673, -17.2715304, 78.5037551
7323, 1.50011418, -17.6243917, 78.3133643
7324, 1.58343405, -18.0691821, 78.2708324
7325, 1.08336774, -17.7161635, 78.4611176
7326, 1.00007883, -27.0522705, 71.6257652
7327, 0.499837501, -26.8185375, 71.9670695
7328, 1.0000273, -26.4785024, 71.5655409
7329, 1.50022343, -26.8185411, 71.9670935
7330, 1.38882412, -15.7812033, 72.250727
7331, 1.16425333, -27.8946366, 75.7873668
7332, 1.16422298, -27.3818479, 75.6292552
7333, 1.49996489, -28.5469756, 70.7798169
7334, 1.52225411, -28.2250662, 70.4687624
7335, 0.499971253, -24.5551408, 75.8208514
7336, 0.499980113, -23.9660473, 75.8699739
7337, 0.634492985, -24.4278697, 76.1801025
7338, 1.13452222, -24.2465373, 76.0481298
7339, 1.13452531, -24.8355468, 75.998993
7340, 1.50001539, -19.8422057, 79.1416575
7341, 1.09051233, -19.6970266, 79.4321959
7342, 0.902744404, -19.5797201, 78.7826374
7343, 0.290483675, -13.4620507, 70.013025
7344, 0.29053505, -13.6026371, 69.9670583
7345, 0.290402488, -13.5549416, 70.1067647
7346, 0.290859757, -30.3974332, 80.0323349
7347, 0.290786517, -30.4449195, 79.892129
7348, 0.290830699, -30.5379705, 79.9863645
7349, 1.50000775, -21.301702, 76.8299465
7350, 1.00000078, -21.1203283, 76.6988519
7351, 0.890033028, -21.62303, 77.057666
7352, 0.819933532, -28.6249415, 78.3940858
7353, 1.00118435, -28.8083023, 78.5651347
7354, 0.499979671, -19.5069596, 79.2905699
7355, 0.499981262, -19.3032254, 79.5902093
7356, 0.590494189, -19.6063798, 79.8663152
7357, 0.59049323, -19.8101257, 79.5666832
7358, 1.72413048, -15.4669723, 77.8534219
7359, 1.49739013, -15.4546629, 78.0085229
7360, 0.893888422, -15.4110086, 78.0534603
7361, 1.39026037, -15.7415371, 78.2452562
7362, 1.11521112, -15.4389326, 77.9052969
7363, 1.18378219, -28.626303, 78.3960154
7364, 0.499864787, -17.8969734, 72.7594433
7365, 0.99997466, -17.7064157, 72.8277005
7366, 0.499851291, -17.6849222, 73.3092122
7367, 0.601754296, -18.0883048, 73.1492007
7368, 1.10185047, -17.8974775, 73.217452
7369, 1.10186473, -18.1094489, 72.6676875
7370, 0.499994093, -21.6432193, 71.4623974
7371, 0.999999021, -21.2241111, 71.6656499
7372, 0.499992249, -21.0686059, 71.828075
7373, 0.615199334, -21.4165716, 72.0495865
7374, 1.11520805, -20.9974721, 72.2528427
7375, 1.11520746, -21.5720689, 71.8871637
7376, 0.546793007, -18.7873342, 76.1672834
7377, 0.265018384, -13.4719867, 79.9868232
7378, 1.00000054, -20.8991871, 77.6974091
7379, 0.499990123, -20.8484609, 77.4950359
7380, 1.10502091, -20.891391, 77.0626354
7381, 1.00431919, -14.7817281, 70.0220215
7382, 1.0497964, -14.2335981, 69.9552929
7383, 1.61329978, -15.037941, 76.508809
7384, 1.50078681, -15.6122199, 76.3122823
7385, 1.6672316, -31.7887899, 70.9562122
7386, 1.6672148, -31.8491155, 71.0647198
7387, 1.6674572, -31.666381, 71.0867884
7388, 0.332896413, -12.1509747, 78.9352209
7389, 0.332807288, -12.21137, 79.0437014
7390, 0.332755844, -12.3338046, 78.9130519
7391, 0.499993448, -22.7484048, 78.2174405
7392, 0.999999628, -22.5504038, 78.1059228
7393, 1.11078101, -23.0878568, 78.4240101
7394, 0.999999923, -21.4112601, 70.9121264
7395, 0.49999533, -21.8933573, 71.0960058
7396, 0.499994987, -21.5058938, 70.7081609
7397, 0.510736684, -22.1987349, 70.6869776
7398, 1.01074135, -22.1040892, 70.8909445
7399, 0.499993441, -22.3652627, 72.4623058
7400, 0.499992321, -22.9301911, 72.7335631
7401, 0.604287559, -22.9544247, 72.2966287
7402, 1.10429698, -23.3242965, 72.5649567
7403, 1.50002714, -24.0669399, 77.0355391
7404, 1.41140968, -24.0075004, 77.4774222
7405, 1.14357014, -16.55756, 80.0666743
7406, 0.499992883, -22.0022489, 75.866231
7407, 0.607994648, -21.6735615, 75.5904313
7408, 1.17288627, -17.7629007, 70.2019367
7409, 1.50009037, -17.7091859, 70.5273082
7410, 1.67290985, -17.6575887, 69.825278
7411, 1.17291884, -17.2420238, 70.0466461
7412, 1.50014858, -17.1884208, 70.3719725
7413, 1.00000065, -17.2938987, 70.7486203
7414, 0.325489261, -15.5053869, 80.1968982
7415, 0.785267039, -16.041833, 80.066938
7416, 0.306719398, -14.9750904, 71.39339
7417, 0.502923721, -14.8533598, 71.2541783
7418, 0.807752766, -14.9687322, 71.1758358
7419, 0.999950561, -14.8356466, 71.0544898
7420, 0.500312948, -15.0011705, 70.7559239
7421, 1.66583337, -30.1929752, 73.869832
7422, 1.16821966, -30.4624233, 74.0703812
7423, 1.16608853, -29.877546, 73.9568627
7424, 0.831882306, -30.462379, 74.0704847
7425, 0.334169563, -30.1929962, 73.8699754
7426, 0.833985054, -29.8774681, 73.9570576
7427, 1.38263531, -26.798563, 74.1775164
7428, 0.499572383, -27.9102763, 76.0151759
7429, 1.50001041, -23.1798162, 77.6007029
7430, 0.99999945, -22.9818313, 77.4777362
7431, 1.7415193, -30.5055645, 70.0066627
7432, 0.622214049, -19.2597593, 74.5673706
7433, 1.50091089, -29.8850171, 75.0622958
7434, 1.69969169, -29.5982563, 75.1052954
7435, 0.559291814, -21.3601043, 79.4010834
7436, 0.606228365, -21.1968875, 78.8774789
7437, 1.65353309, -31.4078403, 78.9509404
7438, 1.80913125, -31.4916437, 79.1718307
7439, 1.46195677, -31.2139517, 79.1328854
7440, 1.809242, -31.3202621, 79.0899426
7441, 1.69324376, -14.975804, 71.3928525
7442, 1.49605627, -14.8537594, 71.2533397
7443, 1.49954953, -15.0001667, 70.7560259
7444, 1.19280417, -14.968882, 71.1757018
7445, 1.50049134, -15.8274798, 75.1597214
7446, 1.6934755, -16.0242884, 75.3951207
7447, 1.27112516, -13.4654799, 70.4409479
7448, 1.72581552, -13.2570377, 70.710022
7449, 1.54522598, -13.6818569, 70.6742801
7450, 1.29323757, -13.6989402, 70.3019002
7451, 1.74749444, -13.4906477, 70.5698914
7452, 1.47278024, -13.2738286, 70.3351468
7453, 1.5000214, -24.2868121, 78.3440959
7454, 0.499971391, -25.2024915, 79.1986189
7455, 0.464262954, -24.781748, 79.4410749
7456, 0.49995583, -19.1062643, 74.9351834
7457, 0.499964761, -24.7961894, 73.6125997
7458, 0.999990794, -24.771825, 73.8335787
7459, 0.499963833, -24.7236095, 74.2750602
7460, 0.654479894, -24.9507472, 73.9721614
7461, 1.15453439, -24.9264518, 74.1931419
7462, 1.15453424, -24.9990168, 73.530682
7463, 0.764930221, -14.5200964, 79.9887082
7464, 0.229249668, -14.8239799, 80.1969958
7465, 0.554566005, -14.2987538, 80.1563726
7466, 0.325019211, -14.618196, 79.8532764
7467, 0.860987921, -14.3138726, 79.6465797
7468, 0.499880503, -25.8495122, 78.0860924
7469, 0.654472501, -25.1793942, 73.6628167
7470, 0.654474944, -25.3340987, 74.0141472
7471, 0.836370255, -13.699091, 70.3008853
7472, 0.29044132, -13.7228484, 70.1185229
7473, 0.544704584, -13.9148445, 70.2247948
7474, 0.868725044, -14.1281358, 70.5496314
7475, 0.322433082, -14.1513846, 70.3667592
7476, 0.613247103, -13.9358997, 70.4418405
7477, 1.50011618, -25.8495008, 78.0860923
7478, 1.36437489, -15.1432494, 75.0821412
7479, 0.867285858, -14.8742114, 75.2495781
7480, 0.863859934, -15.3041367, 75.0043777
7481, 1.19393838, -29.3991418, 75.9650309
7482, 1.00035098, -29.2384502, 76.0471966
7483, 1.1768464, -28.9233904, 76.1151482
7484, 1.1777791, -28.8438705, 75.6013219
7485, 1.37024579, -29.0817272, 76.0281904
7486, 0.499659238, -16.7968435, 77.9125608
7487, 1.00818744, -16.6673226, 77.734784
7488, 0.507970465, -16.2339935, 77.6691519
7489, 0.499853665, -16.3604611, 78.2643479
7490, 1.00780866, -16.2320307, 78.0871042
7491, 0.999959718, -16.794734, 78.3296911
7492, 0.313936522, -28.6454728, 75.2082259
7493, 0.632865288, -28.9739277, 75.3277189
7494, 0.49981955, -17.5655965, 72.9498502
7495, 0.666097556, -24.5600512, 73.9609602
7496, 1.16613568, -24.6083479, 73.5194749
7497, 1.16613631, -24.5357669, 74.181938
7498, 0.499907636, -26.014614, 72.6783601
7499, 0.499859476, -26.5292058, 73.0999296
7500, 0.499865205, -26.5492127, 72.5496116
7501, 1.00000388, -26.6628837, 72.7043623
7502, 0.999996939, -26.148806, 72.2827738
7503, 1.50016891, -26.5491404, 72.549569
7504, 1.49994145, -27.9982678, 77.6158418
7505, 0.499993331, -21.5884143, 77.9785336
7506, 0.606230193, -21.2142422, 78.1903059
7507, 1.45562785, -28.2583123, 74.1795336
7508, 0.499841797, -26.7310395, 79.0959895
7509, 1.0003441, -26.9869727, 79.2967213
7510, 1.5000307, -24.5069134, 78.0535921
7511, 1.41140918, -24.1438073, 77.7949031
7512, 1.48363391, -26.7635173, 74.6947104
7513, 0.256071301, -27.1817408, 80.1559735
7514, 0.499877341, -26.8365857, 79.5230412
7515, 0.756085002, -26.8263553, 79.8672004
7516, 0.75640302, -27.3320516, 79.9297104
7517, 0.500187187, -27.3421363, 79.5856726
7518, 1.51918358, -26.9679546, 78.5415315
7519, 1.50014648, -26.7320211, 79.0954154
7520, 1.50057106, -27.2374513, 79.1580377
7521, 0.499990327, -22.8647867, 76.7326727
7522, 0.609770087, -22.961389, 76.3184755
7523, 0.292216156, -28.8966589, 71.6948704
7524, 0.499054296, -28.6222477, 71.2555194
7525, 0.999967742, -29.51936, 79.5364952
7526, 1.27075118, -29.2524016, 79.9948688
7527, 1.18823244, -29.3068554, 79.349786
7528, 1.50007089, -18.1892454, 78.7865728
7529, 0.999993043, -17.8359148, 78.9767914
7530, 1.08336359, -18.2401316, 78.4087016
7531, 1.50032788, -16.6164582, 74.5581749
7532, 1.50025472, -16.7968787, 77.9124529
7533, 1.50845899, -16.2336635, 77.6691133
7534, 1.50026756, -16.360975, 78.2642297
7535, 0.233690421, -29.52108, 80.2156507
7536, 0.733610515, -29.7518498, 80.0398831
7537, 0.499388854, -29.7981922, 79.7562034
7538, 0.311380792, -29.5863158, 79.5693653
7539, 0.811748006, -29.8179098, 79.3963169
7540, 0.545324167, -29.5396817, 79.8537573
7541, 1.50000504, -21.8933563, 71.0960063
7542, 1.50000495, -21.505893, 70.7081613
7543, 1.51074545, -22.1987341, 70.6869781
7544, 0.999353826, -15.2479516, 71.4470264
7545, 1.00005219, -15.4013358, 70.9419502
7546, 0.805590355, -15.3737517, 71.5790103
7547, 1.00446538, -28.6935007, 71.5384755
7548, 1.00505992, -28.3855541, 72.0872531
7549, 0.39150299, -22.798405, 73.630089
7550, 0.454591348, -28.0782244, 73.8950961
7551, 0.955125371, -28.0571495, 73.725662
7552, 0.499664615, -27.9456958, 73.4200592
7553, 0.593818343, -27.6263715, 73.6504276
7554, 1.09408046, -27.6069888, 73.4798239
7555, 1.04918969, -27.73836, 73.9553436
7556, 0.499967659, -19.2489372, 76.083032
7557, 1.50007238, -18.2657828, 74.6193341
7558, 1.68390356, -17.2815142, 80.1527141
7559, 1.4244299, -17.7845312, 79.7408304
7560, 1.68161593, -29.031113, 78.6247826
7561, 1.50036256, -29.0104068, 79.2758846
7562, 1.50040334, -28.5962941, 78.8391649
7563, 0.499604112, -29.0104668, 79.2759685
7564, 0.319786701, -29.0296827, 78.6231931
7565, 0.501946557, -28.5962322, 78.8392203
7566, 1.66703245, -30.0745629, 69.8137911
7567, 1.66700195, -29.8228948, 69.7710577
7568, 1.19128593, -30.1413038, 69.9880365
7569, 1.52470573, -29.9637049, 70.2581219
7570, 1.52493222, -30.2160326, 70.3007162
7571, 0.499953818, -24.9396936, 75.861368
7572, 0.634478738, -24.8124183, 76.2206196
7573, 0.370924239, -19.9819349, 69.836095
7574, 0.870927505, -19.5010879, 70.0638342
7575, 0.962482425, -20.099395, 69.8857638
7576, 1.68912811, -29.5918802, 76.0978776
7577, 0.332932048, -13.9691932, 69.7702802
7578, 0.878627813, -13.9457657, 69.9552613
7579, 0.624086155, -13.7540467, 69.8474932
7580, 1.50001265, -23.3380675, 77.927991
7581, 1.41139777, -23.7500896, 77.7577745
7582, 1.69303522, -13.56713, 76.1375269
7583, 1.19738206, -13.4093319, 75.9851694
7584, 1.50057934, -13.3166206, 75.7303853
7585, 1.40957657, -13.728557, 75.5922842
7586, 0.908654766, -13.5695886, 75.4396565
7587, 1.10670702, -13.8193191, 75.844004
7588, 1.50061575, -27.7576546, 72.4897477
7589, 1.50022493, -27.7851194, 73.1005101
7590, 1.34993855, -27.4631907, 72.9303758
7591, 0.849687196, -27.6039212, 73.0790345
7592, 0.849910149, -27.5759181, 72.4681204
7593, 0.23935238, -29.264467, 78.8002735
7594, 0.499978478, -24.0997194, 79.0478774
7595, 0.464269739, -24.4257741, 79.4079212
7596, 0.455260084, -26.073712, 73.2083519
7597, 1.7606457, -29.2643758, 78.80025
7598, 1.66280237, -28.7379543, 74.3011098
7599, 0.319037897, -12.6182747, 79.1431664
7600, 0.318810945, -12.7405479, 79.0124933
7601, 1.32067062, -24.7630016, 73.8790399
7602, 0.655901995, -14.1823856, 70.0960326
7603, 0.35089678, -21.1626564, 74.8260999
7604, 0.857189582, -29.5130309, 75.5854216
7605, 1.50068483, -29.3510209, 75.6663117
7606, 1.19922419, -29.2960656, 75.2791972
7607, 0.999990272, -17.4383376, 71.2729303
7608, 0.499849847, -17.4557742, 71.0908767
7609, 0.499774075, -17.0797609, 71.4596848
7610, 0.999988964, -16.9182544, 71.1172038
7611, 0.499779276, -16.9353477, 70.9353069
7612, 1.50013919, -17.4557762, 71.0908833
7613, 1.50018931, -17.0798206, 71.4597415
7614, 1.50020064, -16.9353508, 70.9353327
7615, 0.499659831, -16.1506211, 71.143041
7616, 0.999869433, -16.4360427, 71.4926747
7617, 0.499734645, -16.7781074, 71.2920476
7618, 0.499757869, -16.633478, 70.7677533
7619, 0.999950875, -16.290822, 70.9681486
7620, 0.455285947, -25.6235613, 73.8048135
7621, 0.455302296, -25.4688459, 73.4534805
7622, 1.10990136, -25.4429014, 73.6809246
7623, 0.483267768, -26.9634399, 75.0500986
7624, 0.983464151, -26.8831082, 75.5223201
7625, 0.499751974, -27.2935271, 75.4625559
7626, 1.14763034, -27.0520775, 75.2170297
7627, 1.50030011, -17.0500874, 78.0489013
7628, 1.50030929, -16.6135016, 78.4005342
7629, 0.499683612, -17.0499692, 78.0489762
7630, 0.49969041, -16.6133193, 78.4005344
7631, 1.5000325, -19.3275081, 77.8260298
7632, 1.00000168, -19.3464346, 77.5963124
7633, 0.902742469, -19.3769483, 78.2578628
7634, 1.48723817, -27.1653886, 74.4264376
7635, 0.970472338, -26.9549104, 74.8413388
7636, 0.869438653, -26.9900866, 74.3243306
7637, 1.49968088, -15.4109574, 71.1552756
7638, 0.500240225, -15.4105833, 71.155514
7639, 1.5000918, -25.6374697, 72.6165039
7640, 1.45545885, -25.6964117, 73.1464907
7641, 1.50082449, -14.8055566, 70.5535978
7642, 1.54644592, -14.2568533, 70.4850099
7643, 1.50001103, -23.7663488, 70.7497188
7644, 0.999999459, -23.4107818, 71.1240621
7645, 1.50000835, -23.2448663, 71.0086655
7646, 1.42866917, -23.4288899, 70.4777857
7647, 0.928659775, -23.0733331, 70.8521303
7648, 0.928659553, -23.5948103, 70.5931819
7649, 0.499987785, -20.168309, 70.9648841
7650, 0.499988124, -20.3368658, 71.3246344
7651, 0.631296825, -20.8554529, 71.4513448
7652, 1.13130931, -20.4851632, 71.192588
7653, 0.631297443, -20.6868975, 71.0915975
7654, 1.50000755, -22.1552648, 76.2175744
7655, 1.39004102, -22.0574624, 76.6325771
7656, 0.459344654, -16.0807394, 79.6955271
7657, 0.454557222, -28.4641726, 74.4673807
7658, 0.499945186, -25.0248583, 73.3032462
7659, 1.68119121, -31.382373, 70.8560912
7660, 1.68122456, -31.260771, 70.9864672
7661, 0.499952825, -25.1070108, 74.3170276
7662, 0.499962722, -24.9889947, 77.3084652
7663, 0.499973926, -24.4315138, 77.0895018
7664, 0.411358699, -24.3721418, 77.5313824
7665, 0.499703334, -27.8620086, 76.8344472
7666, 0.499574482, -28.0628153, 76.3389616
7667, 0.652700594, -27.7597655, 76.5047053
7668, 1.15320948, -27.9345334, 76.4163527
7669, 1.15319299, -27.7337165, 76.9115363
7670, 0.499727814, -16.8709825, 71.6950077
7671, 0.499572115, -16.2440289, 71.5459934
7672, 1.68394512, -16.8473011, 80.1605597
7673, 1.45984352, -16.5059451, 79.7273251
7674, 1.50001246, -20.5197875, 75.0440281
7675, 1.60801104, -21.1260989, 75.1986228
7676, 1.35091284, -20.774388, 74.7856728
7677, 1.35946978, -18.6052005, 74.4830734
7678, 0.357169722, -30.0952073, 75.3682185
7679, 0.214031308, -31.3204266, 79.0902032
7680, 0.214106935, -31.4917114, 79.1719278
7681, 0.213969667, -31.3277349, 79.2642481
7682, 1.77084483, -29.5704783, 69.7715016
7683, 1.2372571, -29.4301763, 70.0402091
7684, 1.46706754, -29.5055137, 70.3109331
7685, 1.13336814, -29.6827447, 70.0396394
7686, 0.499986765, -23.319301, 72.7788896
7687, 1.08874988, -23.7372221, 72.8604806
7688, 1.67541256, -13.4214344, 79.9977372
7689, 1.2053325, -30.7006043, 70.6269627
7690, 1.18087654, -30.9178986, 71.1785778
7691, 1.02798787, -30.4948291, 71.0301064
7692, 0.844049662, -30.7007531, 70.6267186
7693, 0.826107924, -30.9182946, 71.1781994
7694, 1.00017874, -31.1186834, 70.7797956
7695, 1.50002756, -19.4882375, 74.9753308
7696, 1.50001719, -20.134151, 75.0039014
7697, 1.62227316, -19.6416656, 74.6075123
7698, 0.499990195, -21.066055, 77.1588451
7699, 0.605007661, -20.701262, 76.9315705
7700, 1.5000293, -24.7748626, 71.0152241
7701, 1.00000614, -24.5731741, 71.0291653
7702, 1.50001608, -24.1339155, 70.8511662
7703, 1.3775816, -24.4089739, 70.5653186
7704, 0.877560802, -24.207323, 70.5792694
7705, 0.877556519, -24.8482334, 70.7433145
7706, 0.266732901, -12.3923992, 75.9295024
7707, 0.766704221, -12.5773467, 75.6753624
7708, 0.769268762, -19.2969914, 79.8280695
7709, 0.269270114, -19.2062685, 80.2621588
7710, 0.859787351, -19.6001193, 80.104164
7711, 1.73684656, -12.3904734, 76.313595
7712, 0.889184469, -24.4395237, 73.3008478
7713, 0.389168853, -24.3913106, 73.7423437
7714, 1.05532442, -24.2034341, 73.6492103
7715, 1.50098355, -31.5353254, 71.3733695
7716, 1.50082018, -31.3875252, 71.2625487
7717, 1.50035185, -31.3606106, 71.4722907
7718, 0.333270469, -17.5353839, 69.8252638
7719, 0.499907556, -17.7091675, 70.5273156
7720, 0.833290323, -17.6407546, 70.2018984
7721, 0.833280894, -17.1198895, 70.0465893
7722, 0.499847256, -17.1884164, 70.3719658
7723, 1.7645843, -30.43258, 73.8230247
7724, 1.26963439, -30.6942538, 74.0152614
7725, 0.843587354, -24.221217, 71.0702277
7726, 0.843582746, -24.8620941, 71.2342803
7727, 0.721144141, -24.4962926, 70.7843862
7728, 1.50000957, -21.136723, 74.7696686
7729, 0.850902058, -21.1869911, 74.6019114
7730, 0.634485338, -24.5920277, 76.5285382
7731, 1.5907404, -24.76525, 70.5646683
7732, 1.09072061, -25.2043958, 70.7426286
7733, 0.968274817, -24.8386212, 70.2927578
7734, 0.499992572, -20.6969169, 70.6940888
7735, 0.999998679, -20.4951905, 70.795074
7736, 1.13130809, -21.0137661, 70.9217914
7737, 1.50000509, -21.312096, 70.3575298
7738, 1.51074519, -22.0049429, 70.3363479
7739, 0.499900042, -18.1262088, 72.4674731
7740, 0.601759818, -18.3176045, 72.857222
7741, 0.499924673, -25.6925682, 74.2685597
7742, 1.15454046, -25.5119521, 74.1446615
7743, 0.499019182, -30.8010098, 75.4669184
7744, 0.49910729, -31.092407, 75.2981517
7745, 0.499180806, -30.8515101, 74.9231858
7746, 0.499236008, -31.1434842, 74.7535977
7747, 1.50076722, -30.8007474, 75.4674357
7748, 1.50080724, -30.8514871, 74.9233038
7749, 1.41779859, -16.2177987, 73.0281858
7750, 1.664267, -16.1560864, 73.3044083
7751, 0.88920668, -15.8637331, 71.7530673
7752, 0.889739174, -15.5090911, 72.1520594
7753, 0.991142889, -29.8230212, 70.5257411
7754, 1.30880946, -29.9994693, 70.9190084
7755, 1.08359347, -30.0597347, 70.9074066
7756, 1.25274192, -29.5441396, 70.9752626
7757, 1.02505082, -29.6047698, 70.9641322
7758, 0.299826088, -14.702775, 76.1664964
7759, 0.805012293, -14.5885748, 76.0089754
7760, 0.499955688, -18.7271022, 70.9848014
7761, 1.00000722, -18.9100972, 71.1302664
7762, 0.999999911, -18.4223326, 70.7659181
7763, 1.50006062, -18.6066673, 71.4874298
7764, 1.50006784, -18.1189493, 71.1230577
7765, 1.50004542, -18.7270873, 70.9848041
7766, 1.50000891, -22.9618604, 71.5924248
7767, 1.50000698, -22.6023162, 72.1306078
7768, 1.60430399, -23.1914931, 71.9649325
7769, 0.987018219, -27.786092, 74.843532
7770, 1.48732178, -27.6914277, 74.6930477
7771, 0.942072564, -27.7732295, 74.3863952
7772, 0.499818742, -17.4237155, 77.9649156
7773, 0.583224077, -17.8686687, 77.9224202
7774, 0.499994641, -22.5682854, 79.2381138
7775, 0.610772834, -22.9058969, 78.9844815
7776, 0.499965671, -24.8320669, 76.9582037
7777, 0.386364579, -24.9106965, 76.5444335
7778, 1.020927, -25.0268305, 76.3741412
7779, 1.13452907, -24.9482817, 76.7879244
7780, 1.00129179, -28.54418, 78.2317793
7781, 1.50068741, -28.1745426, 78.305171
7782, 1.50012072, -17.7157263, 76.8639423
7783, 1.50011968, -17.7578035, 76.3346906
7784, 1.54691548, -18.1994056, 76.4927961
7785, 0.330767818, -30.6444078, 71.2052829
7786, 0.327364262, -30.7220817, 71.3628481
7787, 0.319096478, -31.0326774, 70.9031222
7788, 0.31942847, -31.1083641, 71.0627121
7789, 0.650771163, -30.7290312, 71.084925
7790, 0.49966461, -12.6199532, 78.7240978
7791, 0.499663744, -12.4720499, 78.6138162
7792, 0.500378584, -12.6474306, 78.5139313
7793, 1.00006674, -28.6866793, 75.3236117
7794, 1.01025745, -29.1092731, 75.0111573
7795, 0.499978157, -24.1103925, 76.3908106
7796, 1.13452259, -24.3908629, 76.5689659
7797, 0.648109905, -17.5317567, 73.9372691
7798, 1.14828162, -17.30032, 74.3088417
7799, 1.1482555, -17.5466817, 73.7332328
7800, 1.66696752, -30.3196276, 69.6558756
7801, 1.66706587, -30.2052224, 69.8224691
7802, 1.66698578, -30.1937935, 69.6593963
7803, 1.66811213, -15.196528, 80.1970571
7804, 1.53610299, -14.8398055, 79.6855568
7805, 0.650290482, -16.5487041, 71.8335816
7806, 1.15058326, -16.1141647, 71.6308429
7807, 1.15062015, -16.7399345, 71.7804896
7808, 0.238168499, -30.4355892, 73.8220057
7809, 0.733285619, -30.6971275, 74.0139593
7810, 1.50048661, -15.3503423, 74.863741
7811, 1.48634661, -15.2137708, 74.3716045
7812, 1.50040385, -16.0642305, 78.437787
7813, 1.50758004, -15.9383686, 77.84249
7814, 0.900268601, -15.9070782, 77.8925789
7815, 0.891493266, -16.0320794, 78.4877606
7816, 0.499864221, -17.624375, 78.3133806
7817, 0.583271812, -18.0693833, 78.2708803
7818, 0.560822104, -14.4924614, 74.2850581
7819, 0.790915765, -14.4717158, 73.9922798
7820, 1.04741844, -14.9271124, 74.2739513
7821, 1.19139611, -30.2719175, 69.9964373
7822, 1.74155755, -30.3911941, 70.1730775
7823, 1.40803164, -30.4468637, 69.8670502
7824, 1.26611872, -30.4586436, 70.345709
7825, 0.499882273, -26.1594857, 76.983259
7826, 0.499853662, -26.3820003, 76.6739832
7827, 0.499862386, -26.2531287, 76.104851
7828, 0.499887287, -26.0305324, 76.4141067
7829, 0.285392824, -28.5296769, 72.788952
7830, 0.503226709, -28.538488, 72.9455082
7831, 0.501266638, -28.0734327, 73.1663358
7832, 1.51931817, -27.1304696, 78.1820407
7833, 1.50066082, -27.3999704, 78.7988412
7834, 1.68872977, -28.8305751, 76.6531274
7835, 1.50055828, -28.419387, 76.3701554
7836, 0.796778087, -29.3967747, 75.9642104
7837, 0.815580444, -28.9331896, 76.1201501
7838, 0.613164064, -29.0913501, 76.033174
7839, 0.814841723, -28.8539089, 75.6063915
7840, 0.311284149, -28.8304795, 76.6531006
7841, 0.49935876, -28.419047, 76.3697432
7842, 0.499899417, -17.9534397, 76.0110558
7843, 0.546763276, -18.3952317, 76.1691228
7844, 1.68153873, -28.835846, 78.343239
7845, 1.50086865, -28.39786, 78.5637505
7846, 0.454707382, -27.7529793, 73.9522751
7847, 0.593873384, -27.3013624, 73.7077521
7848, 1.72409393, -28.5305701, 72.7977128
7849, 1.49741494, -28.5396389, 72.9449281
7850, 1.49911213, -28.0740135, 73.1660655
7851, 1.50399618, -14.7471029, 75.487786
7852, 1.36450631, -14.8256425, 75.1305734
7853, 1.68847048, -15.1466433, 71.7006681
7854, 1.5005875, -15.5809879, 71.4638007
7855, 0.535082996, -14.9740739, 79.4265854
7856, 1.59511449, -18.3666395, 70.8065492
7857, 1.09506027, -18.0619921, 70.5876185
7858, 1.09505684, -18.6700775, 70.4494129
7859, 0.331959261, -28.3748161, 80.1710025
7860, 0.831981193, -28.8799613, 79.9945748
7861, 0.499983332, -23.708038, 72.8246245
7862, 1.48640085, -15.5472858, 74.1322006
7863, 1.4181624, -15.9340365, 74.2914685
7864, 1.50040556, -29.2883586, 79.7109815
7865, 0.331908109, -28.8029881, 69.803052
7866, 0.466038418, -29.1100208, 70.3430749
7867, 0.499968651, -19.1113287, 70.3934017
7868, 1.1536201, -26.8405001, 79.8672066
7869, 1.15397126, -27.3461772, 79.9297015
7870, 1.80921698, -31.3274927, 79.2640534
7871, 1.50028959, -16.696971, 74.2802368
7872, 1.50028697, -16.4249873, 73.8520587
7873, 0.917764071, -16.3066845, 74.0614036
7874, 1.41806782, -16.2740207, 74.2409259
7875, 0.507815088, -16.5732174, 77.5265186
7876, 0.49976963, -17.1372432, 77.7699786
7877, 0.641450765, -16.9369814, 77.3916021
7878, 1.14167842, -17.0304566, 77.5996877
7879, 1.14997304, -16.4672276, 77.3558298
7880, 1.66801646, -15.5974568, 80.1289508
7881, 0.319843705, -28.8345656, 78.3414432
7882, 0.501436638, -28.3978276, 78.5637752
7883, 0.524184261, -16.9655611, 76.6629091
7884, 0.524223847, -16.5903313, 76.7512859
7885, 0.641432058, -17.0062819, 77.055122
7886, 0.64137127, -16.6313803, 77.1435912
7887, 1.16622745, -16.7894897, 76.8286898
7888, 1.36429853, -14.9994836, 74.7520683
7889, 0.499881538, -27.4128521, 71.9037618
7890, 1.50048625, -27.4131074, 71.9038779
7891, 0.499989368, -23.1311816, 78.2248726
7892, 0.610771376, -23.0885218, 78.6450068
7893, 1.00843231, -15.6137008, 77.6552236
7894, 1.23306044, -15.6327149, 77.5033979
7895, 0.486731797, -27.3654094, 74.7817438
7896, 1.15119177, -27.4539049, 74.9486874
7897, 1.50000783, -21.4590292, 77.1795701
7898, 1.39004103, -21.8258803, 76.947327
7899, 0.386333565, -25.6650555, 76.6226696
7900, 1.00004427, -30.7417377, 73.9896223
7901, 1.00002716, -30.1595967, 73.8967537
7902, 1.23711976, -14.1271516, 70.9003043
7903, 1.1942405, -14.6761726, 70.9694121
7904, 1.01755185, -14.3656373, 71.0336685
7905, 0.822949624, -14.6782661, 70.6168316
7906, 0.332980936, -30.6946898, 69.8277183
7907, 0.333101676, -30.6901515, 69.712023
7908, 0.333094821, -30.7773497, 69.7465634
7909, 1.65351475, -27.9039796, 76.8032531
7910, 0.590495958, -20.0024541, 79.8014706
7911, 1.50050175, -27.4424871, 72.2777307
7912, 1.34994887, -27.1473741, 72.7180841
7913, 0.499906615, -25.9378519, 77.2946463
7914, 0.499930705, -25.3646442, 77.3477931
7915, 0.499925557, -25.586354, 77.036456
7916, 1.50008687, -25.9378444, 77.2946389
7917, 1.50006777, -25.3646407, 77.347788
7918, 1.65348574, -27.5401321, 76.7849584
7919, 1.048746, -27.3764288, 76.6829615
7920, 0.499933493, -18.3075113, 70.8291714
7921, 0.499957073, -18.9157538, 70.6909038
7922, 0.395104367, -27.5050232, 76.6058751
7923, 1.55648714, -14.1379872, 75.9807757
7924, 1.69785023, -13.8868331, 76.0029897
7925, 1.40885359, -14.0490503, 75.4589386
7926, 0.969446472, -14.0705534, 75.8253627
7927, 0.332949502, -30.2051926, 69.8223799
7928, 0.857873205, -30.2718738, 69.9962766
7929, 1.50000652, -21.7958537, 71.8299998
7930, 1.00000059, -21.9844771, 71.8796755
7931, 1.50000676, -21.9816147, 72.4097017
7932, 1.61521306, -21.5691976, 72.4171924
7933, 1.00026128, -27.2772138, 72.0906839
7934, 0.731734367, -14.9467855, 78.8293201
7935, 1.00005896, -14.9942203, 78.80634
7936, 0.765307568, -14.503167, 79.02282
7937, 1.03554142, -14.5535316, 78.9974327
7938, 0.499983869, -20.2896948, 75.3566747
7939, 1.00000283, -19.8789359, 75.5889964
7940, 0.499980581, -19.8531146, 75.8110449
7941, 0.650396404, -20.2393773, 75.8004038
7942, 1.15041128, -20.2651558, 75.5783545
7943, 1.66265308, -28.5325654, 74.0128479
7944, 0.499724482, -16.9820538, 74.4398173
7945, 1.66721596, -31.8746787, 71.1929688
7946, 1.66738824, -31.8403386, 71.3257981
7947, 1.66752603, -31.6921603, 71.2148466
7948, 0.332924135, -12.1254233, 78.8069991
7949, 0.332833117, -12.308144, 78.784982
7950, 0.33287613, -12.1597888, 78.6742251
7951, 0.49999184, -21.0912064, 70.713637
7952, 0.631297944, -21.0811773, 71.1111476
7953, 0.499972877, -24.2745675, 76.7392509
7954, 1.50004617, -25.1435415, 77.6471551
7955, 0.999998259, -25.5134028, 77.6075966
7956, 0.49995286, -25.1435431, 77.6471563
7957, 0.499820732, -17.3672267, 76.9217358
7958, 1.02445616, -17.150542, 76.6953579
7959, 1.14170415, -17.1907436, 77.0876023
7960, 1.50078669, -27.7558259, 72.0867773
7961, 1.12760489, -15.7331041, 80.0671811
7962, 1.45993709, -16.0810137, 79.6957067
7963, 0.499853028, -26.3317762, 71.1555152
7964, 1.50017326, -26.3318213, 71.1554833
7965, 0.518716788, -27.1305899, 78.1820609
7966, 0.353679016, -27.5133707, 78.1217074
7967, 0.499828947, -17.5317964, 70.7800154
7968, 0.499802005, -17.0111504, 70.6245491
7969, 1.50016013, -17.5317979, 70.7800147
7970, 1.50019612, -17.0111406, 70.6245555
7971, 1.50008283, -18.2461832, 76.9599005
7972, 0.499863395, -17.3680723, 74.4803081
7973, 0.648132529, -17.6670455, 74.2603848
7974, 1.50005591, -25.465021, 74.5778347
7975, 1.50003303, -24.8794277, 74.626329
7976, 1.61401539, -25.3787451, 74.9894527
7977, 0.499972829, -19.4698785, 75.769303
7978, 0.499981797, -19.9064334, 75.3149372
7979, 0.499967025, -19.2605449, 75.286359
7980, 1.00000235, -19.2330988, 75.5604206
7981, 1.50002672, -19.4698748, 75.7693068
7982, 1.50001872, -19.9064323, 75.3149383
7983, 1.50003487, -19.2605384, 75.2863635
7984, 1.50008558, -25.6898623, 77.7377918
7985, 0.99999189, -26.0863654, 77.5544426
7986, 0.499911483, -25.6898708, 77.7377973
7987, 1.46431668, -25.027587, 79.7373237
7988, 1.50005571, -25.4483259, 79.4948748
7989, 1.63200636, -25.7026369, 79.7968096
7990, 1.1319861, -25.6387485, 79.4571237
7991, 1.09626339, -25.2180969, 79.6995452
7992, 1.50007978, -18.6087602, 76.9433971
7993, 1.54691798, -18.5620095, 76.4762985
7994, 1.50001681, -20.0725685, 77.3931281
7995, 1.50001318, -20.4914572, 77.9025321
7996, 1.60502921, -20.4836445, 77.2677576
7997, 0.333076259, -30.5662888, 69.669965
7998, 0.332974321, -30.5708141, 69.7856368
7999, 0.332994299, -30.4479597, 69.6813247
8000, 0.499863161, -17.3634814, 75.783798
8001, 0.999996336, -17.1471523, 75.6900249
8002, 0.499785878, -16.874471, 75.5781918
8003, 0.524217105, -16.9196935, 76.0542124
8004, 1.02446971, -16.7037209, 75.9602188
8005, 1.02445157, -17.1923233, 76.1661052
8006, 0.499817328, -17.2978378, 77.2580385
8007, 0.49999426, -22.3630981, 77.988663
8008, 0.499991728, -22.9432173, 77.8866168
8009, 0.631567505, -22.4922515, 77.6151121
8010, 1.13157417, -22.6795584, 77.7323689
8011, 1.13157513, -22.0994479, 77.8344182
8012, 0.49996388, -24.7829714, 75.508379
8013, 0.49996787, -24.6511939, 74.9365183
8014, 1.50004173, -25.0112008, 75.1981783
8015, 0.499977385, -24.1938974, 75.5575024
8016, 0.390234707, -24.2760249, 75.1390304
8017, 0.606227973, -21.007307, 78.5350349
8018, 0.499991455, -20.8743501, 77.9270025
8019, 0.49998958, -20.6674131, 78.2717327
8020, 1.10623687, -20.8820586, 78.3682102
8021, 0.499969019, -19.2872627, 73.9112804
8022, 1.50002902, -24.5551436, 75.8208499
8023, 1.50002083, -23.9660487, 75.8699751
8024, 0.499984169, -20.1044481, 77.8252188
8025, 0.49997637, -19.6855841, 77.3158158
8026, 0.402728262, -19.7160843, 77.9773467
8027, 1.00026407, -15.7451993, 75.6372709
8028, 0.499991, -20.5113468, 79.2327703
8029, 0.499989657, -20.4163698, 78.6160738
8030, 0.402732553, -20.0280011, 78.7682001
8031, 1.46430498, -24.2694986, 79.7277258
8032, 1.50001277, -23.9434456, 79.3676854
8033, 0.963622719, -23.5815181, 79.2771254
8034, 1.46363116, -23.6339076, 79.7248702
8035, 0.92791389, -23.9075751, 79.6371658
8036, 1.5003007, -26.8480891, 72.3407363
8037, 0.84967051, -26.9828421, 72.5311048
8038, 0.499985898, -20.4553064, 73.8052438
8039, 0.999999419, -20.4802491, 73.5842938
8040, 0.499985814, -20.5041172, 73.3630479
8041, 0.970876738, -29.3949187, 70.0401383
8042, 1.50005451, -25.3202708, 75.8992878
8043, 1.00000449, -25.5197399, 75.8063574
8044, 0.886398652, -25.1540539, 76.0148747
8045, 1.69957434, -15.4007062, 72.417738
8046, 1.09459565, -15.5455551, 72.3306621
8047, 1.14831678, -17.0282204, 73.8804283
8048, 1.64840908, -17.2095755, 73.8764981
8049, 0.733697616, -29.2423179, 79.9948098
8050, 0.81175743, -29.3071948, 79.3497903
8051, 1.00008551, -16.1571557, 75.3000776
8052, 1.19327598, -16.3545869, 75.5354908
8053, 1.50003487, -19.133095, 73.5611834
8054, 1.50003317, -19.3810478, 73.0318904
8055, 1.611961, -19.7003861, 73.3088869
8056, 1.50000789, -22.9301939, 72.7335625
8057, 1.50000783, -22.365264, 72.4623055
8058, 0.238525287, -30.5032957, 78.8116624
8059, 0.334880661, -30.2616107, 78.8632056
8060, 0.364665294, -30.7353882, 79.1894345
8061, 0.698104121, -30.4730826, 78.9978676
8062, 0.599486246, -30.7058588, 78.9379201
8063, 0.799774455, -29.68275, 70.0395051
8064, 0.46598587, -29.5055648, 70.3106591
8065, 1.50000668, -21.9146698, 74.8525473
8066, 1.50000753, -22.487072, 75.030713
8067, 0.499992947, -21.7559563, 74.4956248
8068, 0.499993288, -22.3283581, 74.6737898
8069, 1.50002406, -19.6888066, 73.7315605
8070, 1.50001891, -19.9994824, 74.4320059
8071, 1.50001596, -20.2272938, 74.1200135
8072, 1.50001415, -20.3619619, 74.6919098
8073, 0.49998829, -20.8304422, 72.1664119
8074, 0.615197815, -21.1784091, 72.3879246
8075, 0.39150458, -22.3361057, 74.2453879
8076, 0.499561128, -28.1210992, 74.9633268
8077, 1.50001714, -20.2974889, 78.2326526
8078, 1.40276693, -19.9091583, 78.3847886
8079, 1.6080092, -21.9040557, 75.2815021
8080, 0.639403197, -26.5256441, 76.3419528
8081, 1.50000443, -22.1740294, 79.2341172
8082, 1.50000511, -21.9741787, 78.6623992
8083, 1.60624085, -21.5999951, 78.8741656
8084, 0.827198746, -14.470377, 70.0957774
8085, 0.349180938, -27.7751832, 72.6946834
8086, 0.499954649, -18.985308, 73.2154737
8087, 0.499965161, -19.2332294, 72.6861667
8088, 1.50004569, -18.9852992, 73.2154727
8089, 1.50003898, -19.2332437, 72.6861701
8090, 1.60190583, -18.6680416, 72.9191353
8091, 1.10186284, -18.6177058, 73.3537689
8092, 1.10186813, -18.8655931, 72.82444
8093, 1.65387622, -24.9173658, 71.6698748
8094, 1.65386429, -24.5870866, 71.6930894
8095, 1.34361924, -24.7064424, 71.3707131
8096, 1.34361263, -24.3761748, 71.393933
8097, 0.997432138, -24.7209338, 71.5744838
8098, 1.66768459, -31.641914, 78.465206
8099, 1.66724593, -31.8526502, 78.5576548
8100, 1.31929859, -31.5659462, 78.7064883
8101, 0.499440995, -30.2780414, 79.3216037
8102, 0.833380419, -30.0154361, 79.1189198
8103, 0.31123436, -30.0653199, 79.1321239
8104, 0.64542828, -29.8040085, 78.93476
8105, 1.04575933, -12.5246463, 76.6797236
8106, 0.363183678, -15.016741, 74.4377763
8107, 0.36318342, -14.7317374, 74.5210794
8108, 0.84998827, -15.1668797, 74.5125065
8109, 1.46705983, -28.9745815, 70.6014185
8110, 0.524067666, -16.4246368, 76.4147355
8111, 0.52410936, -16.5731993, 76.0970886
8112, 0.306587916, -16.2232179, 75.6725628
8113, 0.831233918, -16.4003199, 76.011233
8114, 0.306507764, -16.0744769, 75.9898993
8115, 0.498853804, -30.8570664, 74.5652246
8116, 1.50112186, -30.8570711, 74.5652312
8117, 0.499921633, -25.7234913, 75.7158949
8118, 1.11398311, -25.8870913, 75.5975951
8119, 0.499990005, -23.0311428, 77.074562
8120, 0.499987217, -23.6512805, 76.9886033
8121, 0.411369213, -23.5918705, 77.4304826
8122, 0.395438261, -27.0662761, 77.1874024
8123, 0.499743146, -27.4241808, 77.416849
8124, 0.353791345, -27.3649993, 77.7979084
8125, 0.74958316, -27.4176441, 77.3940798
8126, 1.24656025, -13.766263, 70.9032807
8127, 0.910281221, -13.4746663, 70.5410056
8128, 1.0695017, -13.3467814, 71.0285854
8129, 1.42675832, -13.341692, 70.934174
8130, 1.09051735, -13.0487577, 70.5756267
8131, 1.68289458, -15.0994951, 78.2992122
8132, 1.49983489, -15.344369, 78.7572688
8133, 1.18417919, -15.1837642, 78.6344067
8134, 1.07665081, -15.323461, 78.2370592
8135, 0.89187265, -15.5660733, 78.6928206
8136, 1.39147911, -15.4850358, 78.3587853
8137, 1.12092634, -21.3502163, 70.0121384
8138, 1.13166761, -22.0430647, 69.9909564
8139, 1.22621417, -23.9543376, 70.1825425
8140, 1.50001117, -23.9661377, 70.5063215
8141, 1.72621349, -23.9882479, 69.8237666
8142, 1.15486913, -23.6168952, 69.9106192
8143, 1.42866958, -23.6286827, 70.2343917
8144, 1.78533824, -14.1959127, 75.9991835
8145, 1.29013223, -14.5367866, 75.9862247
8146, 1.50405143, -14.4564528, 75.6114186
8147, 1.06273551, -14.4751665, 75.9781983
8148, 0.499512883, -28.36138, 75.2172382
8149, 0.314030335, -28.529493, 75.501925
8150, 1.50004559, -25.0759484, 79.4929857
8151, 1.46431701, -24.6551649, 79.7354531
8152, 0.314066256, -30.7037362, 70.169795
8153, 0.314146951, -30.4665475, 70.2315519
8154, 0.31421557, -30.580837, 70.0654072
8155, 0.546784951, -18.5732307, 75.8039655
8156, 0.646361059, -18.4182664, 75.3908729
8157, 1.19329314, -18.3642286, 75.7987518
8158, 0.646346546, -18.2402767, 75.7560169
8159, 1.6782526, -28.5193536, 75.4968043
8160, 1.69947136, -28.9707113, 75.1734987
8161, 1.34361301, -24.4228573, 71.0562772
8162, 1.67541044, -13.1251076, 79.8901067
8163, 1.6088683, -20.6538403, 74.1405129
8164, 1.1088585, -20.4727142, 74.0113336
8165, 1.10885825, -20.6073791, 74.5832304
8166, 0.999999528, -23.1294293, 74.5409103
8167, 0.499990896, -23.1065501, 74.7630242
8168, 0.499987641, -23.5418683, 74.3616949
8169, 0.890253069, -23.7567984, 74.5203176
8170, 0.390241122, -23.7339622, 74.7424324
8171, 0.890253652, -23.3215007, 74.9216475
8172, 1.04024135, -12.9202635, 70.8321398
8173, 1.37605123, -13.2115465, 71.1880234
8174, 1.40137989, -12.911901, 70.7311626
8175, 1.50023, -16.9113399, 74.0966673
8176, 0.499318203, -12.8571247, 75.2908648
8177, 0.499029156, -13.0795924, 75.5205735
8178, 0.499332611, -12.8103696, 75.6103922
8179, 1.50002681, -19.4636806, 78.9947713
8180, 1.40277012, -19.6495114, 78.6213209
8181, 1.52476306, -30.1528938, 70.5251587
8182, 1.78630937, -29.8730961, 70.9810531
8183, 1.4671782, -29.6936587, 70.578247
8184, 1.00437564, -29.2171343, 79.9949347
8185, 1.00434069, -29.7268493, 80.0400432
8186, 1.50003303, -19.301916, 77.2591681
8187, 1.50004914, -18.7559765, 77.2891573
8188, 1.00000606, -18.8005508, 77.626325
8189, 1.50004222, -18.9438716, 77.7693896
8190, 0.499971015, -19.301918, 77.2591687
8191, 0.499950943, -18.7559816, 77.289151
8192, 0.499954943, -18.9438882, 77.7693857
8193, 1.49984168, -29.0260165, 75.7064584
8194, 1.69359795, -29.2672045, 76.1397718
8195, 1.6775985, -28.7123805, 75.776631
8196, 1.17925727, -16.1208811, 77.1289954
8197, 1.19559671, -16.4427041, 76.6017448
8198, 1.03256575, -16.4266884, 76.9630461
8199, 0.875687081, -15.9142022, 77.166699
8200, 0.891086512, -16.2350715, 76.6394069
8201, 1.03795279, -15.9303415, 76.8043244
8202, 1.73072743, -23.9979233, 80.1577132
8203, 1.19501449, -24.2715773, 80.0700151
8204, 1.19434387, -23.6359731, 80.0671627
8205, 1.11194195, -20.4918673, 73.1616193
8206, 0.646328611, -18.0305021, 75.4988329
8207, 0.594999201, -18.555373, 70.5126432
8208, 1.68773858, -28.64264, 73.1336517
8209, 1.18733565, -28.4911561, 73.2168004
8210, 0.499992941, -21.9714243, 77.9807227
8211, 0.631567404, -22.1005822, 77.6071707
8212, 1.67320935, -17.4176356, 71.4508664
8213, 0.315948984, -28.640195, 73.1313682
8214, 0.81686937, -28.48947, 73.2141264
8215, 0.499871968, -26.1003938, 75.7538651
8216, 0.613872157, -25.9107467, 75.3785339
8217, 1.00000093, -20.3080727, 71.5485977
8218, 0.499987689, -20.6783344, 71.8073579
8219, 1.13130858, -20.826626, 71.6753157
8220, 0.332957693, -14.2077537, 69.7673634
8221, 0.322475778, -14.3902782, 70.3643987
8222, 1.5004538, -27.7616159, 77.4133266
8223, 1.51938038, -27.3206338, 77.855349
8224, 1.50000693, -21.8517683, 73.6102728
8225, 1.50000775, -21.2791218, 73.4356167
8226, 1.60886294, -21.2715841, 73.8626546
8227, 1.50004892, -18.9157352, 70.6909089
8228, 1.59510015, -18.5552557, 70.5126673
8229, 1.09793487, -19.0595167, 79.4365594
8230, 0.867205789, -18.9625408, 80.1085051
8231, 1.18844617, -19.3626081, 79.7126464
8232, 0.499966101, -24.7351549, 77.7900777
8233, 1.50009878, -18.1261627, 72.4674674
8234, 1.50007836, -18.3377311, 72.1652286
8235, 1.36659121, -18.4984582, 72.5745715
8236, 1.36657416, -18.7100481, 72.2723271
8237, 0.866491362, -18.2902513, 72.3850309
8238, 1.50053424, -28.3614086, 75.2172364
8239, 0.332950537, -29.7834695, 80.2160214
8240, 0.33295367, -30.0300175, 80.227969
8241, 0.499209347, -30.0448253, 79.768313
8242, 0.833049331, -30.0145766, 80.040145
8243, 0.507874086, -16.2681347, 77.2785473
8244, 0.366946337, -16.075752, 76.954762
8245, 1.60430246, -22.9544438, 72.2966315
8246, 1.49995785, -31.2350845, 71.3404623
8247, 0.5979031, -18.9688205, 79.8706646
8248, 1.50020656, -16.7781553, 71.2920982
8249, 1.50018222, -16.6334683, 70.7677981
8250, 1.15065393, -16.5953041, 71.255695
8251, 1.65092519, -16.4545468, 71.430948
8252, 0.318162531, -28.9529302, 75.1485561
8253, 0.40798392, -17.9443008, 74.1321894
8254, 0.40796046, -17.8089107, 73.8090377
8255, 1.05632366, -17.8765453, 73.9606798
8256, 1.50004515, -19.0941514, 72.3220154
8257, 1.36657471, -18.8491199, 72.6364971
8258, 0.866515524, -19.0464795, 72.5418069
8259, 1.61404124, -25.6878128, 75.6905393
8260, 0.499369735, -13.168238, 75.15054
8261, 1.65456852, -25.1067273, 74.3234311
8262, 0.297408488, -28.5050782, 77.2614438
8263, 0.796068854, -28.3338688, 77.3689923
8264, 1.5000072, -21.5966323, 74.1396918
8265, 0.314167579, -30.7863711, 70.0886537
8266, 0.499987424, -20.6241861, 75.8432554
8267, 1.15041231, -20.599635, 76.0649407
8268, 0.46607404, -28.9744132, 70.6010163
8269, 0.290098365, -13.4901555, 70.5688453
8270, 0.598245181, -13.5747867, 70.7939728
8271, 0.310813264, -13.556444, 71.1643414
8272, 0.321706875, -13.9179655, 70.8153787
8273, 0.629729028, -14.0021018, 71.0332785
8274, 1.64200088, -16.5955693, 77.5339596
8275, 0.615316977, -12.6942117, 74.92907
8276, 0.615427913, -13.0050977, 74.7890952
8277, 1.11619425, -12.9954631, 75.2158866
8278, 0.509756806, -28.6919896, 74.3242507
8279, 0.454480854, -28.2586103, 74.1794772
8280, 0.499860281, -17.5585591, 76.0625902
8281, 0.499858716, -17.5165702, 76.5917833
8282, 0.524242397, -17.1147293, 76.3330967
8283, 0.521440327, -27.9606876, 70.2793204
8284, 0.865011024, -30.4853003, 79.454305
8285, 1.00398062, -30.2071683, 78.9248811
8286, 1.03438209, -30.6788957, 79.2529089
8287, 1.16997871, -30.2221441, 79.381385
8288, 0.631298784, -21.2457257, 71.472063
8289, 1.13130764, -21.4012201, 71.3096401
8290, 1.69332612, -28.5045109, 77.2620304
8291, 1.49707732, -29.09717, 76.2103026
8292, 0.48554928, -15.5469236, 74.1318258
8293, 1.50012418, -26.2184361, 74.6564076
8294, 0.321350273, -15.1775284, 73.3416546
8295, 0.803597061, -15.1603805, 73.6550457
8296, 0.737299394, -15.4236553, 73.1191843
8297, 1.33555047, -31.0347932, 78.5471167
8298, 1.34949696, -31.4681491, 78.3422146
8299, 1.00259849, -31.6555025, 78.6284813
8300, 1.01905014, -31.1234206, 78.46797
8301, 0.988927152, -31.2207328, 78.8334007
8302, 1.50000743, -22.2327446, 75.557301
8303, 1.34991728, -27.1483268, 73.0311071
8304, 1.59445704, -27.4669536, 73.3311212
8305, 0.94368454, -27.2850289, 73.3096622
8306, 1.59441491, -27.151713, 73.4317239
8307, 0.499993303, -22.0110929, 73.966206
8308, 0.386346554, -25.3578532, 75.9244168
8309, 1.6638747, -15.811884, 73.2761863
8310, 1.50002024, -23.9280815, 74.4060378
8311, 1.6661503, -24.3319222, 74.2701641
8312, 1.16613542, -23.9685185, 74.0037082
8313, 1.05638862, -24.1605623, 74.384445
8314, 0.454727395, -27.9273218, 74.2277486
8315, 0.499987682, -20.7792473, 76.1971173
8316, 1.77078933, -29.175518, 69.8030991
8317, 1.63454336, -24.4279643, 76.1801041
8318, 0.486679941, -27.691525, 74.6929976
8319, 0.454679617, -28.1085794, 74.5061127
8320, 0.33301414, -30.1937937, 69.6593584
8321, 0.333029763, -30.3196452, 69.6558884
8322, 1.10377398, -24.229448, 69.8967163
8323, 0.806220328, -23.8699035, 70.3073479
8324, 0.500043014, -12.7725444, 78.6467837
8325, 1.50015469, -17.3980795, 77.6534583
8326, 1.50015436, -17.5586357, 77.1416273
8327, 1.5834749, -17.8426719, 77.6110064
8328, 0.483328289, -26.3387363, 75.3222745
8329, 0.483353176, -26.1885159, 74.9739121
8330, 1.09745136, -26.1253524, 75.1660227
8331, 0.499993602, -21.766355, 76.1827016
8332, 0.499993116, -21.401731, 75.9224176
8333, 0.499992505, -21.1658395, 76.2388879
8334, 1.66443973, -16.0891663, 73.8198838
8335, 1.08190956, -15.9717715, 74.0298666
8336, 0.499915534, -25.6374883, 72.6164975
8337, 0.455277451, -25.6965402, 73.1464855
8338, 1.5000089, -21.1191335, 73.0912785
8339, 1.50000691, -21.6917787, 73.2659349
8340, 1.50001058, -20.6768493, 75.3990145
8341, 1.50000927, -21.0113479, 75.8855978
8342, 1.60801096, -21.2831675, 75.5536102
8343, 0.499757938, -28.2681687, 73.3922365
8344, 0.350890649, -20.3887012, 74.7455469
8345, 0.850900229, -20.4354028, 74.3043732
8346, 1.50001028, -23.1533165, 74.3170002
8347, 0.851075834, -13.76702, 70.8979171
8348, 1.50001177, -23.7662341, 71.0581857
8349, 1.50000918, -23.2447598, 71.3171317
8350, 0.395355571, -26.7758265, 76.5102934
8351, 1.03516122, -26.8712185, 76.6153303
8352, 1.50001061, -23.2615865, 76.7925623
8353, 1.50001671, -23.8817135, 76.7066017
8354, 1.60979183, -23.3582136, 76.378365
8355, 0.332920975, -30.3336374, 69.8479103
8356, 0.647811732, -30.6505222, 69.9514439
8357, 0.499985187, -20.5197903, 75.0440285
8358, 0.350893272, -20.7743578, 74.7856711
8359, 1.06490934, -14.6339705, 75.0101441
8360, 1.56182487, -14.5846395, 74.8915146
8361, 0.925109831, -14.7123584, 74.6542133
8362, 1.68536346, -15.3551142, 78.1875467
8363, 0.319037645, -12.8220788, 79.3138481
8364, 1.50000837, -22.6468269, 75.3827924
8365, 1.50000765, -22.392502, 75.9093806
8366, 1.02446023, -16.2926501, 76.2983486
8367, 0.499509446, -15.9677969, 76.2764365
8368, 0.499767815, -27.0391414, 75.78465
8369, 0.483278973, -26.7090431, 75.372055
8370, 0.485650713, -15.5225703, 74.4458419
8371, 0.499737411, -15.6598361, 74.9388185
8372, 0.417377172, -15.9093323, 74.6054472
8373, 1.6043051, -23.4743919, 71.6896408
8374, 1.10429749, -23.6403845, 71.496565
8375, 1.12225981, -19.1327524, 73.995973
8376, 0.499865486, -26.5365375, 71.7437099
8377, 0.229185334, -14.4295221, 80.2284237
8378, 0.324892569, -14.2232314, 79.8847267
8379, 1.00010129, -28.6973812, 75.890779
8380, 0.999970492, -28.7778959, 76.4035647
8381, 1.17762489, -28.3829104, 75.9604608
8382, 1.00000275, -24.064243, 71.388005
8383, 1.50001582, -23.8982558, 71.5810828
8384, 1.39186387, -15.744207, 78.6033065
8385, 0.499985209, -23.891961, 78.713654
8386, 0.499988078, -23.5116911, 78.2556251
8387, 0.41136785, -23.9237388, 78.0854068
8388, 1.69430894, -28.9751466, 76.3488174
8389, 1.37027552, -28.7936791, 76.2420019
8390, 0.499946235, -25.4373142, 71.3314678
8391, 0.999999313, -25.4140611, 71.8023827
8392, 0.499926736, -25.6374273, 71.9406773
8393, 0.64088273, -25.8380534, 71.5986125
8394, 1.14098437, -25.8148803, 72.0695668
8395, 1.14097497, -25.614873, 71.4603551
8396, 0.856014419, -30.3119727, 70.9363736
8397, 1.50032014, -15.603129, 79.0017278
8398, 0.459472084, -16.6928484, 79.4823731
8399, 0.499976697, -19.5675245, 71.2581662
8400, 0.499965438, -19.0994786, 71.039063
8401, 1.50002399, -19.7766429, 70.9440734
8402, 1.5000256, -19.5675229, 71.258165
8403, 1.50003817, -19.0994678, 71.0390647
8404, 1.50002608, -19.3085516, 70.7249812
8405, 0.499991317, -22.7945388, 77.360477
8406, 1.13157485, -22.5308834, 77.2062307
8407, 1.62228119, -19.3309915, 73.9070723
8408, 0.390242985, -23.5036687, 75.0540537
8409, 0.833391569, -12.3300061, 78.7002424
8410, 1.69339906, -16.3696696, 75.3410413
8411, 0.593820126, -27.4755481, 73.9834366
8412, 0.266761012, -31.6918572, 75.7598003
8413, 0.766897534, -31.4107494, 75.6658154
8414, 0.49885946, -31.1018124, 75.6481145
8415, 0.372307786, -31.3508458, 75.9352054
8416, 0.873060658, -31.0699151, 75.8399803
8417, 0.639916319, -31.6591807, 75.9531549
8418, 1.50006121, -18.773634, 71.8427359
8419, 0.866522136, -18.7260317, 72.0625092
8420, 1.59512521, -17.9568138, 70.2108745
8421, 1.26792494, -18.010493, 69.8855175
8422, 0.499716898, -16.6401853, 72.1744972
8423, 1.15049543, -16.5097527, 72.260203
8424, 1.00000556, -19.1101752, 72.1122004
8425, 1.16700067, -31.67784, 71.2861999
8426, 1.64859904, -23.0705634, 74.8077452
8427, 1.14859402, -23.4819727, 74.6303258
8428, 1.60886505, -20.8116722, 74.4926308
8429, 1.50001155, -20.5989057, 72.4782734
8430, 1.00000159, -20.7819326, 72.6045425
8431, 1.50001031, -20.7313093, 73.0514864
8432, 1.61195443, -20.3088137, 73.0353511
8433, 1.11194139, -20.3594706, 72.5884038
8434, 1.50001448, -23.6122687, 73.7039733
8435, 1.50001311, -23.4799237, 73.1351273
8436, 0.391500474, -23.1143071, 74.334623
8437, 0.366474836, -18.8489374, 72.6364957
8438, 0.866513001, -18.798606, 73.0711256
8439, 1.00011509, -13.3633286, 75.0623467
8440, 0.49932616, -13.3730008, 74.6359256
8441, 1.11573871, -13.2001778, 74.7014977
8442, 1.37757875, -24.2412176, 70.2204825
8443, 0.499982353, -20.2272908, 74.1200119
8444, 0.608844121, -20.6538679, 74.140515
8445, 1.50001696, -23.5418666, 74.3616947
8446, 1.390274, -23.7339158, 74.7424306
8447, 1.02902741, -29.852884, 69.9874802
8448, 1.63457932, -25.1931623, 76.258546
8449, 1.50002643, -19.1113165, 70.3934016
8450, 1.59157012, -19.906821, 70.5469145
8451, 1.59157045, -19.7095883, 70.2153436
8452, 0.499993662, -21.9816167, 72.4097027
8453, 0.615199611, -21.5692066, 72.41719
8454, 0.49998678, -20.5989039, 72.4782737
8455, 0.499987289, -20.7313152, 73.0514865
8456, 0.71956904, -20.4312654, 72.7727315
8457, 0.219566795, -20.2481753, 72.6464651
8458, 0.719568359, -20.2988633, 72.1995154
8459, 0.499899798, -17.9079175, 70.7651162
8460, 0.594975118, -18.1557231, 70.448589
8461, 1.62092867, -21.6385295, 69.8453868
8462, 1.03884814, -23.6740356, 75.0110626
8463, 1.50000811, -21.2313605, 77.5195045
8464, 1.00000039, -21.6132376, 77.7489409
8465, 1.50000654, -21.5884153, 77.9785338
8466, 1.60624161, -21.2142308, 78.1903025
8467, 1.10623709, -21.2390672, 77.9607106
8468, 0.61192335, -20.3088572, 73.0353483
8469, 0.391650612, -16.0345994, 78.0700059
8470, 1.68125948, -31.1781266, 70.6854143
8471, 1.60193603, -18.317352, 72.8572095
8472, 0.968372667, -18.4815259, 72.7747763
8473, 0.818505887, -29.2786538, 75.2547282
8474, 0.959759331, -20.861962, 74.3248747
8475, 1.00000556, -25.7440259, 71.0853057
8476, 1.50005631, -25.5868943, 70.984165
8477, 1.50007772, -26.116973, 70.876266
8478, 1.09073881, -25.7344997, 70.6347539
8479, 1.59076271, -25.5773832, 70.5336303
8480, 0.91175416, -14.3905213, 75.4535926
8481, 0.811909929, -29.5177345, 78.8664072
8482, 0.552336873, -29.5566236, 78.88421
8483, 1.44772874, -29.5566413, 78.8840989
8484, 1.1883451, -29.5186635, 78.8646579
8485, 1.16688015, -30.0146619, 80.0400906
8486, 1.50058492, -30.0449201, 79.7682617
8487, 1.66702611, -30.0300452, 80.227915
8488, 1.41267411, -30.2460706, 80.1517227
8489, 1.74606933, -30.2764312, 79.8788683
8490, 1.24595816, -30.2613578, 79.6925469
8491, 0.499947722, -25.2718425, 71.6534137
8492, 0.499935664, -25.4720064, 72.2626246
8493, 1.15385198, -25.2729667, 72.1426081
8494, 0.653800028, -25.1306354, 71.9936277
8495, 1.15385565, -25.0728558, 71.5334166
8496, 0.49998828, -23.3833417, 74.0094458
8497, 0.499989423, -23.2509988, 73.4406032
8498, 0.391501294, -22.9557767, 73.9823752
8499, 0.499990221, -20.930192, 76.5677866
8500, 0.499992294, -21.3017068, 76.8299459
8501, 1.60978989, -22.8129707, 75.9732717
8502, 0.4995906, -29.2883951, 79.710936
8503, 1.67827204, -28.8456182, 75.4699309
8504, 1.6995214, -29.2973226, 75.1481118
8505, 0.499924066, -18.392271, 77.2527643
8506, 1.08337141, -18.3664292, 77.5195135
8507, 1.50001825, -24.0872349, 71.1888154
8508, 1.50030477, -16.1508519, 71.1429474
8509, 0.95047602, -27.173317, 70.7091707
8510, 1.45061922, -26.9891346, 70.6759795
8511, 0.950432629, -26.5991443, 70.6491265
8512, 0.318922483, -12.8939832, 78.9352601
8513, 0.818802631, -12.759078, 78.9305422
8514, 1.70193412, -15.4961704, 72.7192094
8515, 1.49648074, -15.4835473, 72.9
8516, 0.92014026, -15.5066023, 72.9526119
8517, 1.12135503, -15.5404099, 72.7775888
8518, 0.631566296, -22.3274209, 77.2929513
8519, 0.509484075, -29.338297, 74.2975785
8520, 0.243739418, -29.5641478, 73.8319721
8521, 0.738682323, -29.6299084, 73.9139765
8522, 0.499564871, -29.6877871, 74.1846703
8523, 1.01054621, -29.4064101, 74.3747471
8524, 1.50000484, -22.1682825, 78.3194881
8525, 1.50000517, -22.3681325, 78.8912074
8526, 0.499721489, -16.6969212, 74.2802349
8527, 0.499666336, -16.424961, 73.8520906
8528, 0.417432732, -16.2733005, 74.2406635
8529, 1.00090641, -30.4095904, 75.9403582
8530, 0.49993039, -18.3491276, 75.0132442
8531, 0.49990989, -18.0414931, 74.8234191
8532, 0.646337745, -18.1106407, 75.2010171
8533, 1.14644361, -18.1402316, 75.0080617
8534, 1.74119747, -15.2059802, 76.7061731
8535, 1.24627027, -15.4302098, 76.5505874
8536, 1.50015487, -17.5165318, 76.591796
8537, 1.50014413, -17.5585481, 76.0626017
8538, 0.388663203, -16.2966486, 71.9567713
8539, 1.03971307, -16.1677847, 72.0416141
8540, 0.499826414, -30.4896461, 75.5986635
8541, 0.356506461, -30.0158511, 75.6419731
8542, 1.24651557, -21.1745759, 71.8968319
8543, 0.518848027, -26.620681, 77.8345297
8544, 0.499824059, -26.3111003, 77.3271967
8545, 0.49988086, -26.0632673, 77.7703759
8546, 1.50017059, -26.3110895, 77.3271648
8547, 1.51916058, -26.6206934, 77.8344855
8548, 1.50011318, -26.0632432, 77.7703693
8549, 0.955355227, -25.2883112, 73.3213418
8550, 0.214114071, -31.4557636, 79.3160714
8551, 1.69470084, -30.8625476, 76.3929007
8552, 1.49583334, -30.7392083, 76.2547056
8553, 1.37186946, -31.0529842, 76.049298
8554, 0.875041163, -30.9981341, 76.3443585
8555, 1.06894465, -31.1322468, 76.4684896
8556, 0.849615407, -26.9629204, 73.0817612
8557, 1.50021235, -26.8289099, 73.2040608
8558, 1.09415084, -26.9654025, 73.4824731
8559, 0.269272759, -19.602376, 80.1973235
8560, 1.53632925, -14.9738043, 79.4261179
8561, 0.499713424, -27.6210272, 73.4771655
8562, 0.499473024, -27.7616721, 77.4131684
8563, 0.499594641, -27.6403652, 77.1143267
8564, 0.39523252, -27.4047495, 77.1837924
8565, 0.395205296, -27.282958, 76.8852628
8566, 1.68074276, -31.1083077, 71.0628447
8567, 1.18049354, -31.2471041, 71.0569365
8568, 0.499993439, -21.6143664, 77.5216925
8569, 1.13157581, -21.742396, 77.3753866
8570, 1.50015457, -17.4237548, 77.9648889
8571, 1.58347996, -17.8684022, 77.9223654
8572, 1.67560848, -13.1366361, 79.5811472
8573, 0.499991407, -20.7623953, 78.8884294
8574, 1.61078601, -22.7057543, 78.6375697
8575, 0.364526425, -13.0384604, 70.9666708
8576, 0.593780865, -12.7906025, 70.8390449
8577, 0.22831535, -12.7749384, 71.1329927
8578, 0.45821734, -12.8252051, 71.3505493
8579, 0.686115505, -12.5777922, 71.2219516
8580, 0.822800333, -12.8418806, 71.0591168
8581, 1.26848228, -14.9475023, 78.8293504
8582, 1.30561679, -14.5038002, 79.0207335
8583, 1.50002192, -24.2192521, 71.7117148
8584, 0.843585789, -24.353201, 71.5931278
8585, 0.499366218, -13.6203108, 74.8465698
8586, 0.499291057, -13.4148449, 75.3606237
8587, 0.928364217, -17.8883255, 69.8854969
8588, 0.594982918, -17.9569402, 70.2108292
8589, 1.61521439, -21.3346789, 72.7395798
8590, 1.50027713, -16.7098063, 74.0114324
8591, 0.499703246, -16.7097545, 74.0114227
8592, 0.889192168, -23.7996695, 73.7850828
8593, 1.38920873, -23.8471904, 73.3494749
8594, 0.889192284, -23.6673339, 73.2162378
8595, 1.50013542, -17.3634631, 75.7838267
8596, 1.50021302, -16.8744597, 75.5781916
8597, 1.52468663, -16.9195562, 76.0542336
8598, 0.518773038, -26.9823059, 77.858454
8599, 1.10502097, -20.7555309, 76.4715774
8600, 1.50003444, -19.458338, 72.374317
8601, 1.50003974, -19.137796, 71.8950479
8602, 1.69822505, -13.5568672, 71.1660684
8603, 0.39002794, -21.6685485, 76.5977026
8604, 1.15385096, -24.5639958, 71.8922702
8605, 0.502856013, -29.0970767, 76.2102255
8606, 0.297474986, -29.2673965, 76.1397272
8607, 0.31456403, -28.7223058, 75.7817338
8608, 0.556429275, -14.4451165, 70.0963843
8609, 0.499806624, -26.8215349, 76.085923
8610, 1.00000174, -26.6448203, 75.9539353
8611, 1.13963874, -26.9173242, 76.1908764
8612, 1.60801023, -21.4376597, 75.9069009
8613, 0.335186226, -31.326766, 78.791346
8614, 0.335263566, -31.5073667, 78.6841282
8615, 0.335433643, -31.4973299, 78.8724086
8616, 1.16968776, -31.5547327, 78.1844608
8617, 0.837665644, -31.2121405, 78.3190377
8618, 0.836319815, -31.4101216, 75.2787765
8619, 0.836578221, -31.4610793, 74.7338242
8620, 0.827686615, -29.9455971, 70.9308297
8621, 0.298160188, -29.8183794, 70.9919184
8622, 0.766210078, -29.4903484, 70.9953646
8623, 0.467024313, -29.6933246, 70.5776372
8624, 1.80848097, -12.5094575, 70.713707
8625, 1.80861171, -12.5535093, 70.8582584
8626, 1.80857582, -12.6673036, 70.7280861
8627, 0.390027501, -21.981216, 77.2894484
8628, 1.0216078, -22.1092382, 77.1431437
8629, 0.324955114, -13.8568298, 80.0087073
8630, 0.324813892, -13.9712586, 79.8422758
8631, 0.324942667, -13.9827434, 80.0051515
8632, 0.417385717, -16.1341205, 73.9982199
8633, 1.69856695, -13.2183369, 76.231826
8634, 1.00625298, -31.5431476, 77.9009972
8635, 0.836304342, -31.6570825, 78.3414926
8636, 0.486667799, -27.5103508, 74.4146877
8637, 1.08116257, -27.3222943, 74.1418198
8638, 0.499701067, -16.5277771, 75.6211682
8639, 0.806789403, -16.3546331, 75.5354549
8640, 0.305698608, -28.9750076, 76.3487505
8641, 0.62195605, -28.8036587, 76.2470729
8642, 0.499989326, -23.5114588, 78.6828983
8643, 1.66434084, -15.7495506, 73.8709299
8644, 1.66702348, -29.7835279, 80.2160163
8645, 0.524106166, -16.767549, 76.3837373
8646, 1.3954826, -17.2873766, 75.4037257
8647, 0.895306768, -17.0707868, 75.3100397
8648, 0.895336361, -17.5597333, 75.5155585
8649, 0.499991677, -22.6297083, 77.0383164
8650, 1.16383596, -15.4455473, 73.2303602
8651, 1.35435048, -27.7005248, 77.7951215
8652, 1.68342844, -28.8323931, 73.3630205
8653, 1.6620154, -28.6739028, 73.7016725
8654, 1.34834877, -28.8992029, 73.5227635
8655, 1.66119695, -28.4796986, 73.4764582
8656, 1.50075766, -13.6202264, 74.8465041
8657, 1.50059323, -13.9762131, 74.6883568
8658, 1.40931621, -13.8270298, 75.2236735
8659, 1.40928657, -14.1836439, 75.0659869
8660, 0.908438078, -13.7758387, 74.9260803
8661, 1.04684779, -18.7715117, 75.6446634
8662, 0.49994899, -18.8254913, 75.2367796
8663, 1.14643562, -18.6164713, 75.2315895
8664, 0.395247889, -17.7473769, 75.0759692
8665, 1.04178106, -17.8463534, 75.2605949
8666, 0.395234453, -17.6672281, 75.3737599
8667, 0.499340189, -28.2342529, 76.0540783
8668, 0.313914326, -28.3916176, 75.7706187
8669, 0.350893268, -20.6165214, 74.4335548
8670, 1.74606575, -30.6480729, 79.9599949
8671, 1.74614218, -30.5891558, 79.8349646
8672, 0.500218156, -29.0254746, 75.7060664
8673, 0.49979506, -26.5314595, 77.0201279
8674, 0.39533996, -26.9252703, 76.8564212
8675, 1.50019178, -17.0216105, 75.2591769
8676, 1.3954578, -17.4346163, 75.0845879
8677, 0.986100982, -14.971671, 73.8256002
8678, 1.06072238, -14.5220829, 73.9674198
8679, 1.5002281, -26.8279628, 72.8912423
8680, 1.67831175, -28.3815186, 75.7654894
8681, 1.50061606, -28.2344481, 76.0541682
8682, 1.66445177, -27.8922128, 75.591762
8683, 1.34227049, -28.0405494, 75.498013
8684, 1.48731822, -27.5103138, 74.4147022
8685, 1.45554074, -27.9268996, 74.2279466
8686, 1.65098139, -16.3428839, 72.1409445
8687, 1.25142815, -14.9276635, 73.8482111
8688, 1.48631893, -15.2324661, 74.0579933
8689, 1.76709013, -14.7756426, 73.766206
8690, 1.32787937, -14.4744492, 73.988968
8691, 1.56113465, -14.7779301, 74.1995683
8692, 0.49982901, -27.1615841, 72.1499855
8693, 0.499891155, -27.7549715, 72.0865314
8694, 0.349260982, -27.4618254, 72.5273466
8695, 0.3891804, -23.6183118, 73.6549507
8696, 1.68891458, -28.6166098, 77.506051
8697, 1.50067746, -28.1174135, 77.3780949
8698, 1.06127781, -14.020097, 74.4826748
8699, 1.56189043, -14.4273707, 74.6218062
8700, 0.969850839, -14.2271791, 74.8597969
8701, 0.499814739, -26.6727481, 77.3509999
8702, 0.29077302, -30.5892208, 79.835143
8703, 0.290844439, -30.6481316, 79.9601451
8704, 1.50000682, -21.6432171, 71.4623975
8705, 1.61521291, -21.4165604, 72.0495899
8706, 1.68225489, -15.0137475, 73.5803401
8707, 1.16693236, -15.163159, 73.6547958
8708, 1.64187238, -17.1966964, 77.2751945
8709, 1.45055555, -26.6417495, 70.232178
8710, 1.50009943, -26.3164869, 70.5603327
8711, 1.37865936, -26.1289057, 70.2153203
8712, 0.878594321, -26.0865315, 70.6323719
8713, 0.829025701, -26.4118452, 70.3042285
8714, 1.55930255, -21.7632211, 79.3977729
8715, 1.50006242, -25.1664588, 75.5492705
8716, 1.61403082, -25.53402, 75.3405342
8717, 0.328680879, -30.1841595, 70.9846723
8718, 0.311848542, -15.145709, 71.7019675
8719, 0.499688189, -15.5793238, 71.4647142
8720, 0.895527542, -27.1664348, 76.358934
8721, 0.297991224, -29.2043052, 71.2470317
8722, 0.499365165, -28.6496831, 71.0115187
8723, 0.801649997, -29.0590535, 71.1665765
8724, 0.467587662, -29.0795235, 70.8335371
8725, 1.50023024, -27.0391316, 75.7846238
8726, 1.50015245, -26.4706901, 75.8036294
8727, 1.48362612, -26.708999, 75.3720514
8728, 0.983462412, -26.3148046, 75.5412964
8729, 1.16260616, -28.8067501, 73.3360871
8730, 1.16251369, -28.3288444, 73.5600851
8731, 1.70015811, -30.7220049, 71.3635032
8732, 1.6965373, -30.6442352, 71.205881
8733, 1.68102508, -31.0325729, 70.9033131
8734, 1.37654041, -30.7290686, 71.0849401
8735, 0.499971957, -19.2068595, 79.2928303
8736, 0.597895081, -18.8724895, 79.5733036
8737, 1.50003963, -19.1107592, 78.1369217
8738, 1.40277514, -19.499392, 78.2882459
8739, 1.50001359, -20.4457041, 72.1285673
8740, 1.61195544, -20.1556169, 72.6856455
8741, 0.359384929, -19.1946557, 74.2651767
8742, 0.981663993, -19.0402161, 74.3498753
8743, 1.52465954, -17.1146007, 76.3331274
8744, 1.50005283, -25.0248314, 73.3032465
8745, 1.50005254, -25.2525803, 72.9962415
8746, 1.45543061, -25.4687402, 73.4534829
8747, 0.499979442, -19.946791, 71.2906531
8748, 0.499986302, -20.28825, 71.7733804
8749, 1.6152127, -21.7237549, 72.7778507
8750, 0.417343852, -16.2160554, 73.0279328
8751, 0.346325405, -17.1977372, 80.160502
8752, 0.770737395, -17.7526362, 80.0882064
8753, 1.60502808, -20.9368858, 76.6026695
8754, 0.49913079, -29.9705021, 79.4822785
8755, 0.311097708, -29.758678, 79.2952277
8756, 0.333444444, -14.2552658, 73.9088841
8757, 0.3334499, -13.9250281, 74.0317746
8758, 0.560547451, -14.1594473, 74.4137623
8759, 0.894575489, -14.2345961, 74.0399434
8760, 1.50025542, -16.9820757, 74.4398031
8761, 0.271920382, -18.7946139, 69.8155054
8762, 0.271919465, -19.1930692, 69.8295654
8763, 0.771932107, -19.1122346, 70.0638165
8764, 0.499954433, -18.712952, 70.3793163
8765, 0.363518474, -15.3080331, 74.8270599
8766, 0.367029711, -15.9093927, 76.6180789
8767, 0.287800997, -28.9262237, 71.4561311
8768, 0.831508461, -20.0088253, 72.7565942
8769, 1.50000838, -22.8796305, 71.1616084
8770, 1.42866712, -23.0636493, 70.6307288
8771, 0.328388924, -13.2190509, 76.2312031
8772, 0.830882729, -13.4091752, 75.9852209
8773, 0.499897802, -25.8772424, 76.0658896
8774, 0.386326218, -25.5116467, 76.2744409
8775, 1.50046038, -14.7333846, 70.7860723
8776, 1.64860305, -23.4591227, 74.8524395
8777, 0.290377508, -13.4107482, 70.1641079
8778, 0.290510723, -13.3518594, 70.0392746
8779, 0.417498058, -16.4222038, 74.7719775
8780, 0.499779111, -16.6741533, 75.2895428
8781, 0.306634002, -16.3696842, 75.340993
8782, 0.724551121, -16.1024883, 75.0181127
8783, 1.5000303, -19.0780607, 78.9528337
8784, 1.50003116, -19.2608767, 78.4700008
8785, 1.50004545, -18.8752996, 78.4280668
8786, 0.999997033, -19.1911522, 78.6313325
8787, 0.290708017, -30.5096876, 79.4299326
8788, 0.290688644, -30.2020032, 79.5927273
8789, 0.790861522, -30.2612644, 79.6935807
8790, 1.50000959, -22.8762543, 75.0746461
8791, 1.60979092, -23.0423986, 75.6651255
8792, 1.65042116, -20.6264861, 75.8427424
8793, 1.66444702, -27.7893584, 75.0685154
8794, 1.50016093, -26.4109655, 70.8496128
8795, 1.45061216, -26.7361473, 70.5213965
8796, 1.66614445, -24.0161032, 73.5680982
8797, 1.65087676, -16.7559399, 71.5986688
8798, 1.37867257, -25.9293392, 70.5312195
8799, 1.50000567, -22.0356077, 71.4912156
8800, 1.50000711, -22.221369, 72.0709165
8801, 1.50000667, -22.5809158, 71.5327341
8802, 1.00000023, -22.3440163, 71.341493
8803, 0.499994831, -22.0356088, 71.4912152
8804, 0.499993682, -22.2213692, 72.070916
8805, 0.499993424, -22.5809156, 71.5327334
8806, 0.49958478, -27.5508118, 76.1812936
8807, 1.38944275, -15.9698984, 71.9057063
8808, 1.65088295, -16.0268493, 72.1279697
8809, 1.65108839, -16.2174037, 71.7840737
8810, 1.00000257, -18.8769281, 79.0402293
8811, 0.499972402, -19.0780608, 78.9528302
8812, 0.49994982, -18.5610845, 78.8369753
8813, 1.0000023, -18.6742413, 78.515466
8814, 0.499961483, -18.8753094, 78.4280653
8815, 1.50004663, -18.5610856, 78.8369697
8816, 1.65043115, -19.8560505, 75.7586634
8817, 0.499990339, -20.9628528, 72.739625
8818, 1.72431087, -26.3883432, 69.8216519
8819, 1.17472774, -26.6711594, 69.9105084
8820, 1.10287316, -26.1582779, 69.8936376
8821, 0.499977768, -23.8085117, 75.5149828
8822, 0.390236322, -23.890629, 75.0965102
8823, 0.498936424, -15.0582061, 79.1686996
8824, 0.535144989, -14.6132955, 79.3621073
8825, 1.50005593, -24.939689, 75.8613585
8826, 1.63456268, -24.8125409, 76.2206156
8827, 1.0004262, -30.7493312, 76.0580439
8828, 1.50032521, -30.7981966, 75.7648212
8829, 0.992319042, -28.53927, 75.6755828
8830, 1.61079182, -23.4690573, 78.6757531
8831, 1.11078234, -23.4681269, 78.8820409
8832, 1.16666819, -22.3183259, 79.9257077
8833, 1.50000407, -22.3849893, 79.5792986
8834, 1.66666923, -22.3333292, 80.1535947
8835, 1.13029178, -22.7693367, 80.0671539
8836, 1.46362836, -22.8359959, 79.7207466
8837, 0.963623173, -22.8209862, 79.4928587
8838, 0.499853833, -26.4706953, 75.8036267
8839, 1.56174294, -14.7587605, 74.5129727
8840, 1.0313705, -14.5553431, 79.9888611
8841, 1.50010085, -17.953429, 76.0110547
8842, 1.5469239, -18.3951458, 76.169128
8843, 0.424261344, -17.7844035, 79.7407951
8844, 0.598453221, -13.052211, 79.9283021
8845, 0.584677567, -13.1022206, 79.4944047
8846, 0.652643597, -12.8325567, 79.6522402
8847, 1.00821418, -13.0017068, 79.9390464
8848, 0.994656505, -13.0513448, 79.505403
8849, 0.940290999, -13.2715422, 79.7808346
8850, 0.386357682, -25.1310886, 76.2365129
8851, 1.61271608, -29.0578435, 71.3284514
8852, 1.11283613, -28.9152916, 71.248665
8853, 1.4998765, -28.651709, 71.0129243
8854, 1.46637289, -29.0790616, 70.8344771
8855, 1.07945409, -29.3412765, 71.0697874
8856, 0.499969623, -19.3275154, 77.8260321
8857, 0.49999439, -22.4386676, 71.1375253
8858, 1.01074131, -22.6493919, 70.9324628
8859, 1.45548228, -28.0774938, 73.8956075
8860, 1.50000028, -27.9449385, 73.420334
8861, 1.66255299, -28.3511168, 73.7289733
8862, 0.499963838, -24.6397634, 73.2608347
8863, 0.389170535, -24.2348623, 73.3905774
8864, 1.5000088, -20.8743496, 77.927002
8865, 0.499894824, -25.8885372, 72.2935219
8866, 0.499867371, -26.4232562, 72.1646882
8867, 1.50010812, -25.8884998, 72.2935163
8868, 1.50015478, -26.4232368, 72.1646627
8869, 0.499968327, -24.495369, 74.5842618
8870, 0.499975745, -24.3385953, 74.2329882
8871, 0.390231255, -24.1201713, 74.786776
8872, 0.390237662, -23.9633972, 74.4354993
8873, 0.336308218, -31.6834154, 75.0196238
8874, 0.499925689, -25.2080362, 76.9992471
8875, 0.386343912, -25.2866955, 76.5854759
8876, 0.999999713, -22.5093167, 76.4735066
8877, 1.50000707, -22.4791151, 76.6956625
8878, 0.890032166, -22.4115169, 76.8885102
8879, 0.499992803, -22.5409385, 76.254585
8880, 1.50000618, -22.7484051, 78.21744
8881, 1.64860811, -23.84535, 74.8967812
8882, 1.68242589, -15.393217, 73.0614156
8883, 1.59451876, -27.6271318, 73.6500586
8884, 1.61521607, -20.946845, 72.6997889
8885, 1.6097888, -22.5757328, 76.2814658
8886, 0.499988918, -22.7179889, 74.7183296
8887, 0.39150159, -22.7257415, 74.2899279
8888, 0.833290349, -13.786314, 74.1062747
8889, 0.499504859, -13.7081636, 74.4794472
8890, 1.65335576, -27.1822378, 76.7562315
8891, 1.16538784, -13.2244527, 79.3517513
8892, 0.99999543, -12.880977, 79.218907
8893, 0.804339523, -13.2246992, 79.3515288
8894, 1.1599525, -13.3948229, 79.6375477
8895, 1.35554403, -13.0516218, 79.5051106
8896, 1.50000973, -21.3664628, 74.453973
8897, 1.60886537, -21.0414102, 74.1769346
8898, 1.74760526, -13.4108636, 70.1645778
8899, 1.74754235, -13.3519365, 70.0395596
8900, 0.417459034, -16.0768983, 74.8262381
8901, 0.306581145, -16.0243937, 75.3949982
8902, 1.50061694, -31.1016527, 75.6480973
8903, 1.37380381, -31.3526653, 75.9328399
8904, 0.266875168, -12.2320244, 75.712455
8905, 0.306187151, -31.0147157, 71.5849092
8906, 0.628439617, -31.0341313, 71.2951891
8907, 1.64860066, -23.2288291, 75.1640616
8908, 1.50003525, -19.2489305, 76.0830331
8909, 1.54689354, -18.7872675, 76.1672828
8910, 1.50001001, -21.5250208, 74.8100976
8911, 1.60801121, -21.5144015, 75.2390523
8912, 0.601777479, -18.4462295, 73.2200462
8913, 0.499984789, -19.8422015, 79.1416562
8914, 0.590498799, -20.1453751, 79.4177704
8915, 0.769278769, -20.7660703, 79.9191559
8916, 0.49999358, -20.7648973, 79.5807998
8917, 0.26927769, -20.7988348, 80.1616483
8918, 0.859788864, -20.4000712, 80.1041467
8919, 0.590500388, -20.3989131, 79.7657961
8920, 1.63974108, -26.7438734, 76.0407727
8921, 1.37866195, -25.7484012, 70.2328155
8922, 1.50001639, -23.7373581, 76.1857671
8923, 0.499929516, -18.1892398, 78.7865739
8924, 0.499936778, -18.4052822, 78.4867885
8925, 0.583286675, -18.2853643, 77.9710778
8926, 0.264958449, -13.5863362, 79.8202865
8927, 0.590468792, -13.7071983, 79.7919313
8928, 0.499919271, -26.1117936, 79.2513868
8929, 0.499952496, -25.5631622, 79.2119837
8930, 0.631906492, -25.817311, 79.5139869
8931, 1.13198502, -26.187331, 79.4965636
8932, 0.402712397, -19.2638313, 78.5793678
8933, 0.820922072, -14.3339421, 80.1566323
8934, 1.5944634, -27.4762609, 73.9832245
8935, 1.67891349, -28.5671328, 76.0813551
8936, 0.499979557, -24.2868151, 78.3440944
8937, 0.499946716, -18.7632727, 73.5163701
8938, 0.366462054, -18.6269188, 72.9373843
8939, 1.34381888, -15.36324, 73.3928543
8940, 0.499989801, -23.1798205, 77.6007022
8941, 1.50000574, -22.4386666, 71.1375256
8942, 1.50000689, -21.9714259, 77.9807229
8943, 1.50000648, -21.6143672, 77.5216928
8944, 1.63157945, -22.1005866, 77.6071679
8945, 0.350894883, -20.8445458, 74.1187859
8946, 1.50013349, -17.5107001, 75.46466
8947, 0.901833422, -30.4480646, 78.8789079
8948, 0.325474228, -15.9062966, 80.1288118
8949, 1.50067489, -15.9153286, 71.4951558
8950, 0.99999161, -25.2293085, 72.7913684
8951, 0.499992071, -21.2313607, 77.5195045
8952, 0.499697286, -16.7222497, 75.9075788
8953, 0.969318527, -25.5469527, 70.2897411
8954, 0.499278163, -14.8059398, 70.5533396
8955, 0.499299268, -14.702216, 70.2894923
8956, 0.322391297, -14.4932514, 70.6278343
8957, 0.402730057, -20.1030844, 78.0546609
8958, 0.366451891, -18.4982241, 72.5745669
8959, 1.10623687, -20.9770385, 78.9849066
8960, 0.353605493, -27.7028342, 77.7946372
8961, 0.499978602, -25.075942, 79.4929851
8962, 0.464266016, -24.655175, 79.7354478
8963, 0.313456948, -26.833913, 80.1559363
8964, 0.813495287, -26.4786936, 79.8670983
8965, 0.367704166, -25.0537537, 72.2611231
8966, 0.867735579, -25.1959126, 72.4100967
8967, 1.02159367, -24.8546258, 72.141108
8968, 0.318056166, -29.2796038, 75.1232456
8969, 0.313979022, -28.855642, 75.4749891
8970, 1.64191967, -16.8486666, 77.6705687
8971, 0.908040921, -17.8241472, 73.6050287
8972, 1.50081965, -13.4149484, 75.3605449
8973, 0.40786852, -13.8270805, 75.2242533
8974, 0.269277129, -20.4023572, 80.1973163
8975, 1.50004342, -25.0584381, 71.3296524
8976, 0.499991542, -23.2447637, 71.3171314
8977, 0.499989497, -23.7662378, 71.0581831
8978, 0.428650816, -23.4287923, 70.7862541
8979, 1.24545413, -13.5393711, 79.0230117
8980, 1.48507004, -13.5256145, 79.2981866
8981, 1.75604756, -13.4966813, 78.8334799
8982, 1.43960742, -13.2008065, 78.883874
8983, 1.68093628, -13.1816628, 79.1629217
8984, 1.80910196, -31.4556161, 79.3159439
8985, 0.229331343, -14.8340954, 78.7326204
8986, 0.316243206, -15.0752448, 78.5467851
8987, 0.816350888, -15.18322, 78.6358433
8988, 0.500122731, -15.3158103, 79.0020099
8989, 1.68410489, -15.0757592, 78.5466267
8990, 1.77074031, -14.8341636, 78.7326736
8991, 1.49974866, -15.3168911, 79.0017985
8992, 0.499792431, -17.229511, 78.279017
8993, 0.499825388, -17.2700288, 78.8045983
8994, 0.499902219, -17.6650845, 78.8389485
8995, 1.50018709, -17.2295668, 78.279002
8996, 1.5001562, -17.2700587, 78.8045843
8997, 1.50010778, -17.9888537, 72.1058672
8998, 1.50006768, -18.4246477, 71.7833642
8999, 1.21251134, -13.945662, 69.9551388
9000, 0.671901335, -13.3518257, 71.0362853
9001, 0.655826016, -13.2825905, 70.4358874
9002, 1.65367345, -17.2021594, 69.8252126
9003, 1.65375703, -16.7979637, 69.833611
9004, 1.1536633, -16.7868183, 70.046422
9005, 1.50020681, -16.7844928, 70.3801803
9006, 0.750119109, -13.445433, 79.6268768
9007, 0.866750081, -15.7791589, 76.5001703
9008, 1.66878187, -28.4835971, 69.8032115
9009, 1.19045743, -27.9885227, 69.9069858
9010, 1.50014655, -17.193448, 74.7811841
9011, 0.895332992, -17.2424863, 74.832109
9012, 0.999992425, -17.5363866, 74.5795883
9013, 0.499906148, -17.903005, 74.531177
9014, 1.14825289, -17.835085, 74.3596389
9015, 0.499992956, -20.9519742, 79.2308709
9016, 1.05929807, -21.1402496, 79.5085109
9017, 0.285204578, -28.5354112, 72.151045
9018, 0.507830549, -28.5524505, 71.9733911
9019, 0.49997679, -24.2192475, 71.711713
9020, 0.343574579, -24.0552579, 71.2633158
9021, 0.343569057, -24.3762566, 71.3939478
9022, 1.50034071, -27.1617191, 72.1499969
9023, 0.499713424, -27.7846617, 73.1004953
9024, 0.349264717, -27.4644923, 72.9301648
9025, 1.6397374, -26.6758171, 76.6880857
9026, 1.50000879, -22.0022481, 75.8662301
9027, 1.60801041, -21.6735544, 75.5904301
9028, 1.72454704, -28.5380683, 72.160462
9029, 0.499973152, -24.0669401, 77.0355408
9030, 0.411359006, -24.0075466, 77.4774188
9031, 1.50040114, -27.5162942, 70.9344028
9032, 1.52220378, -27.7378386, 70.5427747
9033, 1.02189477, -27.6434602, 70.7055104
9034, 1.52224951, -28.0394865, 70.690743
9035, 1.653728, -27.2040367, 80.1563876
9036, 1.50013026, -26.8448075, 79.5234234
9037, 1.50049124, -27.3503739, 79.5860359
9038, 1.69387017, -14.6844447, 71.1825547
9039, 1.69138414, -14.4199129, 71.213776
9040, 1.70361687, -12.8029067, 76.6920926
9041, 1.73775956, -12.2753788, 76.5589863
9042, 1.50007939, -25.6925309, 74.2685565
9043, 1.65458738, -25.3342974, 74.0141343
9044, 0.219561381, -19.8654851, 72.609463
9045, 1.5001592, -16.8777692, 79.1335305
9046, 0.234257284, -14.5789157, 78.9010095
9047, 1.62229216, -19.1146807, 74.2127064
9048, 1.62229876, -18.8954946, 74.4750503
9049, 0.499983912, -23.4799222, 73.1351273
9050, 0.389177327, -23.8472377, 73.3494761
9051, 1.22099327, -30.3113851, 70.9359729
9052, 0.805127032, -30.5880187, 75.9734051
9053, 0.30742522, -30.2592863, 76.0207814
9054, 0.66528674, -30.1173464, 76.0110515
9055, 1.63456744, -24.9681709, 76.569576
9056, 0.312348402, -29.307661, 79.1334656
9057, 1.68770203, -29.3073673, 79.1333931
9058, 1.72582765, -12.7974297, 70.5059019
9059, 1.72594657, -12.9553994, 70.5203451
9060, 1.53383417, -12.7520724, 70.683169
9061, 0.499995933, -22.3849908, 79.5792991
9062, 0.49999547, -21.9806168, 79.5813688
9063, 0.559292374, -21.5698048, 79.7450257
9064, 0.559293852, -21.9741807, 79.7429544
9065, 0.499991653, -22.2427258, 73.6558373
9066, 0.391503003, -22.5677432, 73.9350206
9067, 1.60192692, -18.2431938, 73.4955538
9068, 1.00993951, -18.2273992, 73.4449912
9069, 0.316054247, -15.0125349, 73.5823491
9070, 1.50012901, -26.1003878, 75.7538669
9071, 1.48359633, -26.3386644, 75.3222845
9072, 0.304856586, -13.0422546, 71.5396633
9073, 0.673850439, -13.0536581, 71.2415458
9074, 0.762583261, -12.8473622, 71.6311782
9075, 1.74756242, -13.7226995, 70.1188186
9076, 1.50001192, -23.7156232, 79.028356
9077, 1.46363299, -23.4060786, 79.385546
9078, 0.402733317, -20.2790398, 78.4238575
9079, 0.499219176, -15.9142373, 71.4950966
9080, 0.38845178, -15.9671754, 71.9060896
9081, 0.499993974, -21.7958558, 71.8299996
9082, 1.50010921, -17.8617531, 77.1568446
9083, 1.50007886, -18.3922537, 77.2527696
9084, 0.499971763, -25.4481209, 79.4948652
9085, 1.64843548, -17.2804153, 74.2197386
9086, 1.63455131, -24.6558096, 75.8676273
9087, 1.50030853, -16.2862725, 73.6093838
9088, 1.66440083, -15.950469, 73.5773922
9089, 1.35442987, -27.5116216, 78.122022
9090, 1.59156789, -20.1095371, 70.2218754
9091, 0.464279245, -24.2695097, 79.727723
9092, 0.499987814, -23.9434472, 79.3676854
9093, 0.463615917, -23.6339162, 79.7248679
9094, 0.640856636, -26.2024121, 71.5305274
9095, 1.14098686, -26.1447256, 71.3524188
9096, 1.14100198, -26.3494377, 71.9406886
9097, 0.450260357, -26.9892443, 70.6760127
9098, 1.00000361, -18.5474858, 74.8539563
9099, 0.430778776, -12.9938146, 74.4192996
9100, 0.430936865, -12.6833339, 74.5589074
9101, 1.04756149, -12.8210216, 74.4854024
9102, 0.233654711, -14.4700957, 69.7677238
9103, 0.73359168, -14.7566443, 70.0221981
9104, 1.50000984, -20.8484608, 77.4950347
9105, 1.50019052, -17.3671129, 76.9217226
9106, 1.52471272, -16.9653136, 76.6629284
9107, 0.40800882, -18.372735, 73.6075606
9108, 0.407977065, -18.0147364, 73.5367135
9109, 0.290237769, -13.7967352, 70.403738
9110, 0.322070734, -14.2253252, 70.6514295
9111, 1.52480752, -16.5730155, 76.0971242
9112, 1.52488035, -16.4244143, 76.414732
9113, 1.6934404, -16.2231331, 75.6726188
9114, 1.69350182, -16.0744006, 75.9899699
9115, 1.21771836, -16.4002736, 76.0112484
9116, 0.981502233, -15.3631045, 73.3957054
9117, 0.390026122, -22.4431432, 76.6695852
9118, 0.49998802, -23.7156257, 79.0283556
9119, 0.610771104, -23.2926866, 78.9904628
9120, 0.895329789, -17.7773154, 74.8830188
9121, 1.50002215, -24.1103988, 76.390809
9122, 0.193937039, -12.8445506, 79.5696326
9123, 0.193985363, -12.7400347, 79.5935853
9124, 0.513575406, -12.9046668, 79.4737146
9125, 0.499961161, -18.6898421, 79.1769661
9126, 1.09794008, -18.5425601, 79.3207095
9127, 1.72767274, -19.9840764, 69.8360987
9128, 1.72767319, -19.5841048, 69.8295757
9129, 1.31921998, -20.101538, 69.8857642
9130, 0.290774201, -30.2764079, 79.8790765
9131, 0.624337313, -30.2460434, 80.1518967
9132, 0.357391571, -21.4002092, 69.8453867
9133, 0.857393606, -21.1119005, 70.0121363
9134, 1.63965626, -26.1504326, 76.3030724
9135, 0.499935727, -18.3266008, 79.1412594
9136, 0.597890779, -18.5092049, 79.5375857
9137, 0.652443468, -28.274899, 77.7519942
9138, 0.499449912, -29.5765967, 74.4652743
9139, 0.509529645, -29.2286037, 74.5789113
9140, 0.318092473, -29.3991674, 74.8230081
9141, 0.818548301, -29.5766902, 74.6184261
9142, 0.499606206, -27.1919139, 76.1335398
9143, 0.395227808, -27.146223, 76.5579808
9144, 0.864267977, -13.5285476, 71.0013301
9145, 1.04459863, -13.9464745, 70.8727812
9146, 0.820982602, -22.4405456, 79.925708
9147, 0.320981574, -22.4555509, 80.1535948
9148, 0.880280724, -22.0297345, 80.0893619
9149, 1.58345032, -18.1458765, 77.6261921
9150, 0.499953878, -18.7194525, 78.0778628
9151, 1.08336097, -18.5542379, 77.9997582
9152, 1.41588526, -15.5762643, 76.8572234
9153, 1.67169529, -15.7609626, 76.6176104
9154, 1.171156, -15.9870907, 76.4634069
9155, 0.313315566, -28.577204, 76.0864649
9156, 0.499989877, -20.368437, 79.6164717
9157, 0.652633106, -12.4740741, 79.1186433
9158, 0.500075988, -27.6791103, 78.9924921
9159, 0.500868829, -28.0260131, 78.6212978
9160, 0.353753676, -27.7921786, 78.3154699
9161, 1.50006699, -18.7632701, 73.5163669
9162, 1.60192177, -18.446006, 73.2200229
9163, 0.499970906, -19.4636776, 78.9947727
9164, 0.402720657, -19.6494619, 78.6213148
9165, 0.499959894, -19.0396189, 75.6000843
9166, 1.50004143, -19.0396057, 75.6000855
9167, 1.6669779, -12.6850159, 79.7820945
9168, 1.66692378, -12.7200651, 79.8943922
9169, 1.34187901, -12.9032074, 79.8528426
9170, 0.499921385, -18.2657815, 74.6193449
9171, 0.499768254, -16.845953, 74.8117082
9172, 1.5000082, -21.091206, 70.7136371
9173, 1.50000608, -21.4786692, 71.1014841
9174, 0.499993807, -21.4786714, 71.1014833
9175, 0.269261944, -24.7836092, 80.1654328
9176, 0.269261714, -25.1558687, 80.1672776
9177, 0.464262726, -25.0274025, 79.7373076
9178, 0.733564798, -24.6715443, 80.0700299
9179, 1.64860585, -23.6157963, 75.2065175
9180, 1.06265131, -15.8473706, 70.8939461
9181, 0.56236511, -16.1895693, 70.6941636
9182, 1.06269205, -16.3291853, 70.5195312
9183, 0.810691272, -25.0714944, 80.0700492
9184, 0.846404397, -25.4921855, 79.8276162
9185, 0.978376802, -25.746509, 80.1295428
9186, 1.59795425, -19.17253, 79.5710185
9187, 1.50002218, -19.506967, 79.2905731
9188, 1.59052374, -19.8100983, 79.5666772
9189, 1.76218101, -13.2109799, 78.6021759
9190, 1.68512451, -12.98436, 78.4162813
9191, 1.36528274, -12.9673782, 78.705384
9192, 1.68095131, -12.8941411, 78.9356663
9193, 0.389175861, -24.0753494, 73.0389735
9194, 0.977940513, -24.1044787, 73.0748268
9195, 1.52224608, -27.9609802, 70.2795508
9196, 1.59433714, -26.9869448, 73.6737648
9197, 0.976570332, -26.9557526, 73.8927868
9198, 1.59435609, -27.1314743, 73.9948054
9199, 0.869040275, -14.2673155, 79.0714577
9200, 0.333896976, -14.3449213, 78.9569743
9201, 0.325049227, -14.3904516, 79.528582
9202, 0.658466509, -14.0464247, 79.2354907
9203, 1.66713709, -14.2076925, 69.7672005
9204, 0.668889101, -31.6557606, 78.6284883
9205, 0.359377241, -18.9691423, 74.5753792
9206, 1.50010549, -17.7283596, 74.8320676
9207, 1.64837598, -17.4918996, 74.5612363
9208, 1.50022015, -16.0690503, 78.7965837
9209, 0.364673455, -13.2647956, 70.8092622
9210, 1.5001122, -25.8469501, 74.6185287
9211, 1.61405589, -25.7607205, 75.0301377
9212, 0.23361786, -29.5603874, 69.7714091
9213, 0.700192161, -29.4201181, 70.0401266
9214, 1.61666556, -13.2521833, 74.9998029
9215, 1.50001954, -23.9974616, 71.9364364
9216, 1.54625497, -13.9145789, 70.2250295
9217, 1.66714899, -13.969118, 69.7701508
9218, 1.41406321, -13.7539175, 69.8474991
9219, 1.34740765, -31.5258845, 70.8807981
9220, 1.80593355, -31.2599652, 70.4061543
9221, 1.80598495, -31.1554131, 70.4300662
9222, 1.48652592, -31.0954385, 70.5255107
9223, 1.14237618, -19.1142352, 70.0638166
9224, 1.64238068, -19.1950817, 69.8295596
9225, 1.23392736, -19.7125096, 69.8857571
9226, 0.346376092, -25.5558163, 80.1673045
9227, 1.76612305, -14.5795304, 78.9009276
9228, 1.50113289, -15.058475, 79.1685702
9229, 0.499990889, -22.1552637, 76.2175753
9230, 0.390026152, -22.0574621, 76.6325761
9231, 1.69023576, -30.5693006, 76.1833142
9232, 1.4851917, -13.7733148, 79.4535308
9233, 1.15131498, -13.7861321, 79.0730784
9234, 1.66657613, -13.9880476, 79.0369371
9235, 1.67588586, -13.9732255, 79.6315973
9236, 1.34219761, -13.9850769, 79.252447
9237, 1.16034345, -13.7690486, 79.6642554
9238, 0.499950212, -18.9167964, 73.8668283
9239, 0.359366935, -18.8241594, 74.2207154
9240, 1.71972832, -15.4639198, 77.5073224
9241, 1.50832813, -15.9356644, 77.4963223
9242, 0.499987009, -23.3380707, 77.9279905
9243, 0.411366226, -23.7501247, 77.7577697
9244, 1.66441064, -27.5671995, 75.5519446
9245, 1.50041452, -27.9102319, 76.0151058
9246, 1.65342531, -27.6088179, 76.1811875
9247, 1.31740574, -27.5925032, 75.953002
9248, 0.350895901, -21.0040968, 74.4699756
9249, 1.50001999, -23.771304, 74.05476
9250, 1.66614928, -24.1751481, 73.9188855
9251, 1.5004139, -16.3846441, 78.5888189
9252, 1.29281548, -27.1280391, 76.5150314
9253, 0.499992836, -20.9137265, 70.3560983
9254, 0.591542617, -20.2985319, 70.5677142
9255, 0.591544421, -20.5153268, 70.2297292
9256, 1.09155384, -20.6253999, 70.3979115
9257, 1.67274741, -28.5003868, 80.1733376
9258, 1.71875608, -28.8824188, 80.1733732
9259, 1.21870638, -28.943904, 79.9945955
9260, 1.50041187, -28.9478895, 79.6681786
9261, 1.50004882, -19.1062615, 74.9351912
9262, 1.62228707, -19.2596654, 74.5673753
9263, 0.499966961, -19.137793, 71.8950495
9264, 0.499932395, -18.7736528, 71.8427301
9265, 0.366462923, -18.7098629, 72.2723369
9266, 0.366483562, -19.0740246, 72.3246455
9267, 1.50001991, -20.2896939, 75.3566733
9268, 1.65042558, -20.2393223, 75.8004009
9269, 1.11788876, -24.6715404, 80.0700311
9270, 1.65360713, -25.1560549, 80.1672914
9271, 1.28557374, -25.3465846, 80.1295142
9272, 1.15221472, -20.267328, 71.9951727
9273, 1.65222611, -20.0634628, 72.0924161
9274, 1.2641571, -19.9772754, 72.5522527
9275, 1.50008187, -25.5632282, 79.2119857
9276, 0.49992594, -15.3341823, 70.7129926
9277, 0.499459281, -15.7427751, 71.1124657
9278, 1.50015024, -15.3338974, 70.7130189
9279, 1.5005025, -15.7430914, 71.112138
9280, 1.50001172, -22.864787, 76.732672
9281, 1.6097916, -22.9614093, 76.3184751
9282, 1.75987394, -13.2862507, 78.7615948
9283, 1.68062592, -12.9684916, 79.0952269
9284, 1.59797041, -18.7436387, 79.2332935
9285, 1.54690134, -18.5731418, 75.8039672
9286, 1.50005436, -18.8254749, 75.2367832
9287, 1.64648836, -18.4180082, 75.3908874
9288, 1.50002102, -20.0700289, 73.7695873
9289, 1.61195878, -20.0816207, 73.3469133
9290, 1.50002803, -19.6067771, 72.7213481
9291, 1.61196189, -19.9261449, 72.9983497
9292, 1.50017853, -17.009224, 72.0253765
9293, 1.50019296, -17.2267757, 71.72113
9294, 1.65149434, -17.1358708, 72.5430346
9295, 1.65146227, -17.3536507, 72.2386712
9296, 1.50002737, -19.8430013, 74.0816548
9297, 1.62227824, -19.4851789, 74.257165
9298, 1.00009207, -29.5889137, 73.8936237
9299, 1.50001169, -23.1311807, 78.2248715
9300, 1.61079005, -23.088538, 78.6450005
9301, 1.59795367, -18.9687713, 79.8706483
9302, 1.59052316, -19.606349, 79.8663068
9303, 1.50001084, -21.0660531, 77.1588444
9304, 1.60503036, -20.7012338, 76.9315674
9305, 1.67902754, -31.1156977, 78.3089381
9306, 1.59075861, -25.3963408, 70.2351848
9307, 1.60194835, -18.0880364, 73.149153
9308, 1.64833556, -17.8921788, 74.011198
9309, 1.25013041, -17.949793, 73.5731412
9310, 1.6483613, -17.7370614, 73.6648728
9311, 0.655890443, -15.3327355, 76.8277119
9312, 0.366932628, -15.5548136, 76.6541593
9313, 0.594991795, -18.3525512, 70.2010508
9314, 1.75648965, -13.429167, 73.7913957
9315, 1.26116972, -13.5397519, 74.0544731
9316, 1.50079422, -13.4555535, 74.2922689
9317, 1.43221897, -13.0759518, 74.0748692
9318, 0.931679202, -13.1879219, 74.3325243
9319, 1.19073841, -13.1629615, 73.8354281
9320, 0.979019857, -15.2137715, 76.6930556
9321, 1.11374341, -15.3762752, 76.893196
9322, 1.50031591, -16.5277719, 75.6211725
9323, 1.50031479, -16.7222488, 75.9075673
9324, 1.5247916, -16.7673973, 76.3837484
9325, 0.499664866, -16.435617, 72.4815935
9326, 0.388838609, -16.092666, 72.2637101
9327, 1.65360962, -24.783598, 80.1654391
9328, 0.499945153, -18.7421306, 74.8428547
9329, 0.359357125, -18.6049903, 74.4830596
9330, 0.859407492, -18.8867635, 74.7176863
9331, 0.631912742, -25.7023088, 79.7968392
9332, 1.67148878, -16.1168954, 76.5802714
9333, 1.36442676, -16.0935597, 76.1764008
9334, 0.336328587, -12.277918, 75.0019864
9335, 0.336370563, -12.2319787, 75.323797
9336, 0.836457529, -12.5783187, 75.2886633
9337, 1.67552157, -13.3521862, 79.4493795
9338, 0.332684945, -13.9895716, 79.0359869
9339, 0.324936282, -14.0343972, 79.6165466
9340, 1.31279299, -16.482879, 76.9943235
9341, 0.499937479, -18.5316012, 77.5976262
9342, 1.50002279, -19.7548407, 76.6424647
9343, 1.50002622, -19.6237962, 76.1211048
9344, 1.67313734, -18.0808807, 71.4829657
9345, 1.02044646, -14.0519369, 79.480473
9346, 1.2026274, -14.2667226, 79.0717284
9347, 1.21103167, -14.2521662, 79.6613985
9348, 0.999977955, -15.8920922, 78.8864101
9349, 1.50003168, -24.2745712, 76.7392464
9350, 1.50005258, -25.2545044, 72.5691504
9351, 1.50004059, -24.8695371, 72.9488939
9352, 1.36777533, -24.836071, 72.5676332
9353, 0.867745172, -24.8109882, 72.7898488
9354, 1.40912478, -14.341244, 75.3353301
9355, 0.333142944, -13.2203718, 80.2530507
9356, 0.333142793, -13.3126472, 80.2864111
9357, 0.598471187, -13.2784031, 80.0586822
9358, 0.499779566, -26.8290163, 73.2041351
9359, 0.499770938, -26.9792381, 73.4798391
9360, 0.49976853, -26.6640349, 73.4462144
9361, 0.499944907, -24.86955, 72.9489003
9362, 0.499946779, -25.2525984, 72.9962409
9363, 0.367705694, -24.8362111, 72.5676471
9364, 0.367690614, -25.2192889, 72.6149909
9365, 0.305297994, -13.331673, 71.3248525
9366, 0.499699695, -15.8276115, 75.1595433
9367, 0.33185636, -28.8183914, 80.1734777
9368, 0.499580258, -28.9479222, 79.6682088
9369, 0.390026916, -22.2080587, 76.9752291
9370, 1.68875534, -29.8329509, 79.5813183
9371, 0.311175411, -29.8330004, 79.5812094
9372, 1.77091691, -14.8308999, 69.8621235
9373, 1.50057233, -15.0731549, 70.3843769
9374, 1.5003819, -29.2004425, 79.481547
9375, 1.68855053, -29.4981511, 79.3401072
9376, 0.499621027, -29.2005716, 79.4815293
9377, 0.31158224, -29.4984634, 79.3400907
9378, 0.363413842, -15.1424355, 75.0820402
9379, 0.499930853, -25.9673442, 71.2236001
9380, 1.66625589, -13.7414699, 78.8906119
9381, 0.49994677, -25.58688, 70.9841514
9382, 0.49991771, -26.1169507, 70.8762716
9383, 0.378531588, -25.9295241, 70.5312881
9384, 0.878599214, -25.5564909, 70.7402806
9385, 1.53625566, -14.6126944, 79.3615835
9386, 0.560630335, -14.4277429, 74.6224119
9387, 0.499519666, -13.9763879, 74.6886006
9388, 0.407833966, -14.1832752, 75.0659709
9389, 0.499777279, -16.7844662, 70.3802215
9390, 1.50023647, -27.2849853, 70.6831805
9391, 1.52203149, -27.5064793, 70.2915843
9392, 0.332985712, -31.3149785, 70.2177519
9393, 0.333048921, -31.2799218, 70.1055245
9394, 0.647681764, -31.0989788, 70.2100953
9395, 1.66334543, -15.4359413, 73.7960035
9396, 0.367716417, -24.8402659, 71.9373499
9397, 0.65380295, -24.9171892, 71.6698461
9398, 0.343560804, -24.706545, 71.3707305
9399, 0.711324324, -24.6438807, 71.8419663
9400, 1.37758484, -24.6407877, 70.2246212
9401, 1.67315251, -17.8988898, 71.7789182
9402, 1.65042792, -20.0099844, 76.1104619
9403, 1.5000156, -23.5797702, 75.8290104
9404, 1.60979328, -23.2006138, 76.0216085
9405, 1.65387234, -24.9132915, 72.30017
9406, 0.864830114, -30.7517739, 78.9194782
9407, 1.16913847, -30.4932892, 78.8509213
9408, 1.68864199, -31.134196, 76.6184106
9409, 1.37422023, -31.3254499, 76.2712313
9410, 0.417339224, -15.9332805, 74.2910836
9411, 1.50001111, -20.8894045, 73.3987066
9412, 1.6088667, -20.8818628, 73.8257437
9413, 0.455264379, -26.0032105, 73.8459594
9414, 0.499884597, -26.072221, 74.3096849
9415, 0.382316001, -26.449215, 74.1477907
9416, 1.6995108, -29.7671771, 74.8188419
9417, 1.19887214, -29.5944511, 74.643206
9418, 1.15323321, -27.423103, 76.2585608
9419, 0.640851765, -26.0890698, 71.9514429
9420, 1.50044329, -29.5768325, 74.465346
9421, 1.69951809, -29.4168263, 74.8477262
9422, 1.50003312, -19.2068655, 79.2928356
9423, 1.59796525, -18.8724213, 79.5732817
9424, 1.50005335, -25.2090541, 70.9862614
9425, 1.59075867, -25.1994766, 70.5357113
9426, 0.818264915, -29.7029775, 74.9595087
9427, 0.318130477, -29.7494242, 74.7943317
9428, 0.499701728, -16.384463, 78.5888589
9429, 1.68355991, -28.6093273, 78.0859813
9430, 0.503018125, -28.5156852, 77.9231166
9431, 0.317647962, -28.6079976, 78.0842161
9432, 0.501583123, -28.1748336, 78.3050112
9433, 1.50004935, -18.742121, 74.842862
9434, 0.333910105, -30.430855, 71.1370304
9435, 0.319423294, -30.8181366, 70.8356559
9436, 0.314116574, -30.649755, 70.6138269
9437, 0.633882245, -30.9507479, 70.5574883
9438, 0.646429873, -30.5623672, 70.8619693
9439, 0.366442099, -18.3608712, 72.2129921
9440, 1.616733, -13.0888287, 74.4431898
9441, 0.818485454, -13.7861006, 79.0727188
9442, 0.809983968, -13.8309323, 79.6487315
9443, 0.463616519, -23.0192898, 79.379563
9444, 0.46361412, -23.406087, 79.385543
9445, 1.07440505, -23.1585935, 79.2392273
9446, 1.50061661, -28.0628426, 76.3387017
9447, 1.65357985, -27.7620801, 76.50528
9448, 1.65337307, -28.1191638, 76.5375367
9449, 0.55039407, -31.3037562, 79.0539134
9450, 1.60430992, -23.5736025, 72.044995
9451, 1.69812784, -30.1833375, 70.984581
9452, 1.72621194, -23.5865005, 69.8197272
9453, 1.42866789, -23.2269525, 70.2303552
9454, 1.50000707, -21.7737152, 78.3219657
9455, 1.6062423, -21.3995293, 78.5337336
9456, 1.45996195, -16.3301993, 79.4358426
9457, 0.499890612, -26.4183495, 79.4549514
9458, 0.631903341, -26.1238934, 79.7175281
9459, 0.499880545, -26.2184583, 74.6563928
9460, 0.382313637, -26.5954749, 74.4945042
9461, 0.483310832, -26.5599583, 75.0117367
9462, 1.50097098, -13.0796932, 75.5207855
9463, 1.50054427, -12.8105397, 75.6106532
9464, 1.61650046, -12.6485285, 75.2497264
9465, 1.61660084, -12.9172167, 75.1597306
9466, 1.5000116, -20.3368674, 71.3246339
9467, 1.65222259, -20.2960915, 71.7712091
9468, 1.15221679, -19.9258834, 71.5124376
9469, 1.28352314, -20.4444103, 71.6391617
9470, 1.63131466, -20.8554289, 71.4513519
9471, 1.53551334, -14.2563163, 79.4499904
9472, 0.302093054, -28.6184203, 77.5059962
9473, 0.499465328, -28.1174556, 77.3782977
9474, 0.353362645, -28.0596571, 77.7593926
9475, 0.499960284, -25.0584085, 71.3296525
9476, 0.562313406, -15.7811257, 70.6636931
9477, 1.66688671, -30.6901381, 69.7120387
9478, 1.66688267, -30.7773398, 69.7465805
9479, 1.40807178, -30.6991321, 69.9347015
9480, 1.6345551, -24.7490774, 76.8787856
9481, 1.71882615, -15.1394285, 69.862249
9482, 1.21868217, -15.0553737, 70.0226463
9483, 1.74597294, -15.4018569, 76.9329344
9484, 1.72443091, -15.4764684, 77.2161876
9485, 1.39375508, -15.6486933, 77.1406976
9486, 1.67104258, -15.9633294, 76.8427712
9487, 1.45997063, -15.998149, 79.2726542
9488, 0.959562111, -16.2871777, 79.1578354
9489, 0.314338936, -30.4035555, 70.4574584
9490, 0.839090815, -30.5337894, 70.4042259
9491, 0.499985686, -20.2974827, 78.232653
9492, 0.402728515, -19.9091127, 78.384779
9493, 1.50002303, -19.9467933, 71.2906495
9494, 1.65222787, -19.906011, 71.7372263
9495, 0.484518204, -13.7735358, 79.4527634
9496, 0.33190232, -28.4033301, 69.8722048
9497, 0.367717818, -24.6063989, 72.879584
9498, 0.756931508, -24.4061211, 72.9195968
9499, 0.367725955, -24.4468955, 72.5279796
9500, 1.69131757, -17.6854437, 80.1526673
9501, 1.11563337, -17.8061495, 80.0882013
9502, 1.75872025, -13.6812249, 73.9818991
9503, 1.66650378, -13.9248778, 74.032124
9504, 1.50052821, -13.7077005, 74.4795734
9505, 1.16670096, -13.7861478, 74.1064146
9506, 0.241257416, -13.6812349, 73.9819259
9507, 0.738801514, -13.5399413, 74.0544738
9508, 1.50011973, -17.6849665, 73.3092118
9509, 1.6508595, -16.6855519, 72.1643254
9510, 1.30197796, -16.8669729, 72.2984745
9511, 0.363236237, -14.9986225, 74.7519477
9512, 0.333232638, -17.1311764, 69.8337063
9513, 0.450256063, -27.2674605, 70.5462393
9514, 0.499751078, -27.5160959, 70.9342813
9515, 0.521506909, -27.7375571, 70.5425749
9516, 0.972304013, -27.3949298, 70.3175868
9517, 0.486705838, -27.3361948, 74.1391935
9518, 1.59073981, -24.9970606, 70.2239686
9519, 0.828578481, -21.174198, 80.0893641
9520, 0.559292388, -21.1730281, 79.7510094
9521, 1.50006107, -18.4052713, 78.4867777
9522, 1.50004714, -18.7194383, 78.077858
9523, 0.333152811, -13.4365138, 80.3284594
9524, 0.333101046, -13.5520505, 80.3185507
9525, 0.598492146, -13.4023326, 80.1007358
9526, 1.50006759, -18.0445003, 79.0475913
9527, 1.50010282, -17.5202866, 79.0999818
9528, 0.499928426, -18.0444997, 79.0475938
9529, 0.49988538, -17.5202917, 79.0999993
9530, 0.984990266, -13.4992102, 79.0014347
9531, 1.17983903, -13.1597661, 78.8677244
9532, 0.336725859, -31.4879415, 78.4605776
9533, 0.33613043, -31.2972619, 78.5929839
9534, 1.50067393, -29.9705688, 79.4826615
9535, 1.74611283, -30.202043, 79.5923039
9536, 0.306875377, -14.6846771, 71.1806161
9537, 0.417484537, -16.5582997, 74.400133
9538, 1.58876676, -23.9171217, 72.9937181
9539, 1.25488687, -24.2733339, 73.2934527
9540, 1.54584674, -13.9888483, 70.5090004
9541, 0.455263916, -25.8494185, 73.4990654
9542, 0.382329539, -26.2954319, 73.800908
9543, 1.50001049, -20.8304427, 72.166413
9544, 1.61521489, -21.1783931, 72.3879281
9545, 1.64653412, -17.7971271, 75.2096678
9546, 1.14645186, -17.9225825, 75.6406877
9547, 1.70318006, -31.0144474, 71.5854054
9548, 1.38072344, -31.0334818, 71.2952796
9549, 0.499968711, -24.506914, 78.0535908
9550, 0.411356945, -24.1438566, 77.7948964
9551, 0.499988721, -23.7663484, 70.7497172
9552, 0.428651411, -23.4288997, 70.4777887
9553, 1.65366308, -26.7785077, 80.0880824
9554, 1.50009883, -26.4194993, 79.4550239
9555, 0.486810679, -26.9619375, 74.7432949
9556, 0.499547666, -31.3607296, 71.4724473
9557, 0.833002053, -31.6868463, 71.4160678
9558, 0.332515831, -31.6740592, 71.5551225
9559, 0.190457224, -31.4604519, 71.3628007
9560, 0.523846623, -31.788864, 71.3041731
9561, 0.690556825, -31.4755156, 71.2213938
9562, 1.7815782, -14.3755489, 76.208142
9563, 1.50399679, -14.6350681, 75.8258968
9564, 0.59789161, -18.5801496, 79.8490121
9565, 1.50013571, -17.7436538, 75.7538619
9566, 0.49996079, -19.1107721, 78.1369225
9567, 0.402715826, -19.4993347, 78.2882384
9568, 1.50002094, -19.9117702, 77.0076598
9569, 1.60503401, -20.3228391, 76.8822902
9570, 0.417420265, -16.1926296, 74.5184998
9571, 1.50012047, -17.9030133, 74.5311548
9572, 1.64836266, -17.6665705, 74.2602984
9573, 0.550532023, -31.4783694, 78.0916039
9574, 0.320184386, -31.3020478, 78.1741948
9575, 0.231844843, -31.8329225, 78.0821583
9576, 0.568038938, -31.6563199, 78.3788711
9577, 0.655707017, -31.123295, 78.4630085
9578, 0.333090975, -12.3325972, 79.3958444
9579, 0.333057654, -12.4104962, 79.4794406
9580, 0.652658611, -12.5751166, 79.3591561
9581, 0.999789753, -13.4995087, 74.0352372
9582, 0.931803965, -13.1256624, 73.8162691
9583, 1.50000855, -22.943214, 77.886616
9584, 1.50000794, -22.7945356, 77.360477
9585, 1.51102311, -29.2288146, 74.5790877
9586, 1.51092454, -29.3388073, 74.2977767
9587, 1.50030933, -29.6877141, 74.1846141
9588, 1.56299132, -16.189109, 70.6943231
9589, 1.73300097, -31.7319771, 74.7114551
9590, 1.50056365, -31.1930467, 74.4471796
9591, 1.65356854, -27.9332067, 76.2205713
9592, 1.50009408, -17.9079219, 70.7651079
9593, 1.59512599, -18.1555923, 70.4486333
9594, 1.42443251, -17.8171054, 79.4235724
9595, 0.924351302, -18.1326143, 79.3003713
9596, 1.63158028, -22.1768321, 76.9502956
9597, 1.63157946, -21.9452466, 77.2650443
9598, 1.17392813, -15.6238396, 76.9563289
9599, 1.67953423, -12.8786754, 73.3797999
9600, 1.76344378, -13.1081492, 73.564765
9601, 1.43148302, -12.7551337, 73.8484264
9602, 1.11437338, -12.9342588, 73.6486062
9603, 1.50014495, -17.7841859, 71.0693402
9604, 1.67317008, -17.7460857, 71.4292752
9605, 0.499873198, -17.7436565, 75.7538537
9606, 0.49999177, -21.4590302, 77.1795695
9607, 0.390026734, -21.8258791, 76.9473251
9608, 0.231931617, -30.7233049, 78.6456032
9609, 0.234677617, -30.7443665, 78.8332469
9610, 0.36501399, -30.9802821, 79.2160329
9611, 0.36519069, -30.9594467, 79.0312901
9612, 1.50001117, -20.667416, 78.2717318
9613, 1.66684865, -13.3126439, 80.2864143
9614, 1.66685593, -13.2203704, 80.2530516
9615, 1.34186313, -13.2278497, 80.0694008
9616, 1.23802674, -31.5540241, 76.8391013
9617, 1.42948463, -31.4688627, 76.6818732
9618, 1.11023085, -31.6606287, 76.3372023
9619, 0.873255237, -31.2268441, 76.6174392
9620, 0.26927905, -21.1956211, 80.1556654
9621, 1.73072272, -23.5915651, 80.1556256
9622, 1.463632, -23.2275631, 79.7227786
9623, 1.5002543, -16.4006004, 78.9595721
9624, 0.999938899, -16.8346937, 78.8552982
9625, 1.68871369, -29.7583299, 79.2952808
9626, 1.61117499, -29.3119907, 71.1548585
9627, 1.46659721, -29.3367609, 70.6669888
9628, 0.313974979, -30.8654837, 70.4817732
9629, 1.50000558, -22.5682853, 79.2381129
9630, 1.61078681, -22.9059095, 78.9844766
9631, 1.58877542, -24.3047391, 73.0348165
9632, 1.6661517, -24.4037351, 73.6092004
9633, 0.799587694, -23.6145426, 69.9106203
9634, 0.748488398, -24.227096, 69.8967169
9635, 1.66695555, -30.4479411, 69.6814203
9636, 1.66687406, -30.5662708, 69.6699954
9637, 1.40806812, -30.575216, 69.8926284
9638, 1.5005957, -27.6825729, 78.9876603
9639, 1.43246228, -12.7378163, 74.1749786
9640, 1.61663418, -12.7501187, 74.5440611
9641, 1.66700573, -31.5895865, 70.5203775
9642, 1.66695995, -31.667468, 70.6040181
9643, 1.34751114, -31.4251325, 70.6402115
9644, 0.34943475, -26.8498291, 72.9267734
9645, 1.63157998, -22.4922612, 77.6151082
9646, 0.499861849, -26.4109167, 70.8496014
9647, 0.450303518, -26.7362605, 70.521425
9648, 1.66736247, -31.8488854, 71.4561975
9649, 1.66768273, -31.6740033, 71.5550725
9650, 1.16714681, -31.6868502, 71.4162846
9651, 0.986390298, -12.8324245, 79.6525356
9652, 1.34186703, -13.0016985, 79.9389521
9653, 1.50011035, -18.0415091, 74.8234045
9654, 1.64651698, -18.1103428, 75.2010271
9655, 1.50005943, -18.326607, 79.1412625
9656, 1.42442417, -18.0992123, 79.5172312
9657, 1.66660301, -31.8328354, 78.3339409
9658, 0.332527544, -12.357467, 71.5340232
9659, 0.332495149, -12.1678596, 71.6661595
9660, 0.332649235, -12.147077, 71.4421701
9661, 1.684771, -31.30016, 78.1745613
9662, 1.65094983, -16.5472475, 71.8340466
9663, 1.50018112, -17.4791886, 73.5816099
9664, 1.6483884, -17.5312255, 73.9371889
9665, 1.50152458, -28.029402, 78.616411
9666, 1.35445248, -27.7935373, 78.3113037
9667, 0.499804628, -16.8777154, 79.1335364
9668, 0.459372692, -16.3298136, 79.4356396
9669, 1.63455111, -24.5921439, 76.5285346
9670, 1.67589475, -13.1285792, 70.9643723
9671, 0.499709577, -26.8480392, 72.3407748
9672, 0.349392731, -27.1486124, 72.7180684
9673, 0.382222347, -26.9699809, 73.890041
9674, 0.382259463, -26.6545585, 73.8564717
9675, 1.64652481, -18.030174, 75.4988523
9676, 0.349418809, -27.1495718, 73.0309795
9677, 0.349416584, -27.2998848, 73.3068222
9678, 1.58342578, -18.2851697, 77.971046
9679, 0.866306863, -13.1872125, 71.1183574
9680, 1.17274701, -13.0484869, 71.267797
9681, 0.357374771, -24.9995703, 69.8278989
9682, 0.357370678, -25.3989035, 69.8391274
9683, 0.948104436, -25.1973916, 69.8960298
9684, 0.590675092, -25.3962864, 70.2351556
9685, 0.590684406, -24.9970102, 70.2239486
9686, 1.70183613, -13.8635517, 71.0020071
9687, 1.06268467, -15.4370316, 70.4951098
9688, 1.67632363, -12.8836737, 70.9388938
9689, 1.67577267, -12.9019641, 71.122893
9690, 1.6504252, -20.1669326, 76.4756521
9691, 1.74743031, -13.7967834, 70.4045494
9692, 1.50001225, -23.3193041, 72.7788897
9693, 1.60430716, -23.3435579, 72.3419589
9694, 0.332944075, -12.1512486, 78.5439041
9695, 0.332867395, -12.3261664, 78.4451126
9696, 0.833425004, -12.3207916, 78.5704583
9697, 0.500918059, -27.9298734, 78.9508425
9698, 0.500067834, -27.5824734, 79.3221653
9699, 0.499873833, -26.3050754, 73.3906163
9700, 1.77075242, -29.1909334, 80.1734201
9701, 0.269264954, -18.8175435, 80.2404766
9702, 1.74759152, -13.5764703, 70.2719264
9703, 0.407889016, -13.9151668, 74.8569069
9704, 1.73772949, -12.3517388, 73.5133536
9705, 1.41902203, -12.5318417, 73.3173301
9706, 1.16865387, -12.4031854, 73.7848741
9707, 0.22845383, -12.622158, 71.2876153
9708, 0.228350393, -12.4109445, 71.1946384
9709, 0.457492393, -12.6729682, 71.5059671
9710, 0.457024873, -12.4627638, 71.4138114
9711, 0.297076827, -28.5005669, 77.7427161
9712, 0.354059439, -27.9407922, 77.996983
9713, 1.50015515, -26.2531634, 76.1048718
9714, 1.63971182, -26.5263342, 76.3420508
9715, 0.772347094, -14.4681447, 75.0981852
9716, 1.32443629, -17.5278412, 72.1504075
9717, 1.67318993, -17.5646424, 71.712158
9718, 0.956497532, -24.4759794, 72.5638284
9719, 1.66697105, -31.843979, 78.6878946
9720, 1.31966569, -31.5570572, 78.8368318
9721, 1.50025614, -17.1372356, 77.7699737
9722, 1.6419257, -16.9358373, 77.3916236
9723, 1.50060433, -15.9678363, 76.2764612
9724, 0.346323365, -17.6319663, 80.1526879
9725, 1.65359514, -23.1915681, 80.1556259
9726, 1.65359302, -22.7999897, 80.1535957
9727, 1.117215, -23.235989, 80.0671577
9728, 0.346406528, -21.5956178, 80.1556661
9729, 0.346407462, -22.0000002, 80.1535942
9730, 0.90570678, -21.5741885, 80.0893624
9731, 1.50144685, -27.9329256, 78.9493236
9732, 1.50060724, -27.5855226, 79.320696
9733, 1.50004744, -18.9790031, 71.5416906
9734, 0.499961193, -18.9790191, 71.5416909
9735, 0.790650561, -12.3151781, 71.4707353
9736, 1.39217219, -13.0204471, 70.1219751
9737, 1.01616932, -13.273791, 70.3341417
9738, 0.957870101, -13.2536056, 69.9812667
9739, 1.41408539, -13.2535475, 69.981599
9740, 1.03826882, -13.5073035, 70.1939814
9741, 0.499571321, -15.0731926, 70.3842457
9742, 0.56230392, -15.5214785, 70.3344414
9743, 0.193975633, -12.8556393, 79.6891329
9744, 1.63131348, -21.0811593, 71.111153
9745, 1.56178589, -14.1590647, 74.4131
9746, 1.45059994, -27.0357766, 70.2948333
9747, 0.335794861, -31.1443827, 78.7486702
9748, 0.335562656, -31.1637022, 78.9332572
9749, 0.700904643, -31.1256534, 79.0380493
9750, 1.66672559, -26.3119454, 80.0880334
9751, 1.16670038, -26.3740783, 79.8670633
9752, 1.66703529, -30.063257, 69.6508063
9753, 1.68087594, -30.8179634, 70.8360862
9754, 1.52417214, -30.3994386, 70.6817019
9755, 1.74160746, -30.5742615, 70.5554382
9756, 1.42199499, -30.8754162, 70.498719
9757, 1.67777893, -15.1821575, 73.3413552
9758, 1.66402312, -15.6007268, 73.5555072
9759, 0.266644466, -12.3333658, 74.227718
9760, 0.266975195, -12.2781154, 74.6138068
9761, 0.43064463, -12.7383421, 74.1742635
9762, 0.698753028, -12.4042396, 74.1687642
9763, 0.263460057, -16.7986826, 69.8336503
9764, 0.763464067, -16.7876327, 70.0464402
9765, 1.80592384, -31.1443271, 70.310646
9766, 0.525121449, -30.3999858, 70.6809107
9767, 0.74004477, -13.8183654, 75.8452543
9768, 0.711207065, -14.186613, 75.8499246
9769, 0.346402846, -20.0023729, 80.1973238
9770, 0.936916705, -20.0000921, 80.104154
9771, 0.499991577, -22.8796322, 71.1616089
9772, 0.510735548, -22.639705, 70.7110617
9773, 1.66700604, -12.151186, 78.5437894
9774, 1.6668738, -12.3258762, 78.4449716
9775, 1.80935558, -12.363969, 78.7369471
9776, 1.80928476, -12.5398269, 78.6371783
9777, 1.47566821, -12.2118614, 78.6952858
9778, 0.332589143, -31.848792, 71.45635
9779, 0.190439203, -31.636144, 71.2629099
9780, 1.21637342, -16.3421166, 69.9733893
9781, 1.56292323, -16.3397673, 70.3071378
9782, 1.66689852, -13.5520648, 80.3185593
9783, 1.6668613, -13.4365226, 80.3284723
9784, 1.34184151, -13.3517466, 80.1114628
9785, 1.61226826, -14.5814535, 76.2990823
9786, 1.61197987, -29.0228516, 71.5623251
9787, 1.50001429, -20.1683121, 70.964884
9788, 1.59156371, -20.2985116, 70.5677214
9789, 1.63131359, -20.6868717, 71.0916047
9790, 1.22286351, -20.6153731, 70.7954223
9791, 1.67159386, -15.949691, 77.1343581
9792, 0.233568415, -14.8408622, 69.8621779
9793, 0.820064809, -13.159593, 78.8678716
9794, 1.16297811, -29.2430706, 74.0674624
9795, 1.2614929, -29.630146, 73.9116523
9796, 1.42322502, -29.1255602, 73.7115929
9797, 0.282527445, -20.7201345, 69.8439564
9798, 0.282526238, -20.3143435, 69.8361037
9799, 0.874084011, -20.4318053, 69.8857698
9800, 0.424312106, -18.1700267, 79.8286128
9801, 0.424297288, -18.0990963, 79.5172
9802, 1.02229228, -18.3150969, 79.6966524
9803, 0.48673064, -27.1654145, 74.4264203
9804, 0.382242345, -26.7990206, 74.1774746
9805, 1.60886932, -20.4965647, 73.7900859
9806, 1.22080034, -20.4843293, 73.5886604
9807, 1.61195258, -20.4669066, 73.3825708
9808, 1.00206116, -30.7261247, 79.664682
9809, 0.958096832, -30.746401, 80.0180804
9810, 1.3776611, -30.9794115, 79.8775162
9811, 1.45675503, -30.7259557, 79.663535
9812, 1.4126707, -30.7464244, 80.0177794
9813, 1.03716481, -30.4927045, 79.8045043
9814, 0.299294839, -14.2507244, 76.0128246
9815, 0.30431326, -14.4319963, 76.2214222
9816, 0.503653151, -14.6349465, 75.8258246
9817, 0.503989032, -14.45711, 75.6108317
9818, 0.322162759, -31.1182729, 78.3094736
9819, 0.65263458, -31.265941, 70.4334302
9820, 1.01366572, -31.2659554, 70.4332604
9821, 0.995175258, -30.9509609, 70.5571653
9822, 1.08875301, -24.5093982, 72.9450857
9823, 1.588779, -24.5345639, 72.7228787
9824, 0.23782069, -13.2110474, 78.6022216
9825, 0.319457224, -12.983355, 78.4146043
9826, 0.639114688, -12.9662174, 78.7044761
9827, 0.56037763, -13.2009311, 78.8841364
9828, 0.333727918, -13.741828, 78.8907
9829, 0.484553684, -13.5260027, 79.2977931
9830, 0.499984013, -20.4457035, 72.1285674
9831, 0.21956323, -19.9375095, 71.9415772
9832, 0.219565506, -20.0949664, 72.2967623
9833, 1.31979804, -31.5312625, 78.9650231
9834, 1.6668792, -31.8088382, 79.0045561
9835, 1.47565621, -31.6152543, 79.1862376
9836, 0.952473018, -12.4158148, 74.9267316
9837, 1.25153183, -18.9625366, 80.1085051
9838, 1.24410532, -19.6001136, 80.1041616
9839, 0.395235748, -17.6088767, 74.7837343
9840, 0.219568776, -20.4797186, 72.3346051
9841, 1.7828082, -29.5164372, 71.0664264
9842, 0.243899201, -13.4967459, 78.8335946
9843, 0.724460466, -13.5395783, 79.0228314
9844, 1.51074751, -22.6397036, 70.7110613
9845, 0.939400847, -22.8334165, 70.4015868
9846, 1.68078557, -12.8332201, 79.4331709
9847, 1.34736204, -12.7341406, 79.5660017
9848, 1.80809175, -12.6726765, 79.4721514
9849, 1.47474523, -12.5734311, 79.605088
9850, 1.48832978, -12.7216452, 79.2567038
9851, 0.719562945, -19.6894194, 72.4795922
9852, 1.76235072, -14.4937343, 73.8573099
9853, 1.56121186, -14.4921844, 74.2838515
9854, 0.391556166, -16.0580445, 78.3944321
9855, 1.56307874, -15.7804429, 70.6641655
9856, 0.59932711, -12.424098, 77.4532717
9857, 0.601592117, -12.5173106, 77.1074162
9858, 0.79556074, -12.4413113, 77.2721929
9859, 0.871783212, -19.9166986, 72.1633585
9860, 0.334311003, -13.5663615, 76.1354481
9861, 0.500018185, -13.3161014, 75.729975
9862, 1.50000893, -20.6969193, 70.6940877
9863, 0.428652967, -23.063659, 70.6307317
9864, 1.24260064, -24.5530592, 72.2963531
9865, 0.820447073, -12.8549905, 78.4051643
9866, 1.50099125, -13.3728963, 74.6359036
9867, 1.61671866, -13.0054396, 74.7889856
9868, 0.330708655, -16.0705306, 69.8620728
9869, 0.499698957, -16.3865814, 70.4084837
9870, 0.830879653, -16.4578951, 70.0461602
9871, 0.893538156, -16.0131552, 69.973058
9872, 0.562281018, -15.9422143, 70.3348608
9873, 1.63131284, -21.245709, 71.472068
9874, 0.871641442, -15.4128005, 76.9968974
9875, 0.282232556, -22.0799894, 69.8451111
9876, 0.510736117, -22.4034918, 70.3360693
9877, 0.838429299, -12.4503024, 76.8460923
9878, 1.23707055, -12.4455641, 76.8396248
9879, 0.499770279, -16.7926386, 78.6303859
9880, 1.50016577, -16.7926866, 78.6303632
9881, 0.98641561, -12.7340654, 79.5662888
9882, 0.652662283, -12.7341825, 79.5659825
9883, 1.20421492, -31.1555359, 71.5752786
9884, 1.59797553, -18.5091273, 79.5375529
9885, 1.59796954, -18.580098, 79.8489893
9886, 1.4244072, -18.1701141, 79.8286382
9887, 0.317199913, -15.1029761, 78.3008001
9888, 0.391989531, -15.484641, 78.3579034
9889, 0.391817665, -15.4569728, 78.6011373
9890, 0.708011139, -15.3204865, 78.2393685
9891, 1.66432112, -27.0595535, 75.119149
9892, 1.66434725, -27.2085642, 75.4793414
9893, 0.499960701, -25.2090432, 70.9862505
9894, 0.378561711, -25.5516558, 70.5333859
9895, 0.499259526, -29.8849547, 75.0631767
9896, 0.357259537, -29.8164153, 75.4128329
9897, 0.499691122, -16.6164021, 74.5581295
9898, 0.294081028, -31.3196337, 72.9780023
9899, 0.290953553, -31.7275728, 73.0137264
9900, 0.598552979, -31.584848, 72.5691793
9901, 0.620883198, -31.4955513, 72.8957414
9902, 0.318953444, -31.1889508, 73.3081543
9903, 1.01197546, -15.606851, 77.3185778
9904, 1.62092856, -21.2401461, 69.843958
9905, 1.50000681, -20.9137245, 70.3560976
9906, 1.66926697, -16.0434802, 80.1287439
9907, 1.12876074, -16.1790099, 80.0668831
9908, 0.240131825, -13.2863004, 78.7616224
9909, 0.319320985, -12.9684913, 79.0949975
9910, 0.597402046, -31.6050588, 77.4361591
9911, 0.600606782, -31.4939687, 77.1034453
9912, 0.803227491, -31.5302631, 77.2753796
9913, 0.346364151, -18.3977212, 69.8154698
9914, 0.346360431, -18.0019719, 69.8253165
9915, 0.941452366, -18.3548605, 69.8855552
9916, 1.16348226, -31.4109923, 75.665243
9917, 1.0360642, -31.6595912, 75.9527416
9918, 0.332688359, -31.8321522, 78.3335159
9919, 1.00079039, -12.4424573, 77.8685348
9920, 0.736387189, -12.4350964, 77.9084834
9921, 1.00100999, -12.7645293, 78.2271998
9922, 0.732728949, -12.3195606, 78.321794
9923, 1.00039454, -12.3185888, 78.2823219
9924, 0.30247101, -29.5913442, 76.0947758
9925, 0.499433607, -29.3504823, 75.6658497
9926, 0.311227723, -30.5705122, 76.1826023
9927, 0.499395602, -30.7989734, 75.7640208
9928, 0.332962833, -30.0632488, 69.6507569
9929, 0.485586241, -15.2136294, 74.3716818
9930, 1.65457837, -25.1795716, 73.6628109
9931, 0.553861947, -12.522666, 78.093491
9932, 0.782529353, -20.8302173, 70.0121347
9933, 0.823310714, -14.1810446, 71.0102296
9934, 1.46363051, -23.0192866, 79.3795642
9935, 1.73336274, -25.5427077, 80.1673087
9936, 1.36532717, -25.7332024, 80.1295314
9937, 0.831977495, -15.1193165, 70.0227277
9938, 0.331763279, -15.2033836, 69.8621539
9939, 0.894802137, -15.5672081, 69.9725578
9940, 1.66691726, -30.6742874, 80.259128
9941, 1.6668727, -30.7843819, 80.2329172
9942, 1.4126859, -30.629009, 80.0755578
9943, 1.50000853, -22.6297083, 77.0383164
9944, 0.290718807, -30.4235667, 79.7276536
9945, 1.63204443, -26.125233, 79.7175066
9946, 1.2986521, -26.079783, 80.1295757
9947, 1.58341449, -18.5095794, 77.6625617
9948, 1.0185398, -12.5311147, 73.3202666
9949, 0.653656285, -12.5339089, 73.3141302
9950, 0.75081268, -12.9315299, 73.6481082
9951, 0.768292806, -12.4036561, 73.7808082
9952, 1.70356603, -31.3009877, 71.8342895
9953, 1.69952976, -31.1450414, 71.7146985
9954, 1.76917952, -31.6747505, 71.8061968
9955, 1.47201347, -31.4730483, 71.9072791
9956, 1.76824655, -31.8330334, 71.9285062
9957, 0.867743463, -24.4869191, 72.1597446
9958, 1.72593255, -13.0121749, 70.6834462
9959, 0.333064617, -30.9853821, 69.8888579
9960, 0.333111412, -30.8946734, 69.8044166
9961, 0.647673663, -30.8917336, 70.051444
9962, 0.408239301, -14.0496842, 75.4589022
9963, 0.499650859, -16.4003338, 78.9595694
9964, 0.837346177, -12.4469336, 73.1591822
9965, 0.306763324, -12.8079121, 76.6928519
9966, 0.29182589, -12.2715884, 76.9884625
9967, 0.305459352, -12.6885141, 77.0315946
9968, 0.233688462, -29.1654449, 69.803018
9969, 0.463618286, -22.8359991, 79.7207459
9970, 1.22746501, -14.2345288, 74.0393745
9971, 1.66375782, -12.2320262, 75.7123606
9972, 1.27943595, -12.415584, 75.3139235
9973, 0.736951841, -31.5567865, 72.0568751
9974, 0.539126222, -31.4780973, 71.901429
9975, 0.805245935, -31.1557323, 71.5760668
9976, 0.731964318, -31.6870813, 71.6658083
9977, 1.00292807, -31.2503111, 71.7245645
9978, 0.330789518, -16.4688653, 69.8335426
9979, 0.395180323, -17.2869453, 75.4037466
9980, 1.50033192, -27.3974935, 75.8570789
9981, 1.68097443, -12.96713, 79.2944653
9982, 0.290250069, -13.5763496, 70.2712426
9983, 0.363973423, -13.0197316, 70.7830144
9984, 1.72587796, -13.1329071, 70.5044144
9985, 1.74765924, -13.3661053, 70.3643337
9986, 1.54553437, -12.2688446, 71.6932309
9987, 1.2774312, -12.7107116, 71.7573145
9988, 1.26339242, -12.4496807, 72.06081
9989, 1.22540967, -12.3136633, 71.7202781
9990, 0.956111449, -12.7548351, 71.7762629
9991, 1.23513988, -12.5832504, 71.41546
9992, 0.332859641, -31.8529446, 78.5576893
9993, 1.66880737, -28.0840422, 69.8723847
9994, 0.810696757, -24.2715775, 80.0700148
9995, 0.810031065, -23.6359737, 80.0671622
9996, 1.666952, -13.2156027, 69.7670079
9997, 1.66700034, -13.3256875, 69.7407907
9998, 1.41409181, -13.3709448, 69.9237952
9999, 1.62501871, -24.3552792, 69.8237597
10000, 1.00257359, -24.5964746, 69.8967052
10001, 1.76629613, -14.8340751, 80.1969872
10002, 1.30207823, -14.5301015, 79.9885951
10003, 0.26494258, -13.3966811, 79.6781625
10004, 0.324894385, -13.7816939, 79.7005143
10005, 0.595537616, -12.4048537, 72.5625209
10006, 0.613479788, -12.5060483, 72.8933119
10007, 0.801976332, -12.4662568, 72.7182118
10008, 1.28137248, -15.5032102, 69.9725652
10009, 1.56300907, -15.5210014, 70.3349192
10010, 1.69303502, -30.4306123, 71.1376015
10011, 0.735978293, -25.5495816, 69.8937111
10012, 0.378557093, -25.748539, 70.2328598
10013, 1.61406379, -25.9109964, 75.3785481
10014, 0.319000475, -13.1816497, 79.1629204
10015, 0.807116735, -31.5308305, 72.7113409
10016, 1.6209739, -25.6371735, 69.839105
10017, 1.62097264, -26.0178001, 69.8216727
10018, 0.999529993, -25.7878456, 69.8936881
10019, 0.417383371, -16.0893483, 72.708334
10020, 1.62502665, -24.7548785, 69.827905
10021, 1.72539437, -22.4092464, 69.8451107
10022, 1.72539348, -22.8087669, 69.8197308
10023, 1.51074685, -22.4034911, 70.3360699
10024, 1.51074703, -22.8030017, 70.3106881
10025, 1.23613333, -22.4152209, 69.9909558
10026, 1.7663473, -14.4395628, 80.2284204
10027, 1.53629019, -14.4447382, 79.7174862
10028, 1.00404724, -31.539041, 72.1007258
10029, 0.999929247, -31.6893059, 71.7041619
10030, 1.01833746, -31.0369905, 79.1172135
10031, 0.986013261, -31.4887858, 79.088586
10032, 0.698325837, -31.3954783, 79.2934124
10033, 0.668953705, -31.5781984, 79.009595
10034, 0.333049157, -31.1815599, 70.0193021
10035, 0.33303488, -31.0941579, 69.9614901
10036, 0.647665492, -31.0005479, 70.1240333
10037, 0.331869205, -15.624549, 69.8617998
10038, 0.958507184, -12.9733595, 71.4965247
10039, 1.49922998, -19.3474804, 71.5815752
10040, 0.999203808, -19.7465763, 71.3892741
10041, 0.999206703, -19.2785447, 71.1701708
10042, 0.499180902, -19.3474849, 71.5815766
10043, 0.570343731, -30.8949645, 78.6654036
10044, 0.313460439, -26.4154433, 80.0879815
10045, 0.228322252, -12.5917224, 71.0882209
10046, 1.51093369, -29.0345734, 74.298598
10047, 1.65375927, -16.3996672, 69.8622091
10048, 1.56303973, -15.9417724, 70.3352282
10049, 0.333083923, -13.6803732, 80.3440705
10050, 0.333059083, -13.8062015, 80.3405608
10051, 0.658457262, -13.9155682, 80.148125
10052, 1.73813585, -31.6627163, 76.4854604
10053, 0.233705607, -29.1808674, 80.1734166
10054, 0.357390708, -21.0018268, 69.8439571
10055, 0.521519609, -28.0391006, 70.6903618
10056, 0.243541238, -13.4290101, 73.7919229
10057, 0.499044642, -13.4558742, 74.2924302
10058, 1.63509945, -23.1982692, 69.8197265
10059, 1.14583825, -22.8047203, 69.9909544
10060, 1.77084668, -30.8115391, 73.7633091
10061, 1.50053866, -31.0407936, 74.222127
10062, 0.499804809, -16.0684679, 78.7964356
10063, 0.499935939, -15.6027095, 79.0015507
10064, 0.45926846, -15.9976071, 79.2724681
10065, 0.313994235, -30.6560583, 70.3739961
10066, 0.424268746, -17.8169786, 79.4235346
10067, 0.407757618, -13.7288863, 75.5932772
10068, 1.50001142, -20.6783323, 71.8073585
10069, 0.357337342, -29.7072773, 75.7197492
10070, 0.655904449, -29.7523985, 76.0148739
10071, 1.26681673, -31.5502965, 77.9310884
10072, 1.44969355, -31.4756496, 78.0956256
10073, 0.590682961, -25.1994009, 70.5356775
10074, 0.377537298, -24.8432853, 70.5363854
10075, 0.231991415, -30.8140639, 73.7622335
10076, 0.499466165, -31.0407297, 74.222147
10077, 0.228283654, -12.7543824, 70.9468381
10078, 1.26864824, -31.5581961, 72.0583455
10079, 1.27183895, -31.6897152, 71.6637579
10080, 1.06375648, -23.2286781, 69.9106244
10081, 1.63158076, -22.3274273, 77.2929489
10082, 0.327957374, -13.8852689, 76.002043
10083, 1.66696952, -31.7667857, 79.128391
10084, 1.66695645, -31.7308591, 79.2726029
10085, 1.47567009, -31.573027, 79.3098719
10086, 0.332473358, -31.8315225, 71.6768864
10087, 1.49922817, -19.5062835, 71.9349254
10088, 0.999204411, -19.4786109, 72.1520859
10089, 0.999209299, -19.158092, 71.6727943
10090, 0.303640647, -29.4605157, 71.0776748
10091, 0.466731524, -29.3367234, 70.6666955
10092, 0.784394524, -31.5635011, 77.7177095
10093, 0.986826873, -31.1926004, 77.5439833
10094, 1.19121428, -31.5746756, 77.7136632
10095, 0.336005732, -12.274997, 76.5623805
10096, 1.64649406, -18.3346484, 74.9969642
10097, 0.395164978, -17.0866873, 75.1151059
10098, 0.33289833, -31.8345169, 78.8764638
10099, 0.3328686, -31.8440982, 78.6880599
10100, 0.668909786, -31.6465868, 78.7583901
10101, 0.318063246, -29.5805682, 75.0809237
10102, 0.450260124, -27.0359032, 70.2948571
10103, 0.521614582, -27.5063114, 70.2914668
10104, 0.33308138, -31.7308516, 79.272584
10105, 0.333089038, -31.7667754, 79.1284316
10106, 0.547572625, -31.5730195, 79.3096589
10107, 0.784605909, -22.8915565, 80.0671547
10108, 0.463615859, -23.2275696, 79.7227758
10109, 0.833406035, -12.3556672, 78.8281422
10110, 1.76808824, -31.8331642, 78.0824214
10111, 0.320672636, -12.8569662, 78.2834613
10112, 0.23176702, -12.166641, 71.9173174
10113, 0.540294556, -12.5243465, 71.9039783
10114, 0.305256374, -12.700389, 71.826672
10115, 0.457875035, -12.4825541, 71.637575
10116, 0.690030398, -12.3148639, 71.7200968
10117, 1.73072801, -24.3836278, 80.1654255
10118, 0.537220625, -12.419467, 72.2686456
10119, 0.303702346, -12.5815645, 72.168902
10120, 1.48732172, -27.3653424, 74.7817924
10121, 1.66439303, -27.4631098, 75.1574946
10122, 0.958101303, -30.5050594, 80.1178274
10123, 1.16693226, -30.2737174, 80.0062965
10124, 1.41266999, -30.5050511, 80.1175776
10125, 0.19633235, -31.0722689, 79.7225849
10126, 0.196317677, -30.9135731, 79.8030049
10127, 0.196305726, -30.9584283, 79.6030987
10128, 1.36386472, -31.0443815, 79.2178571
10129, 1.3776979, -31.3459474, 79.5121181
10130, 1.31984853, -31.4308122, 79.2060325
10131, 1.4757052, -31.5149916, 79.4270533
10132, 1.51978699, -31.1285846, 79.4385935
10133, 0.499182819, -19.7267322, 71.6140652
10134, 0.999203386, -20.0880156, 71.8720117
10135, 1.34744665, -31.2659605, 70.4334142
10136, 0.981461165, -31.0989835, 70.2099846
10137, 1.68411357, -12.8579242, 78.2854435
10138, 1.80927489, -12.665954, 78.7693742
10139, 1.49264678, -12.744272, 78.5356296
10140, 0.536681683, -31.5786412, 72.2691043
10141, 0.231774201, -31.8327369, 71.9279115
10142, 0.304194802, -31.4168203, 72.1832476
10143, 0.305749332, -31.2994098, 71.8373845
10144, 0.346403274, -23.9979159, 80.157718
10145, 1.58877523, -24.3741496, 72.3825702
10146, 1.65386947, -24.7528957, 71.9598631
10147, 1.64189737, -17.0051967, 77.0552241
10148, 1.74078547, -18.4175779, 80.2404955
10149, 1.33870686, -18.5625879, 80.1085274
10150, 1.16513678, -18.1525382, 80.088147
10151, 0.782437731, -31.5661955, 72.2823389
10152, 1.20243768, -31.5580883, 72.2943279
10153, 0.996294652, -31.190185, 72.4429148
10154, 0.264994692, -13.1756803, 79.8792359
10155, 1.50078156, -29.1594596, 75.4009737
10156, 1.81631441, -30.8657726, 79.85531
10157, 1.56201078, -30.7694501, 79.8235146
10158, 1.81623781, -30.9246916, 79.9804454
10159, 0.377541652, -24.6408308, 70.2246349
10160, 0.734944756, -24.8411635, 69.8966957
10161, 1.70467217, -13.3319617, 71.3244065
10162, 1.65223107, -19.8339955, 72.405117
10163, 0.21395589, -31.1574155, 79.2310345
10164, 0.993929815, -12.8110377, 72.4545198
10165, 0.783470496, -12.4286046, 72.282954
10166, 1.20159991, -12.4354089, 72.2938814
10167, 1.00100979, -12.4616866, 72.1038099
10168, 0.768064743, -12.4046855, 74.5563372
10169, 0.191775688, -31.3273566, 70.5275148
10170, 0.506452962, -31.1115921, 70.5187685
10171, 0.52525178, -31.4265914, 70.3945436
10172, 1.50043665, -28.0733485, 75.2200103
10173, 1.66399193, -31.692349, 75.7590089
10174, 1.74160747, -30.8018852, 70.1141989
10175, 0.430774165, -13.0765794, 74.073923
10176, 0.672252771, -13.1631441, 73.8351729
10177, 0.305740641, -15.4976536, 72.7187763
10178, 0.314454315, -15.3895378, 73.0632679
10179, 0.417420489, -15.8739114, 72.9990494
10180, 0.725829034, -15.5364571, 72.776811
10181, 1.66690304, -30.5504157, 80.301158
10182, 1.66689505, -30.4099885, 80.3471517
10183, 0.53931298, -31.5718184, 77.7206256
10184, 0.304594158, -31.4146746, 77.8247479
10185, 1.65342227, -27.4033582, 76.4578579
10186, 1.50040998, -31.2378311, 73.8764178
10187, 1.26811076, -30.8924051, 73.6768322
10188, 1.00016134, -31.1163465, 74.1237209
10189, 1.80815967, -12.6615383, 79.3526614
10190, 1.8081751, -12.8066686, 79.3329783
10191, 1.8082039, -12.6095752, 79.2290066
10192, 1.00014755, -30.9392703, 73.6517877
10193, 1.7330223, -12.2321928, 75.323861
10194, 1.73318753, -12.2779777, 75.0020148
10195, 1.6165763, -12.6945764, 74.9291666
10196, 1.3489247, -12.4158738, 74.9268783
10197, 0.310641103, -12.8836984, 71.6905941
10198, 0.191640266, -31.3907696, 70.7704699
10199, 0.191657607, -31.1935177, 70.6665029
10200, 0.191686136, -31.3386112, 70.6468979
10201, 1.16694323, -31.6520996, 71.1580612
10202, 1.05831639, -12.9116608, 70.194394
10203, 0.698133947, -12.920644, 70.2959722
10204, 0.624077054, -13.1447016, 70.054106
10205, 1.6397739, -26.8969858, 76.3898538
10206, 1.58876495, -23.7565083, 72.6374799
10207, 1.05832752, -13.0204859, 70.121725
10208, 0.624039379, -13.2535929, 69.9815042
10209, 1.50006813, -25.4719906, 72.2626119
10210, 1.65388615, -25.1308346, 71.993636
10211, 1.66691873, -12.8184218, 79.9806191
10212, 1.66692998, -12.9058257, 80.0384331
10213, 0.264951744, -13.4029942, 79.4380804
10214, 1.66704368, -30.1606066, 80.2193518
10215, 1.6669226, -30.2816887, 80.372684
10216, 1.41266455, -30.3766808, 80.1431148
10217, 0.349324663, -27.6246415, 73.2493236
10218, 0.363209257, -14.6677271, 74.8603875
10219, 1.50002433, -24.1561404, 72.2791338
10220, 1.50002672, -24.3850621, 71.9784888
10221, 1.58877109, -24.1452341, 72.6832121
10222, 0.499973462, -24.3850571, 71.9784906
10223, 0.725211936, -27.0529066, 69.9104092
10224, 0.274696481, -27.1643414, 69.8843568
10225, 0.796557166, -27.5235383, 69.9072403
10226, 0.499983648, -23.7712979, 74.0547597
10227, 0.389175052, -24.0062667, 73.700266
10228, 0.499258414, -29.1592656, 75.4009087
10229, 1.58876726, -23.9865444, 72.3405143
10230, 0.890035639, -15.5207561, 72.509594
10231, 1.66698171, -13.4495576, 69.698753
10232, 1.66698402, -13.5899871, 69.6527572
10233, 1.41407119, -13.4949018, 69.8817592
10234, 0.73499185, -30.8952094, 73.6755214
10235, 0.499690825, -31.2375627, 73.8764197
10236, 1.45116112, -12.4185757, 72.2648196
10237, 1.76809779, -12.1669127, 71.9176893
10238, 1.68860408, -12.5812491, 72.1694701
10239, 1.69486505, -12.699576, 71.8263685
10240, 1.46002315, -12.5237415, 71.9034146
10241, 1.66252767, -28.8742884, 73.9872903
10242, 0.718771572, -19.7373737, 72.0402008
10243, 0.343559022, -24.8571705, 71.0273448
10244, 1.46915553, -12.8028296, 71.6055061
10245, 0.735254436, -12.4440041, 72.0585079
10246, 1.23395847, -12.4426896, 73.1567989
10247, 1.55930179, -21.9741793, 79.7429527
10248, 0.330817969, -27.5249233, 80.1560951
10249, 1.80811924, -12.5571071, 79.3765712
10250, 1.82145229, -13.0752878, 70.0194555
10251, 1.82154297, -13.134209, 70.1445957
10252, 1.56873395, -13.2305303, 70.1757715
10253, 1.61078783, -23.1141833, 79.3276922
10254, 1.7767418, -12.4378897, 71.6123729
10255, 1.29483224, -25.4737909, 71.8005941
10256, 0.866979194, -18.7517431, 69.8855897
10257, 1.23742929, -18.7537406, 69.8855913
10258, 1.002547, -31.6465905, 78.7586098
10259, 1.15221795, -19.6578993, 72.2752483
10260, 0.19175663, -31.4430389, 70.623066
10261, 1.66699671, -13.7182929, 69.6272145
10262, 1.66716711, -13.8385242, 69.778756
10263, 1.41405786, -13.6232865, 69.8561643
10264, 1.68722244, -31.4172004, 72.1843216
10265, 1.44971054, -31.5797966, 72.2708851
10266, 1.6313143, -21.0075427, 71.8104046
10267, 1.72433637, -26.7826075, 69.884473
10268, 1.74148436, -30.3280032, 70.3991514
10269, 1.74164814, -30.580737, 70.3154179
10270, 0.367719743, -24.6758105, 72.2273386
10271, 1.62501256, -20.7571189, 69.8439551
10272, 1.12501058, -20.8671987, 70.0121347
10273, 1.45503251, -31.5847266, 77.7432563
10274, 1.69164331, -31.4188869, 77.8311149
10275, 1.65460079, -25.5602378, 73.7083903
10276, 0.561895527, -12.2620362, 71.2500098
10277, 0.507952848, -15.9359058, 77.49648
10278, 0.799163007, -15.6347044, 77.4948088
10279, 0.295711308, -15.4621981, 77.4995497
10280, 0.391392697, -15.7387492, 77.8972482
10281, 0.685009192, -15.4395263, 77.8963338
10282, 0.647695756, -30.774406, 69.9935989
10283, 0.857698479, -30.5242421, 70.0634776
10284, 1.07442609, -30.6991595, 69.9345127
10285, 1.05589144, -30.7085981, 70.2754771
10286, 1.67550625, -13.5357837, 79.8313627
10287, 0.499817519, -17.1934249, 74.7811756
10288, 0.395194639, -17.4342348, 75.0846127
10289, 1.0000459, -16.2465558, 75.8222331
10290, 1.61407838, -26.1322697, 75.067976
10291, 0.21412491, -31.0366393, 79.4105229
10292, 0.214058028, -31.2138766, 79.394296
10293, 1.50011734, -17.7774673, 72.4000672
10294, 1.60195231, -17.9685538, 72.7898113
10295, 1.65144042, -17.476369, 72.5996405
10296, 1.25320691, -17.80863, 72.8672636
10297, 1.55930337, -21.3601011, 79.4010814
10298, 1.60624243, -21.1968784, 78.8774746
10299, 1.00005746, -13.0361286, 78.5845182
10300, 1.26000703, -13.0710619, 78.60629
10301, 1.18088976, -12.7592152, 78.9311971
10302, 0.957906616, -12.3130897, 71.7588132
10303, 0.818020494, -13.4016262, 79.9152152
10304, 1.00822338, -13.2278799, 80.0694511
10305, 1.73236133, -18.4085916, 69.8154774
10306, 1.73234559, -18.8070248, 69.8295587
10307, 1.59508501, -18.7508317, 70.2151777
10308, 1.32740042, -18.3657433, 69.8855655
10309, 1.59510606, -18.3524566, 70.2010748
10310, 1.64107614, -26.0894891, 71.9514959
10311, 0.539110961, -12.4215998, 77.7492142
10312, 0.333077794, -30.6743085, 80.2591208
10313, 0.333107561, -30.7843957, 80.2328967
10314, 0.624335697, -30.6290475, 80.0757327
10315, 1.60624429, -21.0072951, 78.5350318
10316, 0.499901404, -18.1286059, 74.2820776
10317, 0.407993451, -18.169893, 73.8830732
10318, 1.50006025, -25.4373594, 71.331487
10319, 1.69483407, -13.0413941, 71.5388465
10320, 1.36695657, -12.9199637, 71.4021331
10321, 1.22596552, -21.9075146, 80.0893618
10322, 1.16692285, -30.1453076, 80.0316147
10323, 0.259233766, -23.1915718, 80.155624
10324, 0.259233593, -23.5979336, 80.1577091
10325, 0.722859047, -23.2359902, 80.0671574
10326, 0.391448054, -15.7425309, 78.6023336
10327, 0.3330911, -13.0146016, 80.1110902
10328, 0.333142558, -13.103049, 80.1952006
10329, 0.598462535, -13.161032, 80.000886
10330, 0.408020593, -18.5262344, 73.9580051
10331, 0.291603771, -31.5568499, 77.27315
10332, 1.65301072, -31.0548012, 78.827062
10333, 1.65370403, -30.8299169, 78.9856585
10334, 1.65350774, -31.0738796, 79.0114395
10335, 1.04399166, -30.9794231, 79.8777694
10336, 0.624325764, -30.7464187, 80.0178712
10337, 0.3329998, -13.3256865, 69.7407737
10338, 0.333060453, -13.2155978, 69.7670016
10339, 0.623999453, -13.3709757, 69.9236201
10340, 1.67824286, -28.2314122, 75.499668
10341, 1.6644933, -27.7415886, 75.3255703
10342, 1.6537271, -27.6011247, 80.1702267
10343, 0.820888895, -14.5271704, 71.1217271
10344, 0.364726172, -30.8587694, 79.39461
10345, 0.656256545, -30.7175339, 79.5628762
10346, 0.290745265, -30.6341234, 79.6354114
10347, 1.00339766, -31.0419122, 71.4571819
10348, 0.819664845, -31.2472361, 71.0568987
10349, 0.336413162, -31.7321448, 74.7114517
10350, 0.499420699, -31.1930445, 74.4471501
10351, 1.80925405, -31.157002, 79.2307817
10352, 0.388280227, -15.6334549, 71.875885
10353, 0.698335409, -15.4321082, 71.9886982
10354, 0.343562798, -24.5420698, 71.6607204
10355, 1.66688178, -30.8946582, 69.8044236
10356, 1.66693335, -30.9853872, 69.8888484
10357, 1.4080808, -30.816512, 69.9924981
10358, 0.311376272, -14.4204257, 71.202738
10359, 0.322481683, -14.6860519, 70.830841
10360, 0.630789781, -14.3660054, 71.0446884
10361, 0.32271621, -14.4199802, 70.858522
10362, 0.502815806, -14.7474092, 75.4870797
10363, 1.66657709, -14.2548512, 73.9097081
10364, 0.320980802, -22.8471306, 80.1556229
10365, 0.408010763, -18.3070943, 74.2203587
10366, 1.67282583, -15.9425189, 69.8619704
10367, 1.23538009, -15.8850945, 69.9729847
10368, 1.15359219, -20.76607, 79.9191557
10369, 1.24410227, -20.4000699, 80.104147
10370, 0.346362197, -25.9775056, 80.0879232
10371, 0.266972987, -31.7323058, 74.3232251
10372, 0.767150798, -31.4613916, 74.3467007
10373, 0.767275531, -31.6561236, 73.9997439
10374, 0.499716354, -31.3885337, 74.1015007
10375, 1.71129151, -30.9877935, 79.3164359
10376, 1.67014521, -30.7162406, 79.144864
10377, 1.38066538, -30.6871975, 79.3515338
10378, 1.32255857, -30.7729658, 79.046599
10379, 1.45079574, -12.5233247, 78.0954727
10380, 1.26612149, -12.4368049, 77.9086363
10381, 1.47019306, -12.4204031, 77.7483726
10382, 1.03199909, -31.3373047, 79.4110795
10383, 1.07598103, -30.9508878, 79.4226466
10384, 0.291820614, -12.4489721, 72.7285335
10385, 0.33081034, -27.5026267, 69.8842389
10386, 0.852737488, -27.8618177, 69.9070446
10387, 1.61078996, -23.2927057, 78.9904559
10388, 1.66419311, -31.6625923, 76.0991699
10389, 1.67042883, -30.1625369, 79.2803596
10390, 1.4157805, -30.4534538, 79.4914474
10391, 1.67570115, -14.1616396, 79.9001905
10392, 1.44169678, -14.2472075, 80.1716869
10393, 1.65141843, -17.5958042, 72.9590249
10394, 1.67317893, -17.6874941, 72.0730696
10395, 1.23600817, -31.5550774, 73.1566082
10396, 1.41912709, -31.4695391, 73.3188718
10397, 1.00337189, -31.2141656, 73.3271126
10398, 1.18301058, -31.1230552, 73.4775212
10399, 1.23701195, -31.657003, 73.6156614
10400, 1.50019603, -16.7785697, 72.505097
10401, 0.945483184, -26.1843992, 80.1295919
10402, 1.65360114, -19.2062812, 80.2621637
10403, 0.73192099, -31.5614632, 77.9400621
10404, 1.50000665, -20.9519754, 79.2308719
10405, 1.60624435, -20.7562449, 78.8793713
10406, 1.44452514, -12.2694666, 71.4433298
10407, 1.12451438, -12.315032, 71.47019
10408, 1.39218975, -12.9115665, 70.1945772
10409, 1.50001112, -20.7792407, 76.1971184
10410, 1.60503147, -20.5502895, 76.5608993
10411, 1.2128893, -21.1741975, 80.0893639
10412, 0.391190514, -15.7392477, 78.2436475
10413, 0.275385618, -23.1982728, 69.8197289
10414, 0.275388269, -22.7987536, 69.8451103
10415, 0.428652723, -23.2269605, 70.2303581
10416, 0.428655061, -22.8274502, 70.2557413
10417, 0.704048443, -23.2286807, 69.9106249
10418, 1.63157917, -22.2974451, 77.9459327
10419, 0.206625222, -12.6797572, 70.6575684
10420, 0.206768947, -12.5517091, 70.6057514
10421, 0.206804813, -12.6357397, 70.51297
10422, 0.499179113, -19.5062812, 71.9349312
10423, 0.865721914, -19.0944156, 72.1023968
10424, 1.55930264, -21.569803, 79.745024
10425, 1.50003019, -24.6397532, 73.2608393
10426, 0.37852746, -26.2236242, 70.5046786
10427, 0.698282096, -31.3373479, 79.4105472
10428, 0.986164983, -31.4308051, 79.2058891
10429, 1.69128764, -18.0711334, 80.2405078
10430, 1.67576875, -13.7952813, 80.0239662
10431, 1.67588005, -13.9097613, 79.8574629
10432, 1.35054477, -13.5949186, 79.8180237
10433, 0.206744715, -12.7935562, 70.5273455
10434, 0.20679765, -12.8571452, 70.3920217
10435, 0.20672003, -12.9708363, 70.5112037
10436, 0.42865194, -23.628698, 70.2343968
10437, 0.370923084, -23.9858838, 69.8237638
10438, 0.377550667, -24.2412528, 70.2204949
10439, 0.658461208, -13.7871836, 80.1226775
10440, 0.818016507, -13.5256776, 79.9572984
10441, 1.00858384, -13.7256474, 80.1379628
10442, 1.0007227, -14.0307978, 79.8288149
10443, 1.18381479, -12.8558389, 78.4069608
10444, 0.983735441, -12.4140827, 72.5389223
10445, 1.8095159, -12.7401142, 78.9301554
10446, 1.48995292, -12.6520038, 79.0536823
10447, 1.5915607, -20.5153114, 70.2297339
10448, 0.985347564, -31.5862813, 72.5322197
10449, 0.264844272, -13.1873319, 79.5700586
10450, 1.66685412, -13.1030436, 80.1952015
10451, 1.66690322, -13.014605, 80.1110814
10452, 1.34186924, -13.1104949, 80.0115625
10453, 0.346385809, -18.4175879, 80.2404986
10454, 0.944331726, -18.562599, 80.1085302
10455, 0.318958287, -12.9671537, 79.2944473
10456, 0.190400112, -31.3340802, 71.2307019
10457, 0.510319938, -31.3487403, 70.9446423
10458, 0.190486979, -31.2607702, 71.0693037
10459, 1.67576727, -13.921169, 80.0204104
10460, 1.66363466, -31.7324931, 74.323615
10461, 1.16324508, -31.4613791, 74.3467044
10462, 1.74169536, -30.7900623, 70.4233101
10463, 0.269271999, -24.3979107, 80.1577184
10464, 0.985941886, -31.5763586, 77.4583652
10465, 1.00820983, -13.1105254, 80.0116262
10466, 1.67286529, -15.5214585, 69.8623082
10467, 1.31981688, -31.4888697, 79.0888393
10468, 1.00247333, -31.5784822, 79.0103675
10469, 0.957866017, -13.4949462, 69.8815061
10470, 1.21252497, -13.686557, 69.988982
10471, 0.191888275, -13.1340874, 70.1444696
10472, 0.19200298, -13.0752299, 70.0193942
10473, 0.482906889, -13.2304361, 70.1755352
10474, 0.290351706, -13.3657823, 70.3636417
10475, 0.33308261, -30.4099883, 80.3471554
10476, 0.333062299, -30.5504194, 80.3011683
10477, 0.624346897, -30.5050969, 80.117772
10478, 0.676091035, -29.6343358, 75.3084702
10479, 1.19148328, -30.5242248, 70.0635748
10480, 1.1544155, -12.8392861, 71.6245111
10481, 0.364251357, -13.141206, 70.6045846
10482, 0.333031548, -13.5900283, 69.6527571
10483, 0.333015378, -13.4495862, 69.6987294
10484, 0.624007227, -13.4949558, 69.8815894
10485, 1.68126755, -31.0328598, 70.7046778
10486, 1.64860186, -23.3870439, 75.5205436
10487, 1.71121395, -30.7431265, 79.2904789
10488, 1.71123228, -30.8671342, 79.4956635
10489, 1.16667974, -30.0151201, 79.1234943
10490, 1.33645882, -30.2047992, 78.9227413
10491, 1.60431135, -23.7322986, 72.3876918
10492, 0.302027479, -15.2944337, 72.0744474
10493, 0.309115238, -15.3988314, 72.4200883
10494, 0.981432694, -31.0005629, 70.1239277
10495, 0.364279841, -12.9636705, 70.6206695
10496, 0.293148585, -31.5530308, 72.7244453
10497, 0.370928154, -22.4128784, 69.8451091
10498, 0.881670467, -22.4188539, 69.9909557
10499, 0.499972644, -19.4583294, 72.3743207
10500, 0.196405076, -31.0622224, 79.8550185
10501, 1.15173323, -13.52556, 79.9573031
10502, 1.34223915, -13.7255963, 80.137836
10503, 0.191895479, -31.5128076, 70.4936494
10504, 1.65455731, -24.7944673, 73.6204021
10505, 1.02200601, -29.8042296, 78.9413467
10506, 1.35455686, -29.8041734, 78.9366725
10507, 0.450347082, -26.6418749, 70.2322118
10508, 0.378535759, -26.1290814, 70.215381
10509, 1.80868013, -12.7238845, 70.8913868
10510, 1.80870223, -12.5605135, 71.0323859
10511, 0.330715129, -27.9573376, 69.8724239
10512, 0.821337519, -26.6764144, 69.9105134
10513, 0.749508817, -26.1635576, 69.8936478
10514, 0.359348416, -18.467765, 74.1457698
10515, 1.67551134, -13.3460258, 79.6892708
10516, 1.66707908, -12.4836761, 70.4083677
10517, 1.39218472, -12.7267025, 70.3789444
10518, 1.47503741, -12.4388698, 70.586602
10519, 0.837177774, -30.9378045, 78.639489
10520, 1.73333673, -21.5822836, 80.1556653
10521, 1.73333636, -21.1854964, 80.1616466
10522, 1.55930267, -21.1730237, 79.7510076
10523, 1.29263306, -21.5608551, 80.0893621
10524, 1.21165242, -25.4356733, 69.8960135
10525, 0.799589562, -22.842813, 69.9106273
10526, 0.388781394, -15.8770331, 72.5537028
10527, 1.1710933, -14.2723123, 80.1719139
10528, 0.958085655, -30.629015, 80.0758614
10529, 1.19144974, -30.4002908, 70.0217479
10530, 0.292371253, -12.4453719, 77.2738561
10531, 0.417376104, -15.7743137, 72.6958558
10532, 1.01743616, -29.4153729, 75.0011963
10533, 1.74611052, -30.4234894, 79.7275218
10534, 0.318831282, -31.0329894, 70.7046298
10535, 0.33293109, -30.1605866, 80.2193776
10536, 0.333066157, -30.2816841, 80.3726911
10537, 0.624342304, -30.3767078, 80.1432796
10538, 0.841515575, -31.5481988, 76.8440915
10539, 0.709005535, -31.6605464, 76.3406793
10540, 0.739974245, -13.0709427, 78.6065532
10541, 1.66666933, -21.9289469, 80.1556652
10542, 1.15167562, -30.8455097, 78.7166588
10543, 0.38925479, -15.7785535, 72.250497
10544, 0.696563438, -15.54085, 72.3353477
10545, 0.579567837, -31.1206041, 79.3375599
10546, 0.363266942, -14.8248786, 75.130618
10547, 0.999979622, -29.6045012, 79.2119533
10548, 0.957855417, -13.3709898, 69.9234908
10549, 1.50003403, -24.7236158, 74.2750628
10550, 1.65456337, -24.950915, 73.9721644
10551, 0.333019992, -13.7183478, 69.6272255
10552, 0.332884226, -13.8386142, 69.7788244
10553, 0.624020822, -13.6233693, 69.8561107
10554, 1.80942487, -12.5124036, 78.8474551
10555, 0.19044272, -31.4877038, 71.1524481
10556, 1.66991754, -30.4708037, 79.1194924
10557, 1.21573135, -24.9527128, 69.8960426
10558, 0.275385932, -23.6000214, 69.8237713
10559, 1.49922594, -19.7267354, 71.6140607
10560, 1.00863053, -12.5259507, 70.7436983
10561, 0.698243128, -12.6628238, 70.5885425
10562, 0.562065325, -12.3971307, 70.7508183
10563, 0.904405254, -12.6536664, 70.9942287
10564, 0.366706918, -15.7450864, 77.1727295
10565, 1.64192777, -16.8072944, 76.776011
10566, 1.67132672, -16.4597846, 76.5494302
10567, 0.332959879, -12.2534303, 79.1675217
10568, 0.652668688, -12.5170059, 79.2421468
10569, 1.66393581, -12.3523784, 73.89903
10570, 1.09492795, -12.4040913, 74.1691803
10571, 0.958074112, -30.376657, 80.1434135
10572, 1.04395223, -31.0882469, 79.805103
10573, 1.37764846, -31.0882188, 79.8048857
10574, 1.00858142, -13.8540211, 80.1633539
10575, 1.66917278, -16.468698, 80.1606444
10576, 1.62951166, -27.1654231, 69.8843323
10577, 1.07987265, -27.0540199, 69.9103986
10578, 1.34742439, -12.5166701, 79.2421072
10579, 0.986525018, -12.5162905, 79.2424958
10580, 1.16654162, -12.3975028, 78.9519187
10581, 0.833059413, -30.1452375, 80.031833
10582, 1.6465014, -18.239987, 75.7560351
10583, 1.7830474, -29.2573736, 71.2325272
10584, 1.73072293, -20.3988405, 80.1616501
10585, 1.73072745, -20.0023657, 80.19732
10586, 1.59051691, -20.3988984, 79.7657909
10587, 1.59052142, -20.0024361, 79.801465
10588, 1.32123263, -20.000086, 80.1041522
10589, 1.6670418, -31.7466742, 70.8323792
10590, 1.34750497, -31.4831818, 70.7572376
10591, 1.00872002, -12.4677424, 70.8609169
10592, 0.562033026, -12.339063, 70.8680408
10593, 0.791042097, -12.3921133, 71.0883844
10594, 1.13318157, -12.7067398, 71.2150069
10595, 0.36650442, -15.7576429, 76.8807858
10596, 1.66395486, -12.3331585, 74.2279946
10597, 0.292485619, -15.4689098, 77.8457965
10598, 0.986411332, -12.6476115, 79.4680726
10599, 1.34738475, -12.647777, 79.4677136
10600, 1.50042227, -31.3886843, 74.1016576
10601, 0.807492231, -12.4194184, 77.7125434
10602, 1.61648788, -12.4160652, 74.733062
10603, 0.40814766, -14.3411967, 75.3354637
10604, 1.50030601, -27.1920248, 76.1335552
10605, 1.1512777, -27.5246918, 69.907233
10606, 1.0136997, -31.352391, 70.5314759
10607, 0.652608127, -31.3523291, 70.5316756
10608, 1.67628688, -12.827296, 70.7762261
10609, 1.50000642, -20.7648963, 79.5807999
10610, 1.65359333, -20.7988375, 80.1616501
10611, 1.00253495, -31.6207437, 78.8866434
10612, 0.311133747, -12.6442654, 77.511897
10613, 0.231514865, -12.2332109, 77.7613204
10614, 0.23197881, -12.1672961, 78.0719273
10615, 0.305935596, -12.5861968, 77.8232296
10616, 1.77628484, -12.7812028, 71.3248908
10617, 1.45344053, -12.661129, 71.1885107
10618, 0.390390649, -15.4130526, 78.0783359
10619, 0.659900984, -15.4454359, 77.1706096
10620, 1.65223456, -19.6855335, 72.0580906
10621, 0.857751779, -30.4002846, 70.0216917
10622, 0.642878188, -31.46894, 76.6857171
10623, 0.231367214, -31.7668222, 77.7619035
10624, 0.305030657, -31.3539649, 77.5075513
10625, 1.63203135, -25.8175372, 79.5139342
10626, 0.652576296, -31.4832279, 70.7572513
10627, 1.01375027, -31.4834293, 70.7571158
10628, 0.833162426, -31.6099302, 71.0339542
10629, 1.52202588, -27.7329282, 69.9072399
10630, 0.336477912, -31.7202841, 73.4414623
10631, 0.655047252, -31.4691824, 73.3135313
10632, 1.59447516, -27.3021332, 73.7074603
10633, 1.64109691, -26.202892, 71.5305972
10634, 1.64104174, -25.9879425, 71.2513366
10635, 0.371142103, -31.0495051, 76.0514131
10636, 0.681153252, -30.8417553, 76.2538875
10637, 0.231381779, -12.2330778, 72.2379622
10638, 0.307562276, -12.6440998, 72.4890709
10639, 0.499983945, -24.1339183, 70.8511648
10640, 0.377542922, -24.4090264, 70.5653332
10641, 0.377551935, -24.0414546, 70.4638879
10642, 0.271931242, -19.5930282, 69.836095
10643, 0.410869034, -31.2197265, 79.5463836
10644, 0.196305081, -31.1357204, 79.5871548
10645, 0.231390574, -31.7667988, 72.2388283
10646, 0.304478491, -31.3537694, 72.4916226
10647, 1.65042263, -20.394379, 76.1542625
10648, 1.48285913, -30.9056284, 80.0958219
10649, 1.80802588, -12.4872464, 79.5061395
10650, 1.15141958, -19.7058403, 71.8358524
10651, 1.75936766, -29.0579791, 78.5329962
10652, 1.68406992, -31.050348, 73.5766988
10653, 0.878579188, -13.8150949, 69.9635312
10654, 1.21254014, -13.8149879, 69.9636357
10655, 0.957871329, -13.6233406, 69.8559137
10656, 1.72539307, -22.01069, 69.8453887
10657, 0.841316967, -31.5528073, 73.1544507
10658, 1.73072594, -19.6062603, 80.2621538
10659, 1.68086504, -12.7698138, 79.1904105
10660, 1.80943127, -12.5412795, 79.0257821
10661, 1.61719666, -12.4922142, 79.0925565
10662, 1.76865254, -31.7669595, 77.7622453
10663, 1.68096952, -31.3527035, 77.5129502
10664, 1.76857887, -12.2329701, 72.237816
10665, 1.68243884, -12.6458219, 72.489079
10666, 0.990122702, -12.4110262, 77.3985421
10667, 1.18630716, -12.4386422, 77.5571851
10668, 1.18525257, -12.4466954, 77.2174029
10669, 1.48411988, -12.6237331, 70.9395185
10670, 1.66615614, -24.5601888, 73.9609639
10671, 0.266740167, -31.5797805, 74.0970277
10672, 0.266765576, -31.7193409, 73.8290944
10673, 0.500018151, -31.3762758, 73.6078032
10674, 1.80833512, -12.3663872, 70.6962914
10675, 1.80848388, -12.4254155, 70.8065058
10676, 0.511309382, -31.2788758, 70.7420245
10677, 0.31882613, -31.2309181, 70.80854
10678, 0.190389268, -31.4590395, 70.97391
10679, 0.382701906, -31.5081848, 70.9067586
10680, 1.76376822, -30.5006037, 78.8129496
10681, 1.7704571, -30.7202489, 78.6490468
10682, 1.42140856, -30.7979726, 78.7399164
10683, 1.34242685, -12.5990125, 70.6351794
10684, 1.03199336, -12.7356803, 70.4798778
10685, 1.68334719, -31.3534455, 72.4912109
10686, 1.76867024, -31.7668805, 72.2386367
10687, 1.39177867, -12.5213138, 77.053174
10688, 1.38697332, -12.420776, 77.4007554
10689, 0.333450505, -29.8109135, 73.8841142
10690, 1.66668205, -29.8106654, 73.8837893
10691, 1.75723722, -29.5640806, 73.8298517
10692, 1.03193995, -31.2643541, 79.5196307
10693, 1.3776776, -31.273046, 79.6206171
10694, 1.66698897, -13.8488342, 69.6186426
10695, 0.322713859, -14.1834451, 71.0105569
10696, 0.305484152, -31.4704669, 76.8795502
10697, 1.48804372, -13.0943333, 69.9039926
10698, 0.333076244, -30.1511473, 80.381255
10699, 0.266875274, -31.6833406, 75.4078652
10700, 0.317721743, -31.0507011, 73.5755823
10701, 0.819342941, -31.1247371, 73.4756283
10702, 0.240614544, -29.0579193, 78.5331033
10703, 0.318110517, -29.4717573, 75.3895024
10704, 0.572011734, -12.8877482, 70.5842367
10705, 0.21955895, -19.7170143, 72.2624441
10706, 0.219556189, -19.4918782, 72.5742842
10707, 1.81625007, -31.0144739, 79.9073478
10708, 1.73313428, -31.6914646, 75.3713338
10709, 1.6419983, -16.6299825, 77.1438826
10710, 1.67133741, -16.2828734, 76.9171362
10711, 1.76813175, -12.1673011, 78.0720141
10712, 1.76870608, -12.2329993, 77.7617137
10713, 1.703258, -12.5859829, 77.8221347
10714, 1.69799575, -12.6446518, 77.5105143
10715, 1.64103247, -25.8384206, 71.5986856
10716, 1.65388542, -25.2963269, 71.6717157
10717, 1.50859381, -16.2678995, 77.27843
10718, 0.317843345, -12.5277699, 73.1180155
10719, 1.66692701, -13.8062035, 80.340547
10720, 1.66688799, -13.6803798, 80.344059
10721, 1.34226245, -13.8539691, 80.1633058
10722, 0.343568284, -24.4229363, 71.0562968
10723, 0.986443889, -12.5746572, 79.3595162
10724, 1.34741481, -12.5749067, 79.3591278
10725, 0.981462086, -30.8917858, 70.0513354
10726, 1.40809194, -30.9253276, 70.0650542
10727, 0.206590606, -12.8501358, 70.6907445
10728, 1.37796158, -31.4911126, 77.0566181
10729, 1.17909626, -31.5481475, 77.2184096
10730, 0.770746245, -18.1525303, 80.0881473
10731, 1.73723689, -31.5514661, 76.8430882
10732, 1.73747955, -31.5803996, 73.7121269
10733, 1.73772174, -31.7201429, 73.4441278
10734, 1.49952615, -31.3773453, 73.6087958
10735, 1.69036934, -12.881841, 71.6890073
10736, 1.77741017, -12.6285817, 71.4801698
10737, 1.35818169, -30.0095464, 79.1964859
10738, 1.3736774, -31.5838516, 77.3939248
10739, 1.01371183, -31.4252643, 70.6400628
10740, 0.652604254, -31.4251712, 70.6402389
10741, 1.67030029, -30.3840685, 79.4154224
10742, 1.03195911, -12.6626768, 70.5882891
10743, 1.3425177, -12.5260841, 70.743817
10744, 1.81627456, -31.1576076, 79.7597868
10745, 1.81633863, -31.0878631, 79.6393754
10746, 1.81630628, -31.0244628, 79.7749163
10747, 0.450343884, -26.8623747, 69.9105076
10748, 1.36525062, -31.4852528, 72.9491156
10749, 1.68624894, -31.7210069, 73.0691601
10750, 1.67978112, -31.192382, 73.3105897
10751, 1.36427304, -12.5085941, 72.9469353
10752, 1.17557429, -12.4565698, 72.7765895
10753, 1.17670903, -31.5435684, 72.7754578
10754, 0.282193684, -25.6801183, 69.8391134
10755, 0.660811786, -25.8307633, 69.8936905
10756, 1.37444218, -31.5963756, 72.6208258
10757, 1.76831341, -14.2212873, 78.9914885
10758, 1.37596945, -12.4054873, 72.6131548
10759, 0.836313032, -31.6569337, 73.6119718
10760, 0.65266708, -12.6478961, 79.4677278
10761, 0.333053417, -12.483207, 79.5881529
10762, 0.527410824, -12.6700607, 79.7237135
10763, 1.71128775, -31.0445102, 79.4793898
10764, 1.64102051, -25.6729318, 71.9206225
10765, 0.282514693, -24.717904, 69.8279065
10766, 0.660086973, -24.5595028, 69.8967067
10767, 1.0001112, -16.0511989, 75.5862586
10768, 0.335748314, -16.3177504, 80.1286486
10769, 1.8214721, -12.9855097, 70.0925516
10770, 1.34750098, -31.3523291, 70.5316317
10771, 0.321149496, -12.8784377, 73.3773801
10772, 0.238592326, -13.1057876, 73.5711094
10773, 0.431147885, -12.7559257, 73.8476493
10774, 0.194087392, -12.6700779, 79.7231927
10775, 1.68395977, -30.9607699, 78.461438
10776, 0.370874495, -26.3935335, 69.8216264
10777, 1.80579712, -31.3299275, 70.2766539
10778, 1.66702273, -31.5168229, 70.4116771
10779, 1.47246073, -31.3299483, 70.2760143
10780, 1.16327644, -31.6561758, 73.9997878
10781, 1.81637129, -30.9105226, 79.6553818
10782, 1.00867679, -12.425409, 70.9846292
10783, 0.79086552, -12.3499552, 71.2123065
10784, 1.68646396, -12.2748302, 76.9345962
10785, 0.191991524, -12.9854453, 70.0924842
10786, 0.698144383, -12.8222948, 70.3821988
10787, 1.05830146, -12.8131404, 70.280523
10788, 1.73727176, -12.448433, 73.1566161
10789, 1.7695222, -14.8678007, 78.4931432
10790, 1.66691186, -30.151151, 80.3812436
10791, 0.291826402, -31.7673278, 72.5364543
10792, 1.39219337, -12.8131048, 70.2807444
10793, 0.333037555, -13.8488872, 69.6186703
10794, 0.230604145, -14.8678092, 78.4928412
10795, 0.698340723, -31.1780112, 79.6174353
10796, 0.698285352, -31.0794832, 79.7036955
10797, 1.04394638, -31.1866914, 79.7189869
10798, 1.82151167, -12.842379, 70.2400806
10799, 1.82164288, -12.91214, 70.3604917
10800, 1.82155927, -12.9755594, 70.2250073
10801, 1.67586364, -13.7201896, 79.7157994
10802, 0.291762379, -31.7677714, 77.4643448
10803, 0.291667509, -12.2326326, 77.4634723
10804, 0.291743274, -12.2322459, 72.535595
10805, 1.74610211, -30.6339079, 79.6353416
10806, 1.67017122, -30.5950075, 79.3237638
10807, 0.206928978, -12.4926253, 70.4955658
10808, 1.34257074, -12.4257211, 70.9846941
10809, 1.12482805, -12.3501629, 71.2121046
10810, 1.821648, -13.0894947, 70.3445508
10811, 1.66639807, -29.9555069, 79.0206734
10812, 1.2165646, -20.4687848, 69.8857708
10813, 0.487634421, -30.8173304, 79.7714786
10814, 1.63204558, -26.0375669, 79.3224256
10815, 0.833328552, -12.3969505, 78.9525689
10816, 0.698345146, -31.2644543, 79.5191895
10817, 0.318501375, -30.9613235, 78.4605376
10818, 1.4756999, -31.4422395, 79.5357563
10819, 1.64112313, -26.4851487, 71.7539726
10820, 0.668928656, -31.6206367, 78.8861902
10821, 0.310721084, -31.1357055, 76.6161501
10822, 0.333098311, -30.9017279, 80.1750586
10823, 0.333074497, -30.9914944, 80.1019765
10824, 0.679827971, -31.1305155, 76.4735997
10825, 1.27938825, -12.4156942, 74.5396784
10826, 1.43789116, -30.4427618, 78.8704906
10827, 0.562050294, -12.2967315, 70.9917454
10828, 0.214185198, -31.5148662, 79.4263028
10829, 0.214114606, -31.3717543, 79.4088623
10830, 1.6859415, -31.556227, 77.219693
10831, 0.191919236, -12.9754008, 70.2248749
10832, 0.191839903, -13.0892696, 70.344348
10833, 0.336332782, -12.351124, 73.5112974
10834, 0.266732823, -12.3526618, 73.8987976
10835, 0.424302698, -17.9524886, 80.0881472
10836, 0.33307316, -31.8088242, 79.0045964
10837, 1.68721894, -12.4490077, 72.7818662
10838, 1.16689636, -31.6098892, 71.0341835
10839, 1.6682119, -30.2060728, 78.922648
10840, 1.67622943, -12.7192731, 71.0796881
10841, 0.333016744, -12.274682, 79.2785969
10842, 1.68550782, -31.5565856, 72.7805043
10843, 1.66706982, -12.5719114, 70.3026139
10844, 1.66701184, -31.7254345, 70.7212899
10845, 1.34254784, -12.467983, 70.861021
10846, 0.193894249, -12.989829, 79.5498021
10847, 0.459324006, -13.1244678, 79.7496301
10848, 1.68550904, -12.4430342, 77.219764
10849, 0.31028489, -31.1471485, 71.7123644
10850, 0.292504247, -15.4792913, 77.2078261
10851, 0.365510262, -15.4201516, 76.989801
10852, 1.59156092, -20.3134876, 69.8857724
10853, 1.37765745, -31.1866491, 79.7187532
10854, 1.80917441, -31.2136532, 79.3941339
10855, 1.80603243, -31.0100917, 70.4499224
10856, 1.54710496, -30.8531187, 70.2436164
10857, 0.336010181, -31.6639316, 76.4873312
10858, 1.71122401, -30.9809779, 79.6147033
10859, 0.52540909, -13.0943195, 69.9040052
10860, 0.228324958, -12.5843508, 70.9138424
10861, 0.435763367, -12.6215092, 70.7459067
10862, 1.652234, -19.5267328, 71.7047448
10863, 1.80910104, -31.3715883, 79.4086985
10864, 1.80902858, -31.5147789, 79.4262155
10865, 1.6728978, -18.0533132, 69.8154528
10866, 0.356535166, -29.9349033, 75.982691
10867, 0.525471489, -12.8681966, 70.0345933
10868, 0.557059804, -13.0061836, 70.4172876
10869, 0.698204875, -12.7358717, 70.480213
10870, 0.264921705, -13.2061595, 79.7498143
10871, 1.74168865, -30.7713534, 70.243617
10872, 0.658458557, -14.0461912, 80.1566618
10873, 1.0085869, -13.9846336, 80.1718774
10874, 0.399260012, -12.8356422, 70.323216
10875, 1.59795579, -18.7625157, 80.1085034
10876, 1.47582326, -12.2880228, 79.0776161
10877, 1.30865468, -12.5324794, 78.7645875
10878, 0.561733175, -31.0417776, 79.5298487
10879, 1.66376064, -31.5802154, 74.09771
10880, 0.243645328, -29.5179754, 78.757891
10881, 0.311837382, -29.5680349, 79.0816747
10882, 1.75630883, -29.5181378, 78.7579855
10883, 1.68827268, -29.5674765, 79.0815588
10884, 1.68795409, -29.8030943, 78.9351086
10885, 0.372677927, -31.0047618, 76.3395328
10886, 0.372229484, -31.3223317, 76.27391
10887, 1.80908463, -31.2833288, 79.5144486
10888, 1.80903322, -31.4420606, 79.5349379
10889, 0.193946905, -13.0086115, 79.7297345
10890, 0.312315126, -29.8035168, 78.9342435
10891, 0.228450882, -12.4564923, 70.8621014
10892, 1.80594533, -30.9913216, 70.270079
10893, 1.66556439, -29.7632355, 78.8126974
10894, 0.334349917, -29.7631407, 78.8122487
10895, 1.75951348, -29.2627908, 73.8291631
10896, 1.66250072, -29.0251289, 73.6562217
10897, 1.6670368, -14.1771162, 80.2287241
10898, 1.66696244, -13.9367626, 80.3491261
10899, 1.34227363, -13.9845696, 80.17185
10900, 1.59074181, -25.1974449, 69.8960425
10901, 1.62507679, -31.1718002, 79.5985637
10902, 0.333022975, -13.9367719, 80.3491264
10903, 0.332940741, -14.1771271, 80.2287138
10904, 0.196332307, -31.2936692, 79.6018328
10905, 0.196437804, -31.3641459, 79.7280868
10906, 0.196357315, -31.2054127, 79.7075553
10907, 0.524005801, -31.712082, 70.9220399
10908, 1.66701704, -31.8345342, 78.8764342
10909, 1.52701943, -31.0025329, 79.6832559
10910, 0.194027798, -12.9781059, 79.8592646
10911, 0.527420355, -12.9634937, 79.9808896
10912, 1.77791374, -12.5987215, 71.2813604
10913, 1.1665758, -12.3206897, 78.5706293
10914, 1.47481834, -12.3564226, 79.2808144
10915, 0.229296608, -14.1891474, 80.3489684
10916, 1.77071145, -29.8108532, 69.6509635
10917, 0.282193743, -26.0607458, 69.8216858
10918, 0.525228085, -31.6437127, 70.7187921
10919, 1.80585853, -31.0218586, 70.1405969
10920, 1.47242446, -31.0364759, 70.018958
10921, 1.72584406, -13.0190047, 70.3851175
10922, 0.332667559, -12.1558118, 71.3118568
10923, 0.561963294, -12.270905, 71.1198174
10924, 0.33293484, -31.4012622, 70.316024
10925, 0.525256046, -31.5129429, 70.4928604
10926, 1.81615673, -31.0229563, 80.0375501
10927, 1.68540444, -31.7674707, 72.5899782
10928, 1.68565717, -12.2323742, 77.4100768
10929, 1.68543832, -31.7674537, 77.4109036
10930, 1.68539904, -12.2325564, 72.5890816
10931, 0.228390459, -12.4205252, 71.0063405
10932, 1.66699828, -12.5987223, 79.6837725
10933, 1.4747414, -12.4871532, 79.5067467
10934, 1.66710417, -12.4109692, 70.5171127
10935, 1.47503325, -12.3661147, 70.6953939
10936, 0.377549644, -24.4412325, 69.8967188
10937, 1.80814393, -12.4791518, 79.2930033
10938, 1.8082338, -12.4579, 79.1818801
10939, 1.80808442, -12.3566136, 79.2801576
10940, 0.191649131, -31.5423435, 70.8178398
10941, 0.191728835, -31.521052, 70.7066851
10942, 0.191806944, -31.6435119, 70.7196652
10943, 0.206848596, -12.72401, 70.4071779
10944, 0.228615496, -12.3396674, 70.8692641
10945, 0.547573244, -31.5151165, 79.4269316
10946, 0.547600305, -31.4423215, 79.5356602
10947, 0.332981752, -12.3269636, 70.6099947
10948, 0.540345613, -12.4924856, 70.4947718
10949, 1.81623929, -31.1159943, 79.8579726
10950, 1.81616638, -31.2301178, 79.878652
10951, 1.8213329, -12.9770293, 69.9623709
10952, 1.66688365, -30.9017249, 80.1750635
10953, 1.48284377, -31.0229658, 80.0379252
10954, 1.66694991, -13.0982611, 69.8248626
10955, 1.48804452, -12.9769971, 69.9618629
10956, 0.525448566, -12.9769765, 69.9619135
10957, 0.192110969, -12.9769998, 69.9623459
10958, 1.76625004, -14.1991974, 80.3489756
10959, 0.233735817, -29.8007848, 69.6509166
10960, 1.66696776, -31.3417753, 79.7955681
10961, 1.48284685, -31.230126, 79.8790745
10962, 1.82134569, -12.7698569, 70.1212711
10963, 1.82146021, -12.8839931, 70.1419209
10964, 1.66708435, -12.658185, 70.2043014
10965, 1.48807706, -12.7697973, 70.1207073
10966, 1.16644611, -12.3554267, 78.828387
10967, 0.372203754, -31.6596415, 76.1476658
10968, 1.54698662, -12.9972085, 70.316003
10969, 1.47579376, -12.2459014, 78.9537706
10970, 0.191959342, -12.8422753, 70.2399688
10971, 0.192091682, -12.7698241, 70.1212092
10972, 0.192000772, -12.8839288, 70.141844
10973, 0.19411534, -12.8547386, 79.9076973
10974, 0.19402698, -12.8906816, 79.8014662
10975, 1.80574617, -31.1452474, 70.0922041
10976, 1.80585481, -31.1092837, 70.1983755
10977, 0.196412023, -31.1637417, 79.8056949
10978, 1.77770469, -12.4276689, 71.2001544
10979, 1.7778453, -12.41837, 71.3887421
10980, 1.48809446, -12.6834587, 70.2189434
10981, 0.333059898, -13.0982489, 69.8248638
10982, 1.80842749, -12.2662842, 70.9373705
10983, 1.80843598, -12.2406549, 71.0655232
10984, 1.80856105, -12.3893873, 70.9506565
10985, 0.833104706, -31.6521824, 71.1578158
10986, 0.214169323, -31.4421483, 79.5350761
10987, 0.523923821, -31.7543047, 71.0457849
10988, 1.66695687, -31.4280539, 79.6972442
10989, 1.58580314, -12.5020693, 71.1405468
10990, 1.66693779, -31.6729521, 79.3898827
10991, 0.529828359, -31.1795036, 79.9130151
10992, 0.529836705, -31.2778856, 79.8267975
10993, 0.333073406, -31.6729636, 79.3898326
10994, 1.63201043, -25.9465693, 80.1295382
10995, 0.333082654, -12.9058203, 80.0384208
10996, 0.527411363, -12.8547051, 79.9082225
10997, 1.66694296, -31.094168, 69.9615163
10998, 1.47244429, -31.1452691, 70.0916308
10999, 1.12466072, -12.3242036, 71.3400345
11000, 0.790769886, -12.3241226, 71.3404456
11001, 0.333086834, -31.1002809, 80.0292953
11002, 0.529788324, -31.0707242, 79.9857176
11003, 0.196478075, -31.1794722, 79.912597
11004, 1.8092665, -12.2206831, 78.8246919
11005, 1.80935287, -12.3292237, 78.8700737
11006, 0.190512015, -31.6708381, 71.1297717
11007, 0.190566479, -31.7793723, 71.1752205
11008, 1.80935014, -12.3896585, 78.9784914
11009, 1.80927513, -12.2883699, 79.0768017
11010, 0.190523237, -31.6104422, 71.0213411
11011, 0.190631022, -31.7117047, 70.9231019
11012, 0.540416418, -12.5653174, 70.386192
11013, 1.66704549, -12.1600568, 78.67397
11014, 1.47574327, -12.2203366, 78.8256068
11015, 0.332611275, -31.8401796, 71.3259578
11016, 0.5238876, -31.7800617, 71.1739148
11017, 0.333002177, -12.2691112, 70.7273125
11018, 0.525475672, -12.7698235, 70.1207894
11019, 1.16648064, -12.3296935, 78.7005685
11020, 0.54039938, -12.6516408, 70.2879155
11021, 0.833054382, -31.6780036, 71.2859253
11022, 1.66750263, -12.16762, 71.6661468
11023, 1.4747539, -12.4144163, 79.3980192
11024, 0.52528572, -31.5856788, 70.6016129
11025, 0.332712935, -12.1653501, 71.1234064
11026, 1.80837673, -12.3084179, 70.8135637
11027, 0.206968144, -12.6516547, 70.2885155
11028, 1.48801523, -12.8682139, 70.0345661
11029, 1.48281299, -31.1317409, 79.9652387
11030, 0.527429083, -12.7563388, 79.821976
11031, 1.80805419, -12.4145318, 79.3974169
11032, 0.19182691, -31.585595, 70.6023657
11033, 1.47242407, -31.2436499, 70.1778246
11034, 0.194080162, -12.7563478, 79.8214933
11035, 1.80579901, -31.2436392, 70.178387
11036, 1.44445795, -12.2787783, 71.3134084
11037, 0.206928605, -12.5653535, 70.3868508
11038, 1.4750164, -12.3081763, 70.812716
11039, 1.47500031, -12.2660042, 70.9365058
11040, 1.80923704, -12.2462662, 78.9529147
11041, 0.190665568, -31.7537842, 71.0469979
11042, 0.196486402, -31.2778523, 79.8263713
11043, 0.529844595, -31.3642024, 79.72853
11044, 1.47507827, -12.24033, 71.0645722
11045, 1.47569221, -31.3559182, 79.6340722
11046, 1.66739473, -12.1469412, 71.4420959
11047, 1.81618059, -31.1317518, 79.9648893
11048, 1.82138049, -12.8682253, 70.0350233
11049, 0.192085334, -12.8682009, 70.0349922
11050, 1.45544856, -25.6234234, 73.8048187
11051, 1.54506493, -14.1846572, 70.7159993
11052, 0.666109139, -24.1750402, 73.9188895
11053, 1.65083213, -16.902875, 71.8601185
11054, 1.72582987, -12.8857524, 70.4002079
11055, 0.821270584, -31.4773076, 78.0609456
11056, 0.314003215, -31.0108967, 70.4620654
11057, 1.76821583, -12.1506391, 78.293077
11058, 1.76799024, -12.3237438, 78.1939997
11059, 1.51932845, -27.4127328, 78.3709675
11060, 0.232025354, -12.3238334, 78.1940298
11061, 0.231766412, -12.1506972, 78.2930979
11062, 0.304051261, -12.7387643, 77.9477479
11063, 1.66224736, -29.1766462, 73.9876955
11064, 0.29084975, -30.7379441, 79.8870631
11065, 1.48721537, -26.9618966, 74.7433431
11066, 1.70528724, -12.7387022, 77.9467555
11067, 0.499993341, -31.51914, 71.5934633
11068, 1.76838184, -31.8490892, 71.7071775
11069, 1.12040613, -30.9284933, 70.3018867
11070, 0.500167046, -31.2355079, 71.3398833
11071, 1.07439996, -30.8165394, 69.9923205
11072, 1.35097613, -12.5314043, 78.343065
11073, 1.48556492, -13.5197974, 79.5364288
11074, 1.00821339, -13.3517659, 80.1115143
11075, 0.48426836, -13.5199228, 79.5361243
11076, 1.77768826, -12.2792651, 71.3150223
11077, 1.21118478, -30.4949128, 79.5534676
11078, 0.85694392, -29.5899876, 76.088934
11079, 0.698262308, -30.970566, 79.7764109
11080, 1.34252861, -12.3997603, 71.1128169
11081, 1.70723497, -14.0602239, 71.2029787
11082, 1.16618507, -12.4410857, 78.1601386
11083, 0.332894701, -12.1910399, 70.9952657
11084, 0.332888226, -12.2331293, 70.8714646
*ELEMENT, TYPE=C3D10, ELSET=EALL
3697, 3350, 6300, 6283, 6373, 6491, 6492, 6493, 6494, 6496, 6495
3698, 3350, 6330, 6300, 6373, 6497, 6498, 6491, 6494, 6499, 6496
3699, 1121, 5035, 6250, 6345, 6500, 6501, 6502, 6503, 6505, 6504
3700, 1131, 6282, 6266, 6450, 6506, 6507, 6508, 6509, 6511, 6510
3701, 5993, 5968, 6271, 6435, 6078, 6512, 6513, 6514, 6516, 6515
3702, 1427, 6246, 1032, 6465, 6517, 6518, 2214, 6519, 6521, 6520
3703, 1007, 6290, 6295, 6392, 6522, 6523, 6524, 6525, 6527, 6526
3704, 1310, 6265, 6255, 6268, 6528, 6529, 6530, 6531, 6533, 6532
3705, 1310, 1097, 6255, 6265, 2531, 6534, 6530, 6528, 6535, 6529
3706, 3374, 6272, 6244, 6286, 6536, 6537, 6538, 6539, 6541, 6540
3707, 1399, 6244, 6272, 6286, 6542, 6537, 6543, 6544, 6540, 6541
3708, 3353, 3395, 3273, 6410, 4261, 3433, 4918, 6545, 6547, 6546
3709, 1131, 6266, 6265, 6450, 6508, 6548, 6549, 6509, 6510, 6550
3710, 2961, 3177, 3299, 6323, 3631, 3957, 3956, 6551, 6553, 6552
3711, 3034, 3035, 3060, 6259, 4171, 4318, 4317, 6554, 6556, 6555
3712, 6109, 6262, 1055, 6312, 6557, 6558, 6559, 6560, 6562, 6561
3713, 3034, 6259, 3060, 6395, 6554, 6555, 4317, 6563, 6565, 6564
3714, 3251, 6302, 6310, 6384, 6566, 6567, 6568, 6569, 6571, 6570
3715, 5272, 3153, 6315, 6353, 6572, 6573, 6574, 6575, 6577, 6576
3716, 6299, 6339, 3187, 6341, 6578, 6579, 6580, 6581, 6583, 6582
3717, 1212, 6339, 6299, 6341, 6584, 6578, 6585, 6586, 6583, 6581
3718, 1007, 6295, 1008, 6392, 6524, 6587, 2082, 6525, 6526, 6588
3719, 1144, 6300, 6283, 6341, 6589, 6492, 6590, 6591, 6593, 6592
3720, 6283, 6300, 3119, 6341, 6492, 6594, 6595, 6592, 6593, 6596
3721, 1098, 6268, 6255, 6340, 6597, 6532, 6598, 6599, 6601, 6600
3722, 2973, 6276, 6274, 6378, 6602, 6603, 6604, 6605, 6607, 6606
3723, 5051, 6261, 1179, 6352, 6608, 6609, 6610, 6611, 6613, 6612
3724, 3251, 6310, 3252, 6384, 6568, 6614, 4604, 6569, 6570, 6615
3725, 2973, 6274, 6278, 6378, 6604, 6616, 6617, 6605, 6606, 6618
3726, 3035, 6362, 6259, 6395, 6619, 6620, 6556, 6621, 6622, 6565
3727, 2969, 6271, 3046, 6375, 6623, 6624, 3999, 6625, 6627, 6626
3728, 1328, 1406, 1405, 6404, 2272, 1467, 2278, 6628, 6630, 6629
3729, 3035, 3034, 6362, 6395, 4171, 6631, 6619, 6621, 6563, 6622
3730, 1179, 6261, 5051, 6371, 6609, 6608, 6610, 6632, 6634, 6633
3731, 3035, 6259, 3034, 6395, 6556, 6554, 4171, 6621, 6565, 6563
3732, 1015, 6287, 6284, 6420, 6635, 6636, 6637, 6638, 6640, 6639
3733, 6244, 6272, 3104, 6402, 6537, 6641, 6642, 6643, 6645, 6644
3734, 3086, 6320, 6278, 6381, 6646, 6647, 6648, 6649, 6651, 6650
3735, 1007, 6295, 6290, 6483, 6524, 6523, 6522, 6652, 6654, 6653
3736, 1007, 1006, 6290, 6392, 2076, 6655, 6522, 6525, 6656, 6527
3737, 6277, 6362, 3034, 6395, 6657, 6631, 6658, 6659, 6622, 6563
3738, 1057, 6247, 5709, 6427, 6660, 6661, 6662, 6663, 6665, 6664
3739, 6279, 6284, 1024, 6385, 6666, 6667, 6668, 6669, 6671, 6670
3740, 1016, 6277, 6285, 6379, 6672, 6673, 6674, 6675, 6677, 6676
3741, 1427, 1032, 6246, 6444, 2214, 6518, 6517, 6678, 6680, 6679
3742, 1325, 725, 1076, 6260, 6681, 6682, 2432, 6683, 6685, 6684
3743, 6279, 1024, 6291, 6385, 6668, 6686, 6687, 6669, 6670, 6688
3744, 1196, 874, 6115, 6128, 6689, 6690, 6691, 6692, 6693, 6238
3745, 6295, 6392, 6290, 6483, 6526, 6527, 6523, 6654, 6694, 6653
3746, 3251, 3211, 6302, 6384, 4899, 6695, 6566, 6569, 6696, 6571
3747, 1015, 6347, 6287, 6420, 6697, 6698, 6635, 6638, 6699, 6640
3748, 1016, 6285, 6281, 6379, 6674, 6700, 6701, 6675, 6676, 6702
3749, 5035, 5057, 6250, 6345, 5221, 6703, 6501, 6505, 6704, 6504
3750, 5709, 6247, 5687, 6427, 6661, 6705, 5784, 6664, 6665, 6706
3751, 1026, 6325, 6403, 6434, 6707, 6708, 6709, 6710, 6712, 6711
3752, 2978, 6285, 6281, 6380, 6713, 6700, 6714, 6715, 6717, 6716
3753, 1245, 6391, 6327, 6399, 6718, 6719, 6720, 6721, 6723, 6722
3754, 2978, 6281, 6290, 6380, 6714, 6724, 6725, 6715, 6716, 6726
3755, 1212, 1169, 6339, 6341, 2612, 6727, 6584, 6586, 6728, 6583
3756, 3187, 6339, 3144, 6341, 6579, 6729, 4586, 6582, 6583, 6730
3757, 1245, 6327, 6311, 6399, 6720, 6731, 6732, 6721, 6722, 6733
3758, 6116, 873, 3171, 6128, 6734, 6735, 6736, 6226, 6738, 6737
3759, 5272, 6315, 3153, 6417, 6574, 6573, 6572, 6739, 6741, 6740
3760, 1419, 1377, 1293, 6393, 2258, 2936, 1538, 6742, 6744, 6743
3761, 5979, 5985, 5965, 6250, 6030, 6060, 6064, 6745, 6747, 6746
3762, 1330, 6244, 6286, 6408, 6748, 6540, 6749, 6750, 6752, 6751
3763, 3305, 6286, 6244, 6408, 6753, 6540, 6754, 6755, 6751, 6752
3764, 1275, 1121, 6250, 6345, 2639, 6502, 6756, 6757, 6503, 6504
3765, 6244, 6402, 3104, 6461, 6643, 6644, 6642, 6758, 6760, 6759
3766, 3250, 6250, 3096, 6345, 6761, 6762, 4615, 6763, 6504, 6764
3767, 3086, 6278, 6300, 6381, 6648, 6765, 6766, 6649, 6650, 6767
3768, 5965, 5986, 5980, 6250, 6062, 6055, 6066, 6746, 6769, 6768
3769, 1364, 1187, 6303, 6477, 2820, 6770, 6771, 6772, 6774, 6773
3770, 3046, 6271, 6299, 6375, 6624, 6775, 6776, 6626, 6627, 6777
3771, 1275, 6250, 6335, 6345, 6756, 6778, 6779, 6757, 6504, 6780
3772, 3096, 6250, 5057, 6345, 6762, 6703, 6781, 6764, 6504, 6704
3773, 1375, 6283, 6300, 6373, 6782, 6492, 6783, 6784, 6495, 6496
3774, 3250, 6335, 6250, 6345, 6785, 6778, 6761, 6763, 6780, 6504
3775, 6282, 6303, 1187, 6477, 6786, 6770, 6787, 6788, 6773, 6774
3776, 3359, 3350, 6283, 6373, 4720, 6493, 6789, 6790, 6494, 6495
3777, 3285, 6255, 3072, 6450, 6791, 6792, 4507, 6793, 6795, 6794
3778, 1353, 6268, 1098, 6340, 6796, 6597, 2537, 6797, 6601, 6599
3779, 3378, 3301, 3379, 6411, 4232, 4238, 3522, 6798, 6800, 6799
3780, 1202, 6323, 5047, 6397, 6801, 6802, 6803, 6804, 6806, 6805
3781, 3251, 3252, 3211, 6384, 4604, 4124, 4899, 6569, 6615, 6696
3782, 1131, 1133, 6266, 6282, 2693, 6807, 6508, 6506, 6808, 6507
3783, 3010, 3105, 6370, 6376, 4204, 6809, 6810, 6811, 6813, 6812
3784, 6258, 6292, 6246, 6465, 6814, 6815, 6816, 6817, 6818, 6521
3785, 1230, 1026, 6403, 6434, 2125, 6709, 6819, 6820, 6710, 6711
3786, 1009, 6295, 6294, 6387, 6821, 6822, 6823, 6824, 6826, 6825
3787, 1007, 1008, 1006, 6392, 2082, 2081, 2076, 6525, 6588, 6656
3788, 5713, 6253, 5690, 6336, 6827, 6828, 5800, 6829, 6831, 6830
3789, 1144, 6283, 1169, 6341, 6590, 6832, 2610, 6591, 6592, 6728
3790, 3350, 3190, 6330, 6373, 4847, 6833, 6497, 6494, 6834, 6499
3791, 3119, 3144, 6283, 6341, 4584, 6835, 6595, 6596, 6730, 6592
3792, 3208, 6295, 6294, 6384, 6836, 6822, 6837, 6838, 6840, 6839
3793, 873, 6116, 884, 6128, 6734, 6841, 927, 6738, 6226, 6842
3794, 1032, 6246, 6292, 6465, 6518, 6815, 6843, 6520, 6521, 6818
3795, 6287, 6387, 1012, 6487, 6844, 6845, 6846, 6847, 6849, 6848
3796, 5970, 992, 5988, 6258, 6850, 6851, 6085, 6852, 6854, 6853
3797, 2967, 5974, 5988, 6258, 6855, 6076, 6856, 6857, 6858, 6853
3798, 1364, 6318, 1187, 6477, 6859, 6860, 2820, 6772, 6861, 6774
3799, 1276, 6302, 6310, 6342, 6862, 6567, 6863, 6864, 6866, 6865
3800, 3251, 6310, 6302, 6342, 6568, 6567, 6566, 6867, 6865, 6866
3801, 3104, 6272, 5976, 6402, 6641, 6868, 6869, 6644, 6645, 6870
3802, 1051, 6273, 6255, 6370, 6871, 6872, 6873, 6874, 6876, 6875
3803, 1168, 1187, 6318, 6477, 2704, 6860, 6877, 6878, 6774, 6861
3804, 1034, 6289, 1033, 6366, 6879, 6880, 2186, 6881, 6883, 6882
3805, 1234, 6294, 6302, 6383, 6884, 6885, 6886, 6887, 6889, 6888
3806, 1375, 6300, 6330, 6373, 6783, 6498, 6890, 6784, 6496, 6499
3807, 1234, 6302, 6301, 6383, 6886, 6891, 6892, 6887, 6888, 6893
3808, 1056, 6312, 6262, 6474, 6894, 6562, 6895, 6896, 6898, 6897
3809, 6283, 6339, 1169, 6341, 6899, 6727, 6832, 6592, 6583, 6728
3810, 3144, 6339, 6283, 6341, 6729, 6899, 6835, 6730, 6583, 6592
3811, 3265, 3082, 3126, 6324, 4558, 4454, 4559, 6900, 6902, 6901
3812, 1009, 6298, 6295, 6387, 6903, 6904, 6821, 6824, 6905, 6826
3813, 3358, 3080, 3154, 6261, 4548, 3625, 4549, 6906, 6908, 6907
3814, 1057, 1036, 6356, 6427, 1819, 6909, 6910, 6663, 6912, 6911
3815, 1196, 874, 6128, 6317, 6689, 6693, 6692, 6913, 6915, 6914
3816, 1112, 6300, 1144, 6341, 6916, 6589, 2602, 6917, 6593, 6591
3817, 3087, 3119, 6300, 6341, 4576, 6594, 6918, 6919, 6596, 6593
3818, 3039, 6315, 5704, 6336, 6920, 6921, 6922, 6923, 6925, 6924
3819, 6249, 6313, 1388, 6386, 6926, 6927, 6928, 6929, 6931, 6930
3820, 3208, 6294, 6302, 6384, 6837, 6885, 6932, 6838, 6839, 6571
3821, 5272, 6315, 5270, 6353, 6574, 6933, 5431, 6575, 6576, 6934
3822, 2971, 3046, 6274, 6375, 3998, 6935, 6936, 6937, 6626, 6938
3823, 1057, 5709, 5700, 6427, 6662, 5752, 6939, 6663, 6664, 6940
3824, 5713, 5695, 6253, 6336, 5822, 6941, 6827, 6829, 6942, 6831
3825, 6245, 6372, 3253, 6473, 6943, 6944, 6945, 6946, 6948, 6947
3826, 5051, 5050, 6261, 6352, 5205, 6949, 6608, 6611, 6950, 6613
3827, 1364, 6303, 6318, 6477, 6771, 6951, 6859, 6772, 6773, 6861
3828, 3374, 3104, 6244, 6272, 4661, 6642, 6538, 6536, 6641, 6537
3829, 6255, 6265, 3072, 6450, 6529, 6952, 6792, 6795, 6550, 6794
3830, 1351, 1046, 1297, 6306, 1452, 2279, 2280, 6953, 6955, 6954
3831, 2974, 6276, 2973, 6378, 6956, 6602, 4012, 6957, 6607, 6605
3832, 6302, 6342, 1280, 6425, 6866, 6958, 6959, 6960, 6962, 6961
3833, 3171, 6128, 873, 6317, 6737, 6738, 6735, 6963, 6914, 6964
3834, 5047, 6323, 1202, 6371, 6802, 6801, 6803, 6965, 6967, 6966
3835, 1055, 6262, 1056, 6312, 6558, 6895, 1952, 6561, 6562, 6894
3836, 3031, 6262, 6312, 6473, 6968, 6562, 6969, 6970, 6972, 6971
3837, 3094, 6247, 6246, 6356, 6973, 6974, 6975, 6976, 6978, 6977
3838, 1057, 5700, 1036, 6427, 6939, 6979, 1819, 6663, 6940, 6912
3839, 6265, 6370, 3105, 6376, 6980, 6809, 6981, 6982, 6812, 6813
3840, 3381, 3303, 3380, 6410, 4260, 4266, 3442, 6983, 6985, 6984
3841, 1383, 6261, 1179, 6371, 6986, 6609, 2573, 6987, 6634, 6632
3842, 3359, 3190, 3350, 6373, 3926, 4847, 4720, 6790, 6834, 6494
3843, 1081, 6267, 6389, 6421, 6988, 6989, 6990, 6991, 6993, 6992
3844, 6255, 3285, 6268, 6450, 6791, 6994, 6532, 6795, 6793, 6995
3845, 2975, 2973, 6278, 6378, 4017, 6617, 6996, 6997, 6605, 6618
3846, 3046, 6299, 6274, 6375, 6776, 6998, 6935, 6626, 6777, 6938
3847, 5988, 6258, 992, 6271, 6853, 6854, 6851, 6999, 7001, 7000
3848, 2967, 6258, 5988, 6271, 6857, 6853, 6856, 7002, 7001, 6999
3849, 1055, 6109, 981, 6262, 6559, 7003, 1907, 6558, 6557, 7004
3850, 3094, 6246, 6247, 6461, 6975, 6974, 6973, 7005, 7007, 7006
3851, 1015, 6284, 1020, 6420, 6637, 7008, 2129, 6638, 6639, 7009
3852, 5069, 3053, 6270, 6451, 7010, 7011, 7012, 7013, 7015, 7014
3853, 1310, 1097, 1098, 6255, 2531, 2302, 2532, 6530, 6534, 6598
3854, 3073, 3072, 3285, 6255, 4278, 4507, 4506, 7016, 6792, 6791
3855, 1012, 6287, 6314, 6387, 6846, 7017, 7018, 6845, 6844, 7019
3856, 1081, 6267, 1082, 6389, 6988, 7020, 2449, 6990, 6989, 7021
3857, 3318, 3014, 3361, 6396, 3462, 4221, 4223, 7022, 7024, 7023
3858, 6255, 6370, 6273, 6459, 6875, 6876, 6872, 7025, 7027, 7026
3859, 1028, 6277, 1016, 6379, 7028, 6672, 2063, 7029, 6677, 6675
3860, 1427, 6246, 1251, 6444, 6517, 7030, 2213, 6678, 6679, 7031
3861, 1381, 6315, 1178, 6417, 7032, 7033, 2566, 7034, 6741, 7035
3862, 3325, 3267, 3018, 6304, 4239, 4240, 3507, 7036, 7038, 7037
3863, 2971, 2969, 3046, 6375, 3997, 3999, 3998, 6937, 6625, 6626
3864, 1026, 6338, 6325, 6434, 7039, 7040, 6707, 6710, 7041, 6712
3865, 6289, 6338, 1033, 6366, 7042, 7043, 6880, 6883, 7044, 6882
3866, 1253, 1026, 6325, 6403, 2183, 6707, 7045, 7046, 6709, 6708
3867, 5993, 3140, 5968, 6435, 7047, 7048, 6078, 6514, 7049, 6516
3868, 3031, 6262, 3030, 6312, 6968, 7050, 3928, 6969, 6562, 7051
3869, 3010, 3105, 6265, 6370, 4204, 6981, 7052, 6810, 6809, 6980
3870, 1148, 6312, 1056, 6474, 7053, 6894, 2323, 7054, 6898, 6896
3871, 3351, 6245, 6273, 6372, 7055, 7056, 7057, 7058, 6943, 7059
3872, 6301, 6302, 1280, 6425, 6891, 6959, 7060, 7061, 6960, 6961
3873, 1002, 1016, 6281, 6379, 2062, 6701, 7062, 7063, 6675, 6702
3874, 6335, 6345, 6299, 6435, 6780, 7064, 7065, 7066, 7068, 7067
3875, 1057, 6356, 6247, 6427, 6910, 6978, 6660, 6663, 6911, 6665
3876, 5291, 6333, 1238, 6363, 7069, 7070, 7071, 7072, 7074, 7073
3877, 3048, 5594, 6272, 6286, 7075, 7076, 7077, 7078, 7079, 6541
3878, 3073, 6255, 3285, 6268, 7016, 6791, 4506, 7080, 6532, 6994
3879, 1310, 6255, 1098, 6268, 6530, 6598, 2532, 6531, 6532, 6597
3880, 1257, 1024, 6284, 6385, 2153, 6667, 7081, 7082, 6670, 6671
3881, 1140, 6308, 1285, 6349, 7083, 7084, 2730, 7085, 7087, 7086
3882, 1241, 6325, 6344, 6403, 7088, 7089, 7090, 7091, 6708, 7092
3883, 6344, 6354, 3193, 6445, 7093, 7094, 7095, 7096, 7098, 7097
3884, 1064, 5692, 6315, 6336, 7099, 7100, 7101, 7102, 7103, 6925
3885, 6293, 3252, 6310, 6384, 7104, 6614, 7105, 7106, 6615, 6570
3886, 1068, 6319, 6249, 6366, 7107, 7108, 7109, 7110, 7112, 7111
3887, 1053, 6291, 1024, 6385, 7113, 6686, 2174, 7114, 6688, 6670
3888, 1083, 1081, 1082, 6389, 2454, 2449, 2455, 7115, 6990, 7021
3889, 1058, 6249, 1388, 6386, 7116, 6928, 2337, 7117, 6929, 6930
3890, 6295, 6298, 1008, 6392, 6904, 7118, 6587, 6526, 7119, 6588
3891, 3362, 3319, 3020, 6401, 4251, 3542, 4249, 7120, 7122, 7121
3892, 1133, 1168, 6266, 6477, 2703, 7123, 6807, 7124, 6878, 7125
3893, 3161, 6264, 3137, 6326, 7126, 7127, 4682, 7128, 7130, 7129
3894, 1162, 6264, 1186, 6326, 7131, 7132, 2706, 7133, 7130, 7134
3895, 1253, 1230, 1026, 6403, 2185, 2125, 2183, 7046, 6819, 6709
3896, 1133, 1187, 1168, 6477, 2705, 2704, 2703, 7124, 6774, 6878
3897, 1030, 6328, 6320, 6392, 7135, 7136, 7137, 7138, 7140, 7139
3898, 1285, 6349, 6308, 6418, 7086, 7087, 7084, 7141, 7143, 7142
3899, 3308, 6328, 6320, 6381, 7144, 7136, 7145, 7146, 7147, 6651
3900, 5852, 5838, 3344, 6275, 5931, 7148, 7149, 7150, 7152, 7151
3901, 3123, 3031, 6312, 6473, 4297, 6969, 7153, 7154, 6970, 6971
3902, 3175, 6359, 3034, 6395, 7155, 7156, 4169, 7157, 7158, 6563
3903, 1030, 6320, 6290, 6392, 7137, 7159, 7160, 7138, 7139, 6527
3904, 3223, 6285, 2978, 6380, 7161, 6713, 4043, 7162, 6717, 6715
3905, 3313, 6412, 2996, 6475, 7163, 7164, 4131, 7165, 7167, 7166
3906, 3134, 3094, 6246, 6356, 4493, 6975, 7168, 7169, 6976, 6977
3907, 5971, 3104, 5990, 6402, 7170, 7171, 6092, 7172, 6644, 7173
3908, 3094, 6443, 6246, 6461, 7174, 7175, 6975, 7005, 7176, 7007
3909, 6114, 3030, 6262, 6312, 7177, 7050, 7178, 7179, 7051, 6562
3910, 1324, 6323, 1202, 6397, 7180, 6801, 1981, 7181, 6806, 6804
3911, 5690, 6253, 2959, 6336, 6828, 7182, 7183, 6830, 6831, 7184
3912, 2980, 2978, 6290, 6380, 4041, 6725, 7185, 7186, 6715, 6726
3913, 5990, 3104, 5976, 6402, 7171, 6869, 6093, 7173, 6644, 6870
3914, 5709, 5687, 5700, 6427, 5784, 5788, 5752, 6664, 6706, 6940
3915, 5272, 5270, 6315, 6417, 5431, 6933, 6574, 6739, 7187, 6741
3916, 1148, 6245, 6312, 6474, 7188, 7189, 7053, 7054, 7190, 6898
3917, 1347, 6264, 1134, 6336, 7191, 7192, 2369, 7193, 7195, 7194
3918, 3109, 6264, 3322, 6336, 7196, 7197, 4345, 7198, 7195, 7199
3919, 1090, 1365, 5844, 6273, 1825, 7200, 7201, 7202, 7204, 7203
3920, 1131, 1317, 6282, 6450, 2695, 7205, 6506, 6509, 7206, 6511
3921, 1317, 1131, 1310, 6450, 2695, 2535, 2696, 7206, 6509, 7207
3922, 1081, 6389, 1083, 6421, 6990, 7115, 2454, 6991, 6992, 7208
3923, 6277, 3034, 6359, 6395, 6658, 7156, 7209, 6659, 6563, 7158
3924, 1131, 6265, 1310, 6450, 6549, 6528, 2535, 6509, 6550, 7207
3925, 3313, 2996, 6280, 6475, 4131, 7210, 7211, 7165, 7166, 7212
3926, 2975, 2974, 2973, 6378, 4016, 4012, 4017, 6997, 6957, 6605
3927, 3256, 6337, 6259, 6362, 7213, 7214, 7215, 7216, 7217, 6620
3928, 1419, 1041, 1377, 6393, 1541, 2255, 2258, 6742, 7218, 6744
3929, 2973, 6274, 6276, 6472, 6604, 6603, 6602, 7219, 7221, 7220
3930, 1051, 985, 6273, 6370, 1973, 7222, 6871, 6874, 7223, 6876
3931, 5695, 984, 6253, 6336, 7224, 7225, 6941, 6942, 7226, 6831
3932, 3313, 6279, 2996, 6412, 7227, 7228, 4131, 7163, 7229, 7164
3933, 1364, 1168, 1187, 6318, 2819, 2704, 2820, 6859, 6877, 6860
3934, 5704, 3039, 3388, 6315, 6922, 3787, 7230, 6921, 6920, 7231
3935, 3313, 6280, 6412, 6475, 7211, 7232, 7163, 7165, 7212, 7167
3936, 1133, 6282, 1187, 6477, 6808, 6787, 2705, 7124, 6788, 6774
3937, 6354, 6442, 3193, 6445, 7233, 7234, 7094, 7098, 7235, 7097
3938, 1099, 6361, 6342, 6389, 7236, 7237, 7238, 7239, 7241, 7240
3939, 1030, 6290, 1006, 6392, 7160, 6655, 2074, 7138, 6527, 6656
3940, 3314, 6330, 6316, 6381, 7242, 7243, 7244, 7245, 7247, 7246
3941, 5294, 6256, 3052, 6321, 7248, 7249, 7250, 7251, 7253, 7252
3942, 6325, 6344, 3025, 6445, 7089, 7254, 7255, 7256, 7096, 7257
3943, 1068, 6249, 6289, 6366, 7109, 7258, 7259, 7110, 7111, 6883
3944, 1274, 6302, 1276, 6342, 7260, 6862, 2550, 7261, 6866, 6864
3945, 3251, 6302, 3249, 6342, 6566, 7262, 4525, 6867, 6866, 7263
3946, 1213, 6299, 6345, 6435, 7264, 7064, 7265, 7266, 7067, 7068
3947, 1221, 1245, 6311, 6399, 2885, 6732, 7267, 7268, 6721, 6733
3948, 1224, 6311, 6327, 6405, 7269, 6731, 7270, 7271, 7273, 7272
3949, 6279, 2996, 6412, 6475, 7228, 7164, 7229, 7274, 7166, 7167
3950, 1234, 1031, 6294, 6383, 2206, 7275, 6884, 6887, 7276, 6889
3951, 1325, 1076, 1263, 6260, 2432, 2431, 2433, 6683, 6684, 7277
3952, 1011, 1009, 6294, 6387, 2097, 6823, 7278, 7279, 6824, 6825
3953, 5047, 6323, 5060, 6397, 6802, 7280, 5225, 6805, 6806, 7281
3954, 3008, 6338, 6289, 6366, 7282, 7042, 7283, 7284, 7044, 6883
3955, 3208, 2994, 6295, 6384, 4075, 7285, 6836, 6838, 7286, 6840
3956, 3113, 6286, 3305, 6408, 7287, 6753, 4699, 7288, 6751, 6755
3957, 1330, 6286, 1138, 6408, 6749, 7289, 2725, 6750, 6751, 7290
3958, 1082, 6267, 1153, 6389, 7020, 7291, 2462, 7021, 6989, 7292
3959, 3008, 6325, 6289, 6338, 7293, 7294, 7283, 7282, 7040, 7042
3960, 1033, 6289, 6325, 6338, 6880, 7294, 7295, 7043, 7042, 7040
3961, 3123, 6312, 6245, 6473, 7153, 7189, 7296, 7154, 6971, 6946
3962, 1119, 6247, 6246, 6456, 7297, 6974, 7298, 7299, 7301, 7300
3963, 1002, 1028, 1016, 6379, 2064, 2063, 2062, 7063, 7029, 6675
3964, 1427, 1251, 1032, 6444, 2213, 2212, 2214, 6678, 7031, 6680
3965, 3104, 6402, 3066, 6461, 6644, 7302, 3844, 6759, 6760, 7303
3966, 1234, 6301, 1235, 6383, 6892, 7304, 2209, 6887, 6893, 7305
3967, 3131, 6340, 6263, 6372, 7306, 7307, 7308, 7309, 7311, 7310
3968, 6264, 6315, 3322, 6336, 7312, 7313, 7197, 7195, 6925, 7199
3969, 1347, 6315, 6264, 6336, 7314, 7312, 7191, 7193, 6925, 7195
3970, 1280, 6302, 1274, 6342, 6959, 7260, 2921, 6958, 6866, 7261
3971, 1148, 1055, 1056, 6312, 2322, 1952, 2323, 7053, 6561, 6894
3972, 2997, 6314, 6298, 6400, 7315, 7316, 7317, 7318, 7320, 7319
3973, 3117, 6323, 6313, 6386, 7321, 7322, 7323, 7324, 7325, 6931
3974, 6264, 6326, 1162, 6343, 7130, 7133, 7131, 7326, 7328, 7327
3975, 3137, 6326, 6264, 6343, 7129, 7130, 7127, 7329, 7328, 7326
3976, 3010, 3344, 3105, 6376, 3805, 4205, 4204, 6811, 7330, 6813
3977, 6246, 6292, 6258, 6444, 6815, 6814, 6816, 6679, 7332, 7331
3978, 3356, 3153, 6315, 6417, 4542, 6573, 7333, 7334, 6740, 6741
3979, 1004, 6281, 6290, 6449, 7335, 6724, 7336, 7337, 7339, 7338
3980, 1257, 1053, 1024, 6385, 2175, 2174, 2153, 7082, 7114, 6670
3981, 6309, 3193, 6442, 6445, 7340, 7234, 7341, 7342, 7097, 7235
3982, 1344, 1387, 1048, 6364, 2291, 2290, 1567, 7343, 7345, 7344
3983, 1039, 1343, 1386, 6365, 1487, 2248, 2247, 7346, 7348, 7347
3984, 2997, 6332, 6314, 6400, 7349, 7350, 7315, 7318, 7351, 7320
3985, 5979, 6250, 5965, 6335, 6745, 6746, 6064, 7352, 6778, 7353
3986, 1394, 1428, 6309, 6442, 1946, 7354, 7355, 7356, 7357, 7341
3987, 6130, 6106, 3040, 6416, 6211, 7358, 7359, 7360, 7362, 7361
3988, 5980, 5965, 6250, 6335, 6066, 6746, 6768, 7363, 7353, 6778
3989, 1161, 6282, 6268, 6369, 7364, 7365, 7366, 7367, 7369, 7368
3990, 1261, 6358, 6331, 6425, 7370, 7371, 7372, 7373, 7375, 7374
3991, 1027, 1034, 1033, 6366, 2187, 2186, 2182, 7376, 6881, 6882
3992, 1405, 1045, 1328, 6404, 1470, 2275, 2278, 6629, 7377, 6628
3993, 1241, 6344, 6332, 6403, 7090, 7378, 7379, 7091, 7092, 7380
3994, 5294, 5253, 6256, 6321, 5425, 7381, 7248, 7251, 7382, 7253
3995, 2956, 6114, 3030, 6262, 7383, 7177, 3881, 7384, 7178, 7050
3996, 3330, 3063, 826, 3127, 3501, 7385, 7386, 4465, 4464, 7387
3997, 1089, 1354, 165, 1150, 1446, 7388, 7389, 2491, 2494, 7390
3998, 1224, 6316, 6311, 6405, 7391, 7392, 7269, 7271, 7393, 7273
3999, 6333, 6358, 1239, 6363, 7394, 7395, 7396, 7074, 7398, 7397
4000, 1100, 6342, 6310, 6389, 7399, 6865, 7400, 7401, 7240, 7402
4001, 3086, 3286, 6320, 6381, 4572, 7403, 6646, 6649, 7404, 6651
4002, 5047, 5060, 6323, 6371, 5225, 7280, 6802, 6965, 7405, 6967
4003, 1010, 6298, 1009, 6387, 7406, 6903, 2092, 7407, 6905, 6824
4004, 5279, 6318, 3173, 6322, 7408, 7409, 7410, 7411, 7413, 7412
4005, 1179, 5051, 5059, 6371, 6610, 5090, 7414, 6632, 6633, 7415
4006, 1131, 1317, 1133, 6282, 2695, 2694, 2693, 6506, 7205, 6808
4007, 5839, 1145, 5848, 6256, 7416, 7417, 5943, 7418, 7420, 7419
4008, 3208, 6302, 3211, 6384, 6932, 6695, 4122, 6838, 6571, 6696
4009, 3113, 846, 6286, 6408, 7421, 7422, 7287, 7288, 7423, 6751
4010, 1138, 6286, 845, 6408, 7289, 7424, 7425, 7290, 6751, 7426
4011, 3097, 3175, 3034, 6395, 4321, 4169, 4319, 7427, 7157, 6563
4012, 1032, 6292, 6258, 6465, 6843, 6814, 7428, 6520, 6818, 6817
4013, 3308, 6316, 6328, 6381, 7429, 7430, 7144, 7146, 7246, 7147
4014, 3017, 3379, 3301, 6411, 3525, 4238, 4235, 7431, 6799, 6800
4015, 1018, 1015, 1020, 6420, 2127, 2129, 2128, 7432, 6638, 7009
4016, 3317, 6244, 3104, 6461, 7433, 6642, 4475, 7434, 6758, 6759
4017, 1219, 6391, 1245, 6399, 7435, 6718, 2886, 7436, 6723, 6721
4018, 3061, 3126, 6324, 6455, 4455, 6901, 7437, 7438, 7440, 7439
4019, 3120, 5838, 5848, 6256, 7441, 5963, 7442, 7443, 7444, 7419
4020, 3230, 6245, 3253, 6473, 7445, 6945, 4763, 7446, 6946, 6947
4021, 6321, 6346, 3101, 6401, 7447, 7448, 7449, 7450, 7452, 7451
4022, 3314, 6300, 6330, 6381, 7453, 6498, 7242, 7245, 6767, 7247
4023, 1384, 6283, 1375, 6373, 7454, 6782, 2746, 7455, 6495, 6784
4024, 1018, 6347, 1015, 6420, 7456, 6697, 2127, 7432, 6699, 6638
4025, 1254, 6288, 6285, 6426, 7457, 7458, 7459, 7460, 7462, 7461
4026, 6109, 6114, 6262, 6312, 6230, 7178, 6557, 6560, 7179, 6562
4027, 5070, 6352, 1179, 6430, 7463, 6612, 7464, 7465, 7467, 7466
4028, 1114, 1144, 1169, 6341, 2601, 2610, 2609, 7468, 6591, 6728
4029, 1061, 1254, 1029, 6426, 2200, 2134, 2198, 7469, 7460, 7470
4030, 6321, 6364, 1335, 6468, 7471, 7472, 7473, 7474, 7476, 7475
4031, 3119, 3089, 3144, 6341, 4577, 4585, 4584, 6596, 7477, 6730
4032, 3123, 6245, 6312, 6460, 7296, 7189, 7153, 7478, 7480, 7479
4033, 5989, 5971, 6254, 6443, 6091, 7481, 7482, 7483, 7485, 7484
4034, 1135, 6313, 6269, 6351, 7486, 7487, 7488, 7489, 7491, 7490
4035, 1119, 6456, 6246, 6465, 7299, 7300, 7298, 7492, 7493, 6521
4036, 1317, 6268, 1161, 6282, 7494, 7366, 2317, 7205, 7365, 7364
4037, 2980, 3223, 2978, 6380, 4044, 4043, 4041, 7186, 7162, 6715
4038, 1254, 6285, 6288, 6484, 7459, 7458, 7457, 7495, 7497, 7496
4039, 1281, 6337, 6259, 6343, 7498, 7214, 7499, 7500, 7502, 7501
4040, 6259, 6337, 3256, 6343, 7214, 7213, 7215, 7501, 7502, 7503
4041, 3123, 3031, 3030, 6312, 4297, 3928, 4298, 7153, 6969, 7051
4042, 3140, 6271, 5968, 6435, 7504, 6512, 7048, 7049, 6515, 6516
4043, 1222, 1221, 6311, 6399, 2888, 7267, 7505, 7506, 7268, 6733
4044, 3134, 3069, 3094, 6356, 4492, 4307, 4493, 7169, 7507, 6976
4045, 1213, 6299, 6339, 6345, 7264, 6578, 7508, 7265, 7064, 7509
4046, 3086, 6300, 3088, 6381, 6766, 7510, 4570, 6649, 6767, 7511
4047, 3097, 6359, 3175, 6395, 7512, 7155, 4321, 7427, 7158, 7157
4048, 5053, 1197, 6339, 6345, 7513, 7514, 7515, 7516, 7517, 7509
4049, 1317, 1310, 6268, 6450, 2696, 6531, 7494, 7206, 7207, 6995
4050, 6299, 3188, 6339, 6345, 7518, 7519, 6578, 7064, 7520, 7509
4051, 1100, 1099, 6342, 6389, 2465, 7238, 7399, 7401, 7239, 7240
4052, 1133, 6266, 6282, 6477, 6807, 6507, 6808, 7124, 7125, 6788
4053, 1259, 6328, 1030, 6392, 7521, 7135, 2085, 7522, 7140, 7138
4054, 1064, 5692, 1413, 6315, 7099, 7523, 1812, 7101, 7100, 7524
4055, 5069, 6270, 6250, 6451, 7012, 7525, 7526, 7013, 7014, 7527
4056, 3117, 6297, 6323, 6386, 7528, 7529, 7321, 7324, 7530, 7325
4057, 3131, 3253, 6340, 6372, 4762, 7531, 7306, 7309, 6944, 7311
4058, 1032, 6292, 6246, 6444, 6843, 6815, 6518, 6680, 7332, 6679
4059, 6269, 6313, 3110, 6351, 7487, 7532, 7533, 7490, 7491, 7534
4060, 1078, 5072, 6270, 6452, 7535, 7536, 7537, 7538, 7540, 7539
4061, 3214, 6358, 6333, 6363, 7541, 7394, 7542, 7543, 7398, 7074
4062, 5848, 5839, 6256, 6275, 5943, 7418, 7419, 7544, 7546, 7545
4063, 5704, 6315, 5715, 6336, 6921, 7547, 5802, 6924, 6925, 7548
4064, 1276, 6310, 6302, 6384, 6863, 6567, 6862, 7549, 6570, 6571
4065, 1141, 6356, 6253, 6437, 7550, 7551, 7552, 7553, 7555, 7554
4066, 1027, 1033, 6338, 6366, 2182, 7043, 7556, 7376, 6882, 7044
4067, 5848, 6256, 5838, 6275, 7419, 7444, 5963, 7544, 7545, 7152
4068, 3313, 2996, 2998, 6280, 4131, 4118, 4132, 7211, 7210, 7557
4069, 2961, 5060, 6323, 6397, 7558, 7280, 6551, 7559, 7281, 6806
4070, 3122, 5980, 6250, 6335, 7560, 6768, 7561, 7562, 7363, 6778
4071, 1147, 6250, 5979, 6335, 7563, 6745, 7564, 7565, 6778, 7352
4072, 726, 3300, 3051, 6260, 7566, 4408, 7567, 7568, 7570, 7569
4073, 1001, 6281, 1004, 6449, 7571, 7335, 2058, 7572, 7339, 7337
4074, 1285, 5255, 6349, 6418, 7573, 7574, 7086, 7141, 7575, 7143
4075, 3066, 3104, 5971, 6402, 3844, 7170, 7576, 7302, 6644, 7172
4076, 715, 1335, 6321, 6364, 7577, 7473, 7578, 7579, 7472, 7471
4077, 3203, 3314, 6316, 6381, 4581, 7244, 7580, 7581, 7245, 7246
4078, 3114, 6108, 6317, 6377, 7582, 7583, 7584, 7585, 7587, 7586
4079, 3184, 6336, 6253, 6428, 7588, 6831, 7589, 7590, 7592, 7591
4080, 5979, 1147, 5985, 6250, 7564, 7593, 6030, 6745, 7563, 6747
4081, 1375, 6330, 1215, 6373, 6890, 7594, 2872, 6784, 6499, 7595
4082, 6259, 6337, 1281, 6362, 7214, 7498, 7499, 6620, 7217, 7596
4083, 1234, 1235, 1031, 6383, 2209, 2208, 2206, 6887, 7305, 7276
4084, 5980, 5986, 3122, 6250, 6055, 7597, 7560, 6768, 6769, 7561
4085, 1238, 6333, 1239, 6363, 7070, 7396, 1999, 7073, 7074, 7397
4086, 3094, 6247, 6356, 6427, 6973, 6978, 6976, 7598, 6665, 6911
4087, 1089, 1297, 1150, 6306, 2493, 2492, 2491, 7599, 6954, 7600
4088, 6288, 6285, 6426, 6484, 7458, 7461, 7462, 7496, 7497, 7601
4089, 1335, 715, 6321, 6468, 7577, 7578, 7473, 7475, 7602, 7474
4090, 1011, 1012, 6387, 6487, 2102, 6845, 7279, 7603, 6848, 6849
4091, 3066, 6402, 6254, 6461, 7302, 7604, 7605, 7303, 6760, 7606
4092, 6266, 6318, 1167, 6322, 7607, 7608, 7609, 7610, 7413, 7611
4093, 3142, 6318, 6266, 6322, 7612, 7607, 7613, 7614, 7413, 7610
4094, 1284, 6275, 6266, 6322, 7615, 7616, 7617, 7618, 7619, 7610
4095, 1061, 1029, 6362, 6426, 2198, 7620, 7621, 7469, 7470, 7622
4096, 1251, 6359, 6292, 6444, 7623, 7624, 7625, 7031, 7626, 7332
4097, 3110, 6313, 3355, 6351, 7532, 7627, 4686, 7534, 7491, 7628
4098, 1380, 6313, 1135, 6351, 7629, 7486, 2710, 7630, 7491, 7489
4099, 6325, 3025, 6357, 6445, 7255, 7631, 7632, 7256, 7257, 7633
4100, 3097, 6296, 6359, 6395, 7634, 7635, 7512, 7427, 7636, 7158
4101, 5838, 6256, 3120, 6275, 7444, 7443, 7441, 7152, 7545, 7637
4102, 1145, 6256, 5839, 6275, 7420, 7418, 7416, 7638, 7545, 7546
4103, 3037, 6337, 3256, 6362, 7639, 7213, 4325, 7640, 7217, 7216
4104, 3357, 3052, 6256, 6321, 4412, 7249, 7641, 7642, 7252, 7253
4105, 3383, 6334, 6361, 6413, 7643, 7644, 7645, 7646, 7648, 7647
4106, 1115, 1249, 6308, 6438, 2591, 7649, 7650, 7651, 7653, 7652
4107, 2997, 6298, 3284, 6400, 7317, 7654, 4080, 7318, 7319, 7655
4108, 1383, 1179, 1105, 6371, 2573, 1650, 2574, 6987, 6632, 7656
4109, 6246, 6247, 1119, 6356, 6974, 7297, 7298, 6977, 6978, 7657
4110, 3208, 3211, 2994, 6384, 4122, 4121, 4075, 6838, 6696, 7286
4111, 1254, 1061, 6288, 6426, 2200, 7658, 7457, 7460, 7469, 7462
4112, 1011, 1010, 1009, 6387, 2096, 2092, 2097, 7279, 7407, 6824
4113, 3063, 3127, 3267, 6304, 4464, 4463, 4462, 7659, 7660, 7038
4114, 1254, 6285, 1029, 6426, 7459, 7661, 2134, 7460, 7461, 7470
4115, 1259, 1030, 1006, 6392, 2085, 2074, 2083, 7522, 7138, 6656
4116, 1111, 6278, 6320, 6381, 7662, 6647, 7663, 7664, 6650, 6651
4117, 3039, 3322, 6315, 6336, 4344, 7313, 6920, 6923, 7199, 6925
4118, 993, 6271, 6258, 6470, 7665, 7001, 7666, 7667, 7669, 7668
4119, 1064, 6315, 1347, 6336, 7101, 7314, 2370, 7102, 6925, 7193
4120, 3088, 6300, 3314, 6381, 7510, 7453, 4582, 7511, 6767, 7245
4121, 1284, 1132, 6266, 6275, 2699, 7670, 7617, 7615, 7671, 7616
4122, 3177, 6323, 5060, 6371, 6553, 7280, 7672, 7673, 6967, 7405
4123, 6287, 2988, 6387, 6487, 7674, 7675, 6844, 6847, 7676, 6849
4124, 2998, 6280, 2996, 6475, 7557, 7210, 4118, 7677, 7212, 7166
4125, 6265, 6268, 1310, 6450, 6533, 6531, 6528, 6550, 6995, 7207
4126, 1399, 6272, 6244, 6402, 6543, 6537, 6542, 7678, 6645, 6643
4127, 1064, 1347, 1134, 6336, 2370, 2369, 2368, 7102, 7193, 7194
4128, 3039, 3109, 3322, 6336, 4342, 4345, 4344, 6923, 7198, 7199
4129, 1151, 1295, 1086, 6406, 2482, 2481, 2479, 7679, 7681, 7680
4130, 5295, 726, 3051, 6353, 5304, 7567, 7682, 7683, 7685, 7684
4131, 3351, 3253, 6245, 6372, 4533, 6945, 7055, 7058, 6944, 6943
4132, 1083, 6389, 6310, 6421, 7115, 7402, 7686, 7208, 6992, 7687
4133, 3023, 3380, 3303, 6410, 3445, 4266, 4263, 7688, 6984, 6985
4134, 6260, 6304, 5710, 6305, 7689, 7690, 7691, 7692, 7694, 7693
4135, 6287, 6347, 2990, 6420, 6698, 7695, 7696, 6640, 6699, 7697
4136, 1231, 1241, 6332, 6403, 2899, 7379, 7698, 7699, 7091, 7380
4137, 3186, 6350, 6334, 6458, 7700, 7701, 7702, 7703, 7705, 7704
4138, 1196, 885, 874, 6317, 7706, 949, 6689, 6913, 7707, 6915
4139, 1394, 6309, 5058, 6442, 7355, 7708, 7709, 7356, 7341, 7710
4140, 3171, 873, 6116, 884, 6735, 6734, 6736, 7711, 927, 6841
4141, 1254, 6288, 6388, 6484, 7457, 7712, 7713, 7495, 7496, 7714
4142, 3081, 3266, 3127, 6422, 4556, 4555, 4557, 7715, 7717, 7716
4143, 5269, 1198, 6318, 6322, 7718, 7719, 7720, 7721, 7722, 7413
4144, 5707, 3113, 846, 6286, 7723, 7421, 5726, 7724, 7287, 7422
4145, 6334, 6458, 6350, 6490, 7704, 7705, 7701, 7725, 7727, 7726
4146, 6294, 6387, 2988, 6487, 6825, 7675, 7728, 7729, 6849, 7676
4147, 1001, 1004, 1252, 6449, 2058, 2060, 2052, 7572, 7337, 7730
4148, 3186, 6368, 6350, 6458, 7731, 7732, 7700, 7703, 7733, 7705
4149, 1249, 6333, 6308, 6438, 7734, 7735, 7649, 7653, 7736, 7652
4150, 3213, 3214, 6333, 6363, 3973, 7542, 7737, 7738, 7543, 7074
4151, 1054, 6282, 1161, 6369, 7739, 7364, 2179, 7740, 7369, 7367
4152, 1029, 6285, 6277, 6426, 7661, 6673, 7741, 7470, 7461, 7742
4153, 6266, 1168, 6318, 6477, 7123, 6877, 7607, 7125, 6878, 6861
4154, 1307, 6272, 1073, 6286, 7743, 7744, 2413, 7745, 6541, 7746
4155, 3283, 3048, 6272, 6286, 4387, 7077, 7747, 7748, 7078, 6541
4156, 3072, 6265, 6255, 6370, 6952, 6529, 6792, 7749, 6980, 6875
4157, 3072, 6370, 6255, 6459, 7749, 6875, 6792, 7750, 7027, 7025
4158, 3344, 5852, 6275, 6376, 7149, 7150, 7151, 7330, 7752, 7751
4159, 726, 6260, 3051, 6353, 7568, 7569, 7567, 7685, 7753, 7684
4160, 5714, 6260, 5705, 6353, 7754, 7755, 5810, 7756, 7753, 7757
4161, 1055, 6113, 6109, 6312, 7758, 6156, 6559, 6561, 7759, 6560
4162, 1364, 6318, 6303, 6349, 6859, 6951, 6771, 7760, 7762, 7761
4163, 3339, 6303, 6318, 6349, 7763, 6951, 7764, 7765, 7761, 7762
4164, 6342, 6361, 3074, 6389, 7237, 7766, 7767, 7240, 7241, 7768
4165, 6246, 6296, 3134, 6356, 7769, 7770, 7168, 6977, 7771, 7169
4166, 1253, 6325, 1241, 6403, 7045, 7088, 2298, 7046, 6708, 7091
4167, 1093, 1388, 6313, 6386, 2341, 6927, 7772, 7773, 6930, 6931
4168, 1224, 6327, 1247, 6405, 7270, 7774, 2907, 7271, 7272, 7775
4169, 1252, 6278, 6378, 6449, 7776, 6618, 7777, 7730, 7779, 7778
4170, 1100, 6310, 1083, 6389, 7400, 7686, 2464, 7401, 7402, 7115
4171, 5993, 6335, 3140, 6435, 7780, 7781, 7047, 6514, 7066, 7049
4172, 3043, 6249, 6319, 6366, 7782, 7108, 7783, 7784, 7111, 7112
4173, 1294, 5694, 1421, 6305, 7785, 7786, 1797, 7787, 7789, 7788
4174, 1150, 1289, 1108, 6419, 2587, 2586, 2585, 7790, 7792, 7791
4175, 2961, 5060, 3177, 6323, 7558, 7672, 3631, 6551, 7280, 6553
4176, 6246, 6254, 6247, 6461, 7793, 7794, 6974, 7007, 7606, 7006
4177, 1004, 6290, 6320, 6449, 7336, 7159, 7795, 7337, 7338, 7796
4178, 1353, 6268, 6340, 6466, 6796, 6601, 6797, 7797, 7799, 7798
4179, 3300, 3017, 736, 3333, 4236, 7800, 7801, 4237, 3528, 7802
4180, 3154, 6261, 5050, 6352, 6907, 6949, 7803, 7804, 6613, 6950
4181, 1132, 6266, 6275, 6488, 7670, 7616, 7671, 7805, 7807, 7806
4182, 1138, 5706, 845, 6286, 7808, 5720, 7425, 7289, 7809, 7424
4183, 3244, 3351, 6245, 6273, 4531, 7055, 7810, 7811, 7057, 7056
4184, 6269, 6351, 3040, 6416, 7490, 7812, 7813, 7814, 7815, 7361
4185, 1093, 6313, 1142, 6386, 7772, 7816, 2506, 7773, 6931, 7817
4186, 6246, 6443, 6254, 6461, 7175, 7484, 7793, 7007, 7176, 7606
4187, 1090, 6273, 5844, 6348, 7202, 7203, 7201, 7818, 7820, 7819
4188, 3300, 6260, 736, 6411, 7570, 7821, 7801, 7822, 7824, 7823
4189, 997, 998, 6274, 6276, 2032, 7825, 7826, 7827, 7828, 6603
4190, 5695, 1373, 5713, 6253, 7829, 7830, 5822, 6941, 7831, 6827
4191, 3188, 6299, 3288, 6345, 7518, 7832, 4791, 7520, 7064, 7833
4192, 2967, 2957, 5974, 6258, 3853, 7834, 6855, 6857, 7835, 6858
4193, 5989, 6254, 5975, 6465, 7482, 7836, 6087, 7837, 7839, 7838
4194, 982, 992, 5970, 6258, 1879, 6850, 7840, 7841, 6854, 6852
4195, 1068, 1306, 6319, 6366, 2225, 7842, 7107, 7110, 7843, 7112
4196, 3122, 3042, 5980, 6335, 3861, 7844, 7560, 7562, 7845, 7363
4197, 1371, 6356, 1141, 6437, 7846, 7550, 2733, 7847, 7555, 7553
4198, 3348, 5690, 5713, 6253, 7848, 5800, 7849, 7850, 6828, 6827
4199, 1068, 6289, 1034, 6366, 7259, 6879, 2224, 7110, 6883, 6881
4200, 3123, 6312, 3331, 6460, 7153, 7851, 4299, 7478, 7479, 7852
4201, 3344, 5838, 3059, 6275, 7148, 7853, 3808, 7151, 7152, 7854
4202, 1383, 1179, 6261, 6352, 2573, 6609, 6986, 7855, 6612, 6613
4203, 3339, 6349, 6318, 6453, 7765, 7762, 7764, 7856, 7858, 7857
4204, 1317, 6268, 6282, 6450, 7494, 7365, 7205, 7206, 6995, 6511
4205, 5035, 5049, 1121, 6250, 5138, 7859, 6500, 6501, 7860, 6502
4206, 1081, 1083, 6310, 6421, 2454, 7686, 7861, 6991, 7208, 7687
4207, 3351, 6273, 3077, 6372, 7057, 7862, 4532, 7058, 7059, 7863
4208, 1375, 6283, 1144, 6300, 6782, 6590, 2603, 6783, 6492, 6589
4209, 3350, 3119, 6283, 6300, 4578, 6595, 6493, 6491, 6594, 6492
4210, 5069, 6250, 3053, 6451, 7526, 7864, 7010, 7013, 7527, 7015
4211, 5270, 6315, 1178, 6353, 6933, 7033, 7865, 6934, 6576, 7866
4212, 1140, 1285, 1279, 6349, 2730, 1766, 2731, 7085, 7086, 7867
4213, 5053, 6339, 5046, 6345, 7515, 7868, 5220, 7516, 7509, 7869
4214, 3061, 3270, 3126, 6455, 4457, 4456, 4455, 7438, 7870, 7440
4215, 6255, 6340, 3398, 6372, 6600, 7871, 7872, 7873, 7311, 7874
4216, 1204, 6269, 6313, 6415, 7875, 7487, 7876, 7877, 7879, 7878
4217, 5050, 3154, 3080, 6261, 7803, 3625, 7880, 6949, 6907, 6908
4218, 5715, 6315, 5692, 6336, 7547, 7100, 5811, 7548, 6925, 7103
4219, 1147, 5979, 1067, 6335, 7564, 7881, 1887, 7565, 7352, 7882
4220, 1316, 6360, 1177, 6415, 7883, 7884, 2778, 7885, 7887, 7886
4221, 3123, 3244, 6245, 6460, 4734, 7810, 7296, 7478, 7888, 7480
4222, 1162, 1134, 6264, 6336, 2622, 7192, 7131, 7889, 7194, 7195
4223, 3137, 6264, 3109, 6336, 7127, 7196, 4596, 7890, 7195, 7198
4224, 1227, 6316, 1224, 6405, 7891, 7391, 2906, 7892, 7393, 7271
4225, 2959, 6253, 3184, 6336, 7182, 7589, 3945, 7184, 6831, 7588
4226, 6130, 6269, 6106, 6416, 7893, 7894, 6211, 7360, 7814, 7362
4227, 1251, 6296, 6359, 6444, 7895, 7635, 7623, 7031, 7896, 7626
4228, 3262, 6332, 2997, 6400, 7897, 7349, 4139, 7898, 7351, 7318
4229, 6274, 6276, 998, 6378, 6603, 7828, 7825, 6606, 6607, 7899
4230, 846, 5688, 6286, 6408, 5782, 7900, 7422, 7423, 7901, 6751
4231, 845, 6286, 5688, 6408, 7424, 7900, 5783, 7426, 6751, 7901
4232, 5837, 6321, 6256, 6468, 7902, 7253, 7903, 7904, 7474, 7905
4233, 3066, 5971, 6254, 6402, 7576, 7481, 7605, 7302, 7172, 7604
4234, 1326, 1403, 1404, 755, 2257, 1547, 2263, 7906, 7908, 7907
4235, 6258, 6271, 2967, 6470, 7001, 7002, 6857, 7668, 7669, 7909
4236, 979, 1428, 1394, 6442, 1944, 1946, 1665, 7910, 7357, 7356
4237, 3138, 6336, 3184, 6428, 7911, 7588, 4599, 7912, 7592, 7590
4238, 1066, 6274, 998, 6278, 7913, 7825, 2043, 7914, 6616, 7915
4239, 2973, 6274, 3041, 6278, 6604, 7916, 4019, 6617, 6616, 7917
4240, 6271, 6375, 2969, 6470, 6627, 6625, 6623, 7669, 7919, 7918
4241, 1300, 6318, 1364, 6349, 7920, 6859, 2676, 7921, 7762, 7760
4242, 993, 6375, 6271, 6470, 7922, 6627, 7665, 7667, 7919, 7669
4243, 3149, 6122, 6108, 6377, 7923, 6223, 7924, 7925, 7926, 7587
4244, 1016, 6277, 1029, 6285, 6672, 7741, 2131, 6674, 6673, 7661
4245, 725, 1325, 735, 6260, 6681, 7927, 5477, 6685, 6683, 7928
4246, 3237, 6358, 6342, 6425, 7929, 7930, 7931, 7932, 7375, 6962
4247, 1162, 6336, 6264, 6343, 7889, 7195, 7131, 7327, 7933, 7326
4248, 3137, 6264, 6336, 6343, 7127, 7195, 7890, 7329, 7326, 7933
4249, 6123, 6261, 6104, 6352, 7934, 7935, 6201, 7936, 6613, 7937
4250, 1014, 6287, 6338, 6434, 7938, 7939, 7940, 7941, 7942, 7041
4251, 3094, 6356, 3069, 6427, 6976, 7507, 4307, 7598, 6911, 7943
4252, 1193, 1353, 1098, 6340, 2538, 2537, 2536, 7944, 6797, 6599
4253, 3081, 3330, 836, 3127, 3498, 7945, 7946, 4557, 4465, 7947
4254, 1150, 1354, 119, 1108, 2494, 7948, 7949, 2585, 1438, 7950
4255, 1240, 6333, 1249, 6438, 7951, 7734, 1929, 7952, 7736, 7653
4256, 1004, 6320, 1252, 6449, 7795, 7953, 2060, 7337, 7796, 7730
4257, 1252, 6320, 6278, 6449, 7953, 6647, 7776, 7730, 7796, 7779
4258, 1204, 6269, 1135, 6313, 7875, 7488, 2713, 7876, 7487, 7486
4259, 1252, 1111, 6278, 6320, 2055, 7662, 7776, 7953, 7663, 6647
4260, 6106, 6269, 3040, 6416, 7894, 7813, 7358, 7362, 7814, 7361
4261, 3087, 6300, 6278, 6341, 6918, 6765, 7954, 6919, 6593, 7955
4262, 6278, 6300, 1112, 6341, 6765, 6916, 7956, 7955, 6593, 6917
4263, 1178, 6315, 5270, 6417, 7033, 6933, 7865, 7035, 6741, 7187
4264, 1316, 6249, 6360, 6415, 7957, 7958, 7883, 7885, 7959, 7887
4265, 3138, 3092, 3184, 6336, 4598, 3944, 4599, 7911, 7960, 7588
4266, 5050, 6261, 3080, 6371, 6949, 6908, 7880, 7961, 6634, 7962
4267, 873, 6128, 874, 6317, 6738, 6693, 965, 6964, 6914, 6915
4268, 3348, 2959, 5690, 6253, 3790, 7183, 7848, 7850, 7182, 6828
4269, 1164, 1162, 1186, 6326, 2426, 2706, 2803, 7963, 7133, 7134
4270, 3139, 3161, 3137, 6326, 4778, 4682, 4400, 7964, 7128, 7129
4271, 1213, 1313, 6299, 6435, 2816, 7965, 7264, 7266, 7966, 7067
4272, 1424, 6318, 1198, 6322, 7967, 7719, 2001, 7968, 7413, 7722
4273, 3399, 3173, 6318, 6322, 3977, 7409, 7969, 7970, 7412, 7413
4274, 3110, 3040, 6269, 6351, 3981, 7813, 7533, 7534, 7812, 7490
4275, 3043, 6289, 6249, 6366, 7971, 7258, 7782, 7784, 6883, 7111
4276, 3086, 3088, 3286, 6381, 4570, 4573, 4572, 6649, 7511, 7404
4277, 1194, 1353, 6340, 6466, 2860, 6797, 7972, 7973, 7797, 7798
4278, 6274, 998, 6278, 6378, 7825, 7915, 6616, 6606, 7899, 6618
4279, 6277, 2991, 6285, 6379, 7974, 7975, 6673, 6677, 7976, 6676
4280, 1017, 6338, 6287, 6347, 7977, 7939, 7978, 7979, 7980, 6698
4281, 6287, 6338, 2992, 6347, 7939, 7981, 7982, 6698, 7980, 7983
4282, 3041, 6278, 6274, 6341, 7917, 6616, 7916, 7984, 7955, 7985
4283, 1066, 6274, 6278, 6341, 7913, 6616, 7914, 7986, 7985, 7955
4284, 3176, 6373, 6283, 6464, 7987, 6495, 7988, 7989, 7991, 7990
4285, 3009, 3008, 6289, 6366, 4162, 7283, 7992, 7993, 7284, 6883
4286, 1221, 1219, 1245, 6399, 2884, 2886, 2885, 7268, 7436, 6721
4287, 6325, 3216, 6344, 6403, 7994, 7995, 7089, 6708, 7996, 7092
4288, 1404, 1042, 1326, 745, 1550, 2260, 2263, 7997, 7999, 7998
4289, 1155, 6319, 6263, 6360, 8000, 8001, 8002, 8003, 8005, 8004
4290, 1204, 6249, 1316, 6415, 8006, 7957, 2833, 7877, 7959, 7885
4291, 1225, 6311, 6316, 6433, 8007, 7392, 8008, 8009, 8011, 8010
4292, 1003, 6281, 1016, 6285, 8012, 6701, 2061, 8013, 6700, 6674
4293, 2978, 2991, 6281, 6285, 4037, 8014, 6714, 6713, 7975, 6700
4294, 1251, 6246, 6296, 6444, 7030, 7769, 7895, 7031, 6679, 7896
4295, 6281, 1003, 6290, 6380, 8012, 8015, 6724, 6716, 8016, 6726
4296, 1222, 1220, 1221, 6399, 2887, 2883, 2888, 7506, 8017, 7268
4297, 1222, 6344, 1220, 6399, 8018, 8019, 2887, 7506, 8020, 8017
4298, 1024, 6279, 1020, 6284, 6668, 8021, 2152, 6667, 6666, 7008
4299, 5695, 984, 1373, 6253, 7224, 1816, 7829, 6941, 7225, 7831
4300, 1003, 1004, 6281, 6290, 2059, 7335, 8012, 8015, 7336, 6724
4301, 2978, 6281, 2979, 6290, 6714, 8022, 4033, 6725, 6724, 8023
4302, 1050, 6344, 6325, 6445, 8024, 7089, 8025, 8026, 7096, 7256
4303, 6262, 6312, 6245, 6474, 6562, 7189, 8027, 6897, 6898, 7190
4304, 1218, 6354, 6344, 6445, 8028, 7093, 8029, 8030, 7098, 7096
4305, 6330, 6373, 3189, 6398, 6499, 8031, 8032, 8033, 8035, 8034
4306, 3138, 6343, 6336, 6428, 8036, 7933, 7911, 7912, 8037, 7592
4307, 1235, 1257, 6284, 6301, 2922, 7081, 8038, 7304, 8040, 8039
4308, 5295, 5252, 726, 6353, 5429, 5427, 5304, 7683, 8041, 7685
4309, 6281, 6285, 2991, 6379, 6700, 7975, 8014, 6702, 6676, 7976
4310, 6276, 2974, 6281, 6378, 6956, 8042, 8043, 6607, 6957, 8044
4311, 5852, 3344, 5828, 6376, 7149, 8045, 5932, 7752, 7330, 8046
4312, 1017, 6287, 1015, 6347, 7978, 6635, 2122, 7979, 6698, 6697
4313, 2990, 6287, 2992, 6347, 7696, 7982, 4096, 7695, 6698, 7983
4314, 6281, 6285, 1003, 6380, 6700, 8013, 8012, 6716, 6717, 8016
4315, 6255, 6268, 3073, 6466, 6532, 7080, 7016, 8047, 7799, 8048
4316, 6250, 6270, 5072, 6452, 7525, 7536, 8049, 8050, 7539, 7540
4317, 6245, 6263, 6372, 6473, 8051, 7310, 6943, 6946, 8052, 6948
4318, 3308, 6320, 3286, 6381, 7145, 7403, 4180, 7146, 6651, 7404
4319, 2999, 6279, 6291, 6385, 8053, 6687, 8054, 8055, 6669, 6688
4320, 1276, 6310, 1100, 6342, 6863, 7400, 2467, 6864, 6865, 7399
4321, 3075, 6310, 3251, 6342, 8056, 6568, 4441, 8057, 6865, 6867
4322, 1115, 1240, 1249, 6438, 2615, 1929, 2591, 7651, 7952, 7653
4323, 1123, 5983, 855, 6248, 8058, 5998, 8059, 8060, 8062, 8061
4324, 725, 1076, 6260, 6353, 6682, 6684, 6685, 8063, 8064, 7753
4325, 993, 992, 6258, 6271, 1957, 6854, 7666, 7665, 7000, 7001
4326, 3208, 2984, 6294, 6295, 4073, 8065, 6837, 6836, 8066, 6822
4327, 1233, 6294, 1009, 6295, 8067, 6823, 2099, 8068, 6822, 6821
4328, 2999, 6284, 6279, 6385, 8069, 6666, 8053, 8055, 6671, 6669
4329, 3114, 3149, 6108, 6377, 3887, 7924, 7582, 7585, 7925, 7587
4330, 3212, 2990, 6284, 6287, 4094, 8070, 8071, 8072, 7696, 6636
4331, 1261, 6331, 1116, 6425, 7372, 8073, 2614, 7373, 7374, 8074
4332, 1233, 6294, 6295, 6384, 8067, 6822, 8068, 8075, 6839, 6840
4333, 1427, 1159, 1251, 6246, 2796, 2797, 2213, 6517, 8076, 7030
4334, 3193, 3287, 6344, 6445, 4832, 8077, 7095, 7097, 8078, 7096
4335, 6294, 6295, 2984, 6387, 6822, 8066, 8065, 6825, 6826, 8079
4336, 5852, 5828, 3344, 5838, 5932, 8045, 7149, 5931, 5900, 7148
4337, 997, 6276, 6274, 6472, 7827, 6603, 7826, 8080, 7220, 7221
4338, 1026, 1230, 1014, 6434, 2125, 2114, 2123, 6710, 6820, 7941
4339, 5707, 846, 5688, 6286, 5726, 5782, 5787, 7724, 7422, 7900
4340, 6311, 6327, 3220, 6399, 6731, 8081, 8082, 6733, 6722, 8083
4341, 5253, 6321, 715, 6468, 7382, 7578, 5423, 8084, 7474, 7602
4342, 6253, 6336, 984, 6428, 6831, 7226, 7225, 7591, 7592, 8085
4343, 1052, 6279, 1024, 6291, 8086, 6668, 2172, 8087, 6687, 6686
4344, 3027, 2999, 6279, 6291, 4146, 8053, 8088, 8089, 8054, 6687
4345, 3027, 6291, 6279, 6369, 8089, 6687, 8088, 8090, 8092, 8091
4346, 3078, 6486, 3354, 6490, 8093, 8094, 4428, 8095, 8097, 8096
4347, 3265, 831, 3082, 6324, 8098, 8099, 4558, 6900, 8100, 6902
4348, 1123, 6270, 855, 6452, 8101, 8102, 8059, 8103, 7539, 8104
4349, 3308, 3203, 6316, 6381, 4887, 7580, 7429, 7146, 7581, 7246
4350, 884, 6116, 874, 6128, 6841, 8105, 966, 6842, 6226, 6693
4351, 1365, 6273, 1090, 6460, 7204, 7202, 1825, 8106, 8108, 8107
4352, 3356, 6315, 3153, 6353, 7333, 6573, 4542, 8109, 6576, 6577
4353, 1096, 1095, 6360, 6474, 2328, 8110, 8111, 8112, 8114, 8113
4354, 1329, 1307, 1073, 6286, 2414, 2413, 2415, 8115, 7745, 7746
4355, 3283, 3304, 3048, 6286, 4390, 4389, 4387, 7748, 8116, 7078
4356, 1002, 6281, 6276, 6379, 7062, 8043, 8117, 7063, 6702, 8118
4357, 6320, 6328, 1333, 6381, 7136, 8119, 8120, 6651, 7147, 8121
4358, 6271, 6375, 1071, 6435, 6627, 8122, 8123, 6515, 8125, 8124
4359, 6245, 6312, 6262, 6473, 7189, 6562, 8027, 6946, 6971, 6972
4360, 1054, 1317, 1161, 6282, 2318, 2317, 2179, 7739, 7205, 7364
4361, 5832, 6321, 6257, 6346, 8126, 8127, 8128, 8129, 7447, 8130
4362, 6119, 3389, 6261, 6416, 8131, 8132, 8133, 8134, 8136, 8135
4363, 5291, 5267, 6333, 6363, 5457, 8137, 7069, 7072, 8138, 7074
4364, 5275, 6334, 2952, 6413, 8139, 8140, 8141, 8142, 7648, 8143
4365, 6132, 6122, 3149, 6312, 6227, 7923, 8144, 8145, 8147, 8146
4366, 1160, 1119, 6246, 6465, 2632, 7298, 8148, 8149, 7492, 6521
4367, 2955, 6283, 3176, 6373, 8150, 7988, 3661, 8151, 6495, 7987
4368, 1326, 1042, 1325, 6393, 2260, 2259, 2261, 8152, 8154, 8153
4369, 1207, 1306, 6366, 6439, 2190, 7843, 8155, 8156, 8158, 8157
4370, 3135, 6443, 3094, 6461, 8159, 7174, 4608, 8160, 7176, 7005
4371, 3186, 6334, 6350, 6490, 7702, 7701, 7700, 8161, 7725, 7726
4372, 3353, 3022, 3395, 6410, 4258, 3436, 4261, 6545, 8162, 6547
4373, 3212, 6287, 6284, 6383, 8072, 6636, 8071, 8163, 8165, 8164
4374, 6293, 6295, 1243, 6380, 8166, 8167, 8168, 8169, 8171, 8170
4375, 5832, 6257, 6329, 6346, 8128, 8172, 8173, 8129, 8130, 8174
4376, 3203, 3088, 3314, 6381, 4580, 4582, 4581, 7581, 7511, 7245
4377, 5279, 5269, 6318, 6322, 5460, 7720, 7408, 7411, 7721, 7413
4378, 3317, 3374, 3104, 6244, 4662, 4661, 4475, 7433, 6538, 6642
4379, 6255, 3073, 6340, 6466, 7016, 8175, 6600, 8047, 8048, 7798
4380, 1072, 1429, 1368, 6317, 1633, 2411, 2410, 8176, 8178, 8177
4381, 3186, 3078, 3354, 6490, 4538, 4428, 4539, 8161, 8095, 8096
4382, 3010, 6265, 3072, 6370, 7052, 6952, 4202, 6810, 6980, 7749
4383, 3193, 6309, 3166, 6445, 7340, 8179, 4834, 7097, 7342, 8180
4384, 3238, 6260, 5714, 6353, 8181, 7754, 8182, 8183, 7753, 7756
4385, 5069, 5032, 6250, 6270, 5202, 8184, 7526, 7012, 8185, 7525
4386, 6289, 6325, 3012, 6357, 7294, 8186, 8187, 8188, 7632, 8189
4387, 1037, 6325, 6289, 6357, 8190, 7294, 8191, 8192, 7632, 8188
4388, 5706, 5688, 845, 6286, 5785, 5783, 5720, 7809, 7900, 7424
4389, 3335, 6254, 5971, 6443, 8193, 7481, 8194, 8195, 7484, 7485
4390, 6269, 6462, 6360, 6489, 8196, 8197, 8198, 8199, 8201, 8200
4391, 5056, 3189, 6373, 6398, 8202, 8031, 8203, 8204, 8034, 8035
4392, 1257, 6284, 6301, 6385, 7081, 8039, 8040, 7082, 6671, 8205
4393, 1207, 1158, 1306, 6439, 2793, 2794, 2190, 8156, 8206, 8158
4394, 6318, 6349, 1300, 6453, 7762, 7921, 7920, 7857, 7858, 8207
4395, 5701, 3348, 5713, 6253, 8208, 7849, 5799, 8209, 7850, 6827
4396, 1225, 1223, 6311, 6433, 2900, 8210, 8007, 8009, 8211, 8011
4397, 1093, 1058, 1388, 6386, 2340, 2337, 2341, 7773, 7117, 6930
4398, 6266, 6318, 3142, 6477, 7607, 7612, 7613, 7125, 6861, 8212
4399, 6255, 6268, 6265, 6450, 6532, 6533, 6529, 6795, 6995, 6550
4400, 1227, 1224, 1247, 6405, 2906, 2907, 2875, 7892, 7271, 7775
4401, 1373, 5700, 5713, 6253, 8213, 5823, 7830, 7831, 8214, 6827
4402, 1002, 6276, 1203, 6379, 8117, 8215, 2050, 7063, 8118, 8216
4403, 1026, 1014, 6338, 6434, 2123, 7940, 7039, 6710, 7941, 7041
4404, 1115, 6308, 6331, 6438, 7650, 8217, 8218, 7651, 7652, 8219
4405, 1335, 1077, 715, 6468, 1563, 8220, 7577, 7475, 8221, 7602
4406, 3327, 3046, 6271, 6299, 4000, 6624, 8222, 8223, 6776, 6775
4407, 6301, 6302, 3209, 6383, 6891, 8224, 8225, 6893, 6888, 8226
4408, 3339, 3275, 6349, 6453, 4650, 8227, 7765, 7856, 8228, 7858
4409, 6309, 6382, 5058, 6442, 8229, 8230, 7708, 7341, 8231, 7710
4410, 1111, 6300, 6278, 6381, 8232, 6765, 7662, 7664, 6767, 6650
4411, 3029, 6282, 3298, 6423, 8233, 8234, 4285, 8235, 8237, 8236
4412, 3135, 6246, 3094, 6443, 8238, 6975, 4608, 8159, 7175, 7174
4413, 1078, 710, 1334, 6270, 8239, 8240, 1483, 7537, 8242, 8241
4414, 1177, 6269, 6360, 6489, 8243, 8198, 7884, 8244, 8199, 8200
4415, 3074, 3075, 6342, 6389, 4439, 8057, 7767, 7768, 8245, 7240
4416, 3396, 3127, 3266, 6422, 4744, 4555, 3770, 8246, 7716, 7717
4417, 1394, 5058, 6309, 6382, 7709, 7708, 7355, 8247, 8230, 8229
4418, 6284, 6287, 2990, 6420, 6636, 7696, 8070, 6639, 6640, 7697
4419, 6266, 3259, 6322, 6488, 8248, 8249, 7610, 7807, 8251, 8250
4420, 1160, 6456, 1119, 6465, 8252, 7299, 2632, 8149, 7493, 7492
4421, 3253, 3398, 6340, 6372, 4535, 7871, 7531, 6944, 7874, 7311
4422, 1194, 6412, 1353, 6466, 8253, 8254, 2860, 7973, 8255, 7797
4423, 3298, 6291, 3027, 6423, 8256, 8089, 4284, 8236, 8258, 8257
4424, 2974, 6276, 6281, 6379, 6956, 8043, 8042, 8259, 8118, 6702
4425, 1072, 1368, 1301, 6317, 2410, 2409, 2408, 8176, 8177, 8260
4426, 5070, 5051, 1179, 6352, 5087, 6610, 7464, 7463, 6611, 6612
4427, 6277, 6285, 2991, 6426, 6673, 7975, 7974, 7742, 7461, 8261
4428, 5973, 5988, 992, 6271, 6086, 6851, 8262, 8263, 6999, 7000
4429, 6294, 3209, 6302, 6383, 8264, 8224, 6885, 6889, 8226, 6888
4430, 1041, 1403, 1326, 6393, 1544, 2257, 2254, 7218, 8265, 8152
4431, 1014, 6314, 6287, 6434, 8266, 7017, 7938, 7941, 8267, 7942
4432, 1204, 1316, 1177, 6415, 2833, 2778, 2712, 7877, 7885, 7886
4433, 1231, 1253, 1241, 6403, 2915, 2298, 2899, 7699, 7046, 7091
4434, 1381, 1178, 6315, 6353, 2566, 7033, 7032, 8268, 7866, 6576
4435, 1014, 1012, 6287, 6314, 2111, 6846, 7938, 8266, 7018, 7017
4436, 3029, 3298, 3027, 6423, 4285, 4284, 4151, 8235, 8236, 8257
4437, 1204, 1177, 6269, 6415, 2712, 8243, 7875, 7877, 7886, 7879
4438, 1235, 6301, 6284, 6383, 7304, 8039, 8038, 7305, 6893, 8164
4439, 1126, 6364, 5836, 6468, 8269, 8270, 8271, 8272, 7476, 8273
4440, 3110, 6313, 6269, 6415, 7532, 7487, 7533, 8274, 7878, 7879
4441, 1072, 6317, 1301, 6414, 8176, 8260, 2408, 8275, 8277, 8276
4442, 1094, 1119, 6247, 6356, 2333, 7297, 8278, 8279, 7657, 6978
4443, 6249, 6319, 1366, 6360, 7108, 8280, 8281, 7958, 8005, 8282
4444, 1104, 1381, 1178, 6417, 2567, 2566, 1733, 8283, 7034, 7035
4445, 855, 6270, 6248, 6441, 8102, 8284, 8061, 8285, 8287, 8286
4446, 6331, 6358, 1261, 6438, 7371, 7370, 7372, 8219, 8289, 8288
4447, 5988, 5968, 2967, 6271, 6075, 8290, 6856, 6999, 6512, 7002
4448, 5989, 3335, 5971, 6443, 8291, 8194, 6091, 7483, 8195, 7485
4449, 3230, 3351, 3253, 6245, 4732, 4533, 4763, 7445, 7055, 6945
4450, 1384, 1375, 1215, 6373, 2746, 2872, 1951, 7455, 6784, 7595
4451, 3262, 2997, 3284, 6400, 4139, 4080, 4140, 7898, 7318, 7655
4452, 1102, 1051, 985, 6273, 1974, 1973, 1975, 8292, 6871, 7222
4453, 1388, 6249, 1204, 6313, 6928, 8006, 2516, 6927, 6926, 7876
4454, 3175, 6277, 3034, 6359, 8293, 6658, 4169, 7155, 7209, 7156
4455, 985, 5843, 6273, 6370, 8294, 8295, 7222, 7223, 8296, 6876
4456, 831, 6324, 5982, 6390, 8100, 8297, 8298, 8299, 8301, 8300
4457, 1366, 6319, 1155, 6360, 8280, 8000, 2775, 8282, 8005, 8003
4458, 6295, 6298, 2984, 6387, 6904, 8302, 8066, 6826, 6905, 8079
4459, 3184, 3342, 6428, 6437, 4780, 8303, 7590, 8304, 8306, 8305
4460, 1233, 6302, 6294, 6384, 8307, 6885, 8067, 8075, 6571, 6839
4461, 1057, 1094, 1119, 6247, 2231, 2333, 2332, 6660, 8278, 7297
4462, 6276, 6281, 1002, 6378, 8043, 7062, 8117, 6607, 8044, 8308
4463, 3010, 6370, 3072, 6459, 6810, 7749, 4202, 8309, 7027, 7750
4464, 3223, 6380, 6293, 6484, 7162, 8169, 8310, 8311, 8313, 8312
4465, 736, 3017, 3300, 6411, 7800, 4236, 7801, 7823, 7431, 7822
4466, 1251, 6292, 1032, 6444, 7625, 6843, 2212, 7031, 7332, 6680
4467, 1371, 1320, 1141, 6356, 2648, 2520, 2733, 7846, 8314, 7550
4468, 1230, 6314, 1014, 6434, 8315, 8266, 2114, 6820, 8267, 7941
4469, 3142, 3399, 6318, 6322, 4793, 7969, 7612, 7614, 7970, 7413
4470, 1424, 1167, 6318, 6322, 2817, 7608, 7967, 7968, 7611, 7413
4471, 3153, 5272, 5295, 6353, 6572, 5369, 8316, 6577, 6575, 7683
4472, 2979, 6290, 6281, 6449, 8023, 6724, 8022, 8317, 7338, 7339
4473, 1159, 6296, 6246, 6356, 8318, 7769, 8076, 8319, 7771, 6977
4474, 1212, 1114, 1169, 6341, 2611, 2609, 2612, 6586, 7468, 6728
4475, 1358, 1325, 1042, 735, 2262, 2259, 1553, 8320, 7927, 8321
4476, 6334, 6413, 5275, 6458, 7648, 8142, 8139, 7704, 8323, 8322
4477, 3089, 3187, 3144, 6341, 4587, 4586, 4585, 7477, 6582, 6730
4478, 1289, 1150, 1422, 6419, 2587, 2763, 1925, 7792, 7790, 8324
4479, 3363, 6313, 6249, 6386, 8325, 6926, 8326, 8327, 6931, 6929
4480, 1028, 1203, 6359, 6379, 2065, 8328, 8329, 7029, 8216, 8330
4481, 1010, 1022, 6298, 6314, 2103, 8331, 7406, 8332, 8333, 7316
4482, 1233, 1234, 6294, 6302, 2207, 6884, 8067, 8307, 6886, 6885
4483, 3209, 3208, 6294, 6302, 4181, 6837, 8264, 8224, 6932, 6885
4484, 6255, 6372, 3398, 6459, 7873, 7874, 7872, 7025, 8335, 8334
4485, 1062, 1281, 6337, 6362, 2349, 7498, 8336, 8337, 7596, 7217
4486, 3209, 6301, 3255, 6302, 8225, 8338, 4892, 8224, 6891, 8339
4487, 1280, 6301, 1234, 6302, 7060, 6892, 2918, 6959, 6891, 6886
4488, 6287, 2987, 6314, 6387, 8340, 8341, 7017, 6844, 8342, 7019
4489, 1036, 6253, 1141, 6356, 8343, 7552, 2234, 6909, 7551, 7550
4490, 1015, 6284, 6287, 6487, 6637, 6636, 6635, 8344, 8345, 6847
4491, 6293, 6295, 2994, 6384, 8166, 7285, 8346, 7106, 6840, 7286
4492, 1251, 6246, 1159, 6296, 7030, 8076, 2797, 7895, 7769, 8318
4493, 5836, 6364, 6321, 6468, 8270, 7471, 8347, 8273, 7476, 7474
4494, 1241, 6325, 1050, 6344, 7088, 8025, 2297, 7090, 7089, 8024
4495, 3025, 6325, 3216, 6344, 7255, 7994, 4273, 7254, 7089, 7995
4496, 3087, 6278, 3041, 6341, 7954, 7917, 4353, 6919, 7955, 7984
4497, 1066, 6278, 1112, 6341, 7914, 7956, 2377, 7986, 7955, 6917
4498, 3383, 6334, 3128, 6361, 7643, 8348, 4748, 7645, 7644, 8349
4499, 997, 6274, 6375, 6472, 7826, 6938, 8350, 8080, 7221, 8351
4500, 6320, 6328, 3005, 6392, 7136, 8352, 8353, 7139, 7140, 8354
4501, 1042, 745, 1325, 6393, 7999, 8355, 2259, 8154, 8356, 8153
4502, 1013, 6287, 1012, 6487, 8357, 6846, 2106, 8358, 6847, 6848
4503, 6312, 6348, 3331, 6460, 8359, 8360, 7851, 7479, 8361, 7852
4504, 6130, 3040, 6119, 6416, 7359, 8362, 6212, 7360, 7361, 8134
4505, 1046, 1425, 1297, 6306, 2282, 2281, 2279, 6955, 8363, 6954
4506, 2983, 2984, 6295, 6298, 4062, 8066, 8364, 8365, 8302, 6904
4507, 1008, 6295, 1009, 6298, 6587, 6821, 2086, 7118, 6904, 6903
4508, 6262, 6360, 1095, 6474, 8366, 8110, 8367, 6897, 8113, 8114
4509, 1251, 1250, 6292, 6359, 2211, 8368, 7625, 7623, 8369, 7624
4510, 1376, 6273, 6245, 6372, 8370, 7056, 8371, 8372, 7059, 6943
4511, 3128, 6361, 6334, 6389, 8349, 7644, 8348, 8373, 7241, 8374
4512, 1020, 6284, 6279, 6420, 7008, 6666, 8021, 7009, 6639, 8375
4513, 1162, 6326, 1164, 6343, 7133, 7963, 2426, 7327, 7328, 8376
4514, 1079, 5070, 1179, 6430, 8377, 7464, 1647, 8378, 7465, 7466
4515, 5989, 6254, 6258, 6443, 7482, 8379, 8380, 7483, 7484, 8381
4516, 1010, 6314, 6298, 6387, 8332, 7316, 7406, 7407, 7019, 6905
4517, 3128, 6334, 6267, 6389, 8348, 8382, 8383, 8373, 8374, 6989
4518, 3316, 3389, 3040, 6416, 4351, 3873, 4349, 8384, 8136, 7361
4519, 6316, 6330, 1339, 6381, 7243, 8385, 8386, 7246, 7247, 8387
4520, 3351, 3077, 3253, 6372, 4532, 4534, 4533, 7058, 7863, 6944
4521, 5989, 5974, 3335, 6443, 6090, 8388, 8291, 7483, 8389, 8195
4522, 1363, 6350, 6337, 6457, 8390, 8391, 8392, 8393, 8395, 8394
4523, 3244, 6273, 6245, 6460, 7811, 7056, 7810, 7888, 8108, 7480
4524, 5694, 6260, 5710, 6305, 8396, 7691, 5807, 7789, 7692, 7693
4525, 3316, 6261, 3389, 6416, 8397, 8132, 4351, 8384, 8135, 8136
4526, 1177, 6360, 6269, 6415, 7884, 8198, 8243, 7886, 7887, 7879
4527, 1324, 1202, 6323, 6371, 1981, 6801, 7180, 8398, 6966, 6967
4528, 1140, 1127, 6308, 6349, 2592, 8399, 7083, 7085, 8400, 7087
4529, 3102, 3115, 6308, 6349, 4568, 8401, 8402, 8403, 8404, 7087
4530, 1225, 6316, 6328, 6433, 8008, 7430, 8405, 8009, 8010, 8406
4531, 2999, 6279, 6284, 6420, 8053, 6666, 8069, 8407, 8375, 6639
4532, 1007, 1243, 6295, 6380, 2078, 8167, 6524, 8408, 8170, 8171
4533, 1150, 1108, 119, 6419, 2585, 7950, 7949, 7790, 7791, 8409
4534, 3230, 3253, 3131, 6473, 4763, 4762, 4505, 7446, 6947, 8410
4535, 1320, 6356, 1371, 6437, 8314, 7846, 2648, 8411, 7555, 7847
4536, 1205, 5592, 6272, 6448, 8412, 8413, 8414, 8415, 8417, 8416
4537, 3298, 6282, 6303, 6423, 8234, 6786, 8418, 8236, 8237, 8419
4538, 3173, 6318, 5279, 6453, 7409, 7408, 7410, 8420, 7857, 8421
4539, 2969, 3327, 3046, 6271, 3988, 4000, 3999, 6623, 8222, 6624
4540, 5989, 6258, 6254, 6465, 8380, 8379, 7482, 7837, 6817, 7839
4541, 1132, 6265, 6266, 6488, 8422, 6548, 7670, 7805, 8423, 7807
4542, 3298, 6303, 6291, 6423, 8418, 8424, 8256, 8236, 8419, 8258
4543, 1002, 1203, 1028, 6379, 2050, 2065, 2064, 7063, 8216, 7029
4544, 3040, 6130, 6119, 6106, 7359, 6212, 8362, 7358, 6211, 6175
4545, 5035, 5057, 5049, 6250, 5221, 5222, 5138, 6501, 6703, 7860
4546, 836, 3081, 3127, 6422, 7946, 4557, 7947, 8425, 7715, 7716
4547, 2994, 6295, 6293, 6483, 7285, 8166, 8346, 8426, 6654, 8427
4548, 2988, 6287, 3212, 6383, 7674, 8072, 4093, 8428, 8165, 8163
4549, 3246, 6331, 6301, 6385, 8429, 8430, 8431, 8432, 8433, 8205
4550, 2956, 3030, 3031, 6262, 3881, 3928, 3927, 7384, 7050, 6968
4551, 1055, 981, 1056, 6262, 1907, 1953, 1952, 6558, 7004, 6895
4552, 3093, 6293, 3252, 6310, 8434, 7104, 4602, 8435, 7105, 6614
4553, 1243, 6295, 6293, 6384, 8167, 8166, 8168, 8436, 6840, 7106
4554, 5713, 5701, 5690, 3348, 5799, 5778, 5800, 7849, 8208, 7848
4555, 3223, 6285, 6380, 6484, 7161, 6717, 7162, 8311, 7497, 8313
4556, 1052, 6279, 6291, 6423, 8086, 6687, 8087, 8437, 8438, 8258
4557, 1301, 6317, 6252, 6414, 8260, 8439, 8440, 8276, 8277, 8441
4558, 2952, 6334, 5275, 6458, 8140, 8139, 8141, 8442, 7704, 8322
4559, 1237, 1235, 6284, 6383, 2210, 8038, 8443, 8444, 7305, 8164
4560, 3223, 3218, 6293, 6380, 4055, 8445, 8310, 7162, 8446, 8169
4561, 726, 5252, 725, 6260, 5427, 5426, 728, 7568, 8447, 6685
4562, 6281, 6378, 2974, 6449, 8044, 6957, 8042, 7339, 7778, 8448
4563, 3115, 6349, 3254, 6418, 8404, 8449, 4706, 8450, 7143, 8451
4564, 1262, 1280, 6342, 6425, 2618, 6958, 8452, 8453, 6961, 6962
4565, 3123, 3331, 3244, 6460, 4299, 4696, 4734, 7478, 7852, 7888
4566, 1316, 6249, 1366, 6360, 7957, 8281, 2390, 7883, 7958, 8282
4567, 6301, 6331, 1271, 6432, 8430, 8454, 8455, 8456, 8458, 8457
4568, 1393, 6318, 1300, 6453, 8459, 7920, 1966, 8460, 7857, 8207
4569, 3213, 6333, 5267, 6363, 7737, 8137, 8461, 7738, 7074, 8138
4570, 1007, 6290, 6380, 6483, 6522, 6726, 8408, 6652, 6653, 8462
4571, 1167, 6266, 1168, 6318, 7609, 7123, 2702, 7608, 7607, 6877
4572, 3197, 6332, 6311, 6399, 8463, 8464, 8465, 8466, 8467, 6733
4573, 1271, 1257, 6301, 6385, 2316, 8040, 8455, 8468, 7082, 8205
4574, 1135, 6351, 6269, 6416, 7489, 7490, 7488, 8469, 7815, 7814
4575, 3018, 3267, 3401, 6304, 4240, 4242, 4241, 7037, 7038, 8470
4576, 3029, 3027, 6369, 6423, 4151, 8090, 8471, 8235, 8257, 8472
4577, 1014, 6287, 1017, 6338, 7938, 7978, 2121, 7940, 7939, 7977
4578, 5252, 6260, 726, 6353, 8447, 7568, 5427, 8041, 7753, 7685
4579, 2987, 6287, 2988, 6387, 8340, 7674, 4082, 8342, 6844, 7675
4580, 6246, 6456, 6254, 6465, 7300, 8473, 7793, 6521, 7493, 7839
4581, 1094, 6247, 1057, 6356, 8278, 6660, 2231, 8279, 6978, 6910
4582, 2988, 6383, 6294, 6487, 8428, 6889, 7728, 7676, 8474, 7729
4583, 6326, 6350, 3297, 6368, 8475, 8476, 8477, 8478, 7732, 8479
4584, 3149, 6312, 6122, 6377, 8146, 8147, 7923, 7925, 8480, 7926
4585, 5965, 6250, 5985, 6452, 6746, 6747, 6060, 8481, 8050, 8482
4586, 5986, 6250, 5965, 6451, 6769, 6746, 6062, 8483, 7527, 8484
4587, 711, 6270, 3309, 6396, 8485, 8486, 8487, 8488, 8490, 8489
4588, 6337, 6350, 1074, 6486, 8391, 8491, 8492, 8493, 8495, 8494
4589, 725, 6260, 5252, 6353, 6685, 8447, 5426, 8063, 7753, 8041
4590, 5295, 3051, 3153, 6353, 7682, 3705, 8316, 7683, 7684, 6577
4591, 1277, 6293, 6310, 6384, 8496, 7105, 8497, 8498, 7106, 6570
4592, 1231, 1022, 6314, 6332, 2161, 8333, 8499, 7698, 8500, 7350
4593, 2983, 6298, 6295, 6392, 8365, 6904, 8364, 8501, 7119, 6526
4594, 1204, 6313, 6249, 6415, 7876, 6926, 8006, 7877, 7878, 7959
4595, 1078, 6250, 5072, 6452, 8502, 8049, 7535, 7538, 8050, 7540
4596, 1159, 6246, 1119, 6356, 8076, 7298, 2517, 8319, 6977, 7657
4597, 3135, 3261, 6443, 6461, 4609, 8503, 8159, 8160, 8504, 7176
4598, 1058, 6289, 6249, 6386, 8505, 7258, 7116, 7117, 8506, 6929
4599, 6247, 6254, 6246, 6456, 7794, 7793, 6974, 7301, 8473, 7300
4600, 3186, 3354, 6334, 6490, 4539, 8507, 7702, 8161, 8096, 7725
4601, 6275, 6322, 3259, 6488, 7619, 8249, 8508, 7806, 8250, 8251
4602, 6264, 6326, 3161, 6374, 7130, 7128, 7126, 8509, 8511, 8510
4603, 5989, 6258, 5974, 6443, 8380, 6858, 6090, 7483, 8381, 8389
4604, 1422, 1150, 6306, 6419, 2763, 7600, 8512, 8324, 7790, 8513
4605, 5853, 5828, 3010, 6370, 5933, 8514, 8515, 8516, 8517, 6810
4606, 6266, 6322, 6275, 6488, 7610, 7619, 7616, 7807, 8250, 7806
4607, 1225, 1226, 1223, 6433, 2903, 2902, 2900, 8009, 8518, 8211
4608, 5709, 6247, 1361, 6408, 6661, 8519, 8520, 8521, 8523, 8522
4609, 1245, 1224, 6311, 6327, 2895, 7269, 6732, 6720, 7270, 6731
4610, 3220, 6311, 3199, 6327, 8082, 8524, 4870, 8081, 6731, 8525
4611, 1423, 6340, 6255, 6372, 8526, 6600, 8527, 8528, 7311, 7873
4612, 5990, 5976, 6272, 6402, 6093, 6868, 8529, 7173, 6870, 6645
4613, 884, 874, 873, 6128, 966, 965, 927, 6842, 6693, 6738
4614, 1207, 6280, 1389, 6439, 8530, 8531, 2170, 8156, 8533, 8532
4615, 6114, 2956, 6121, 6262, 7383, 8534, 6182, 7178, 7384, 8535
4616, 1094, 1057, 1036, 6356, 2231, 1819, 2232, 8279, 6910, 6909
4617, 1068, 1366, 6249, 6319, 2387, 8281, 7109, 7107, 8280, 7108
4618, 3043, 6249, 3341, 6319, 7782, 8536, 4363, 7783, 7108, 8537
4619, 1132, 6275, 6376, 6488, 7671, 7751, 8538, 7805, 7806, 8539
4620, 3135, 3094, 3261, 6461, 4608, 4605, 4609, 8160, 7005, 8504
4621, 1399, 1129, 6272, 6402, 2685, 8540, 6543, 7678, 8541, 6645
4622, 3256, 6259, 3035, 6362, 7215, 6556, 4324, 7216, 6620, 6619
4623, 6331, 6425, 6358, 6438, 7374, 7375, 7371, 8219, 8542, 8289
4624, 1256, 6299, 6274, 6341, 8543, 6998, 8544, 8545, 6581, 7985
4625, 3231, 6274, 6299, 6341, 8546, 6998, 8547, 8548, 7985, 6581
4626, 1061, 6362, 6288, 6426, 7621, 8549, 7658, 7469, 7622, 7462
4627, 1295, 1348, 1086, 6406, 2252, 1508, 2481, 7681, 8550, 7680
4628, 3345, 5977, 5987, 6448, 8551, 6102, 8552, 8553, 8555, 8554
4629, 1029, 6277, 6362, 6426, 7741, 6657, 7620, 7470, 7742, 7622
4630, 3005, 6320, 3308, 6328, 8353, 7145, 4179, 8352, 7136, 7144
4631, 1030, 1333, 6320, 6328, 2203, 8120, 7137, 7135, 8119, 7136
4632, 6259, 6428, 3342, 6437, 8556, 8303, 8557, 8558, 8305, 8306
4633, 979, 1394, 5058, 6442, 1665, 7709, 8559, 7910, 7356, 7710
4634, 3358, 6261, 3154, 6352, 6906, 6907, 4549, 8560, 6613, 7804
4635, 1371, 1141, 6253, 6437, 2733, 7552, 8561, 7847, 7553, 7554
4636, 1352, 6271, 994, 6375, 8562, 8563, 2014, 8564, 6627, 8565
4637, 3396, 6304, 3127, 6422, 8566, 7660, 4744, 8246, 8567, 7716
4638, 1262, 1261, 1116, 6425, 2554, 2614, 2617, 8453, 7373, 8074
4639, 6311, 1223, 6332, 6433, 8210, 8568, 8464, 8011, 8211, 8569
4640, 3068, 3117, 6313, 6386, 4480, 7323, 8570, 8571, 7324, 6931
4641, 3353, 3273, 3243, 6410, 4918, 4919, 4913, 6545, 6546, 8572
4642, 1218, 1220, 6344, 6354, 2880, 8019, 8029, 8028, 8573, 7093
4643, 6311, 3199, 6327, 6405, 8524, 8525, 6731, 7273, 8574, 7272
4644, 1415, 6257, 6424, 6482, 8575, 8576, 8577, 8578, 8580, 8579
4645, 6124, 6104, 6261, 6352, 6203, 7935, 8581, 8582, 7937, 6613
4646, 6267, 6334, 3354, 6490, 8382, 8507, 8583, 8584, 7725, 8096
4647, 1175, 6252, 1301, 6317, 8585, 8440, 2680, 8586, 8439, 8260
4648, 5269, 6318, 1198, 6453, 7720, 7719, 7718, 8587, 7857, 8588
4649, 3255, 6302, 6301, 6425, 8339, 6891, 8338, 8589, 6960, 7061
4650, 3398, 3073, 3168, 6255, 4280, 4513, 4514, 7872, 7016, 8590
4651, 1193, 1098, 1423, 6255, 2536, 2304, 2539, 8591, 6598, 8527
4652, 3231, 3041, 6274, 6341, 4020, 7916, 8546, 8548, 7984, 7985
4653, 1256, 6274, 1066, 6341, 8544, 7913, 2045, 8545, 7985, 7986
4654, 6293, 6310, 3093, 6388, 7105, 8435, 8434, 8592, 8594, 8593
4655, 6263, 6319, 3130, 6360, 8001, 8595, 8596, 8004, 8005, 8597
4656, 1071, 6375, 6299, 6435, 8122, 6777, 8598, 8124, 8125, 7067
4657, 1230, 6403, 6314, 6434, 6819, 8599, 8315, 6820, 6711, 8267
4658, 3298, 3044, 6291, 6303, 4286, 8600, 8256, 8418, 8601, 8424
4659, 3025, 6344, 3287, 6445, 7254, 8077, 4274, 7257, 7096, 8078
4660, 1131, 1132, 6265, 6266, 2689, 8422, 6549, 6508, 7670, 6548
4661, 5832, 3101, 6321, 6346, 8602, 7449, 8126, 8129, 7448, 7447
4662, 736, 3300, 726, 6260, 7801, 7566, 5479, 7821, 7570, 7568
4663, 1022, 6298, 6314, 6400, 8331, 7316, 8333, 8603, 7319, 7320
4664, 6267, 3354, 6486, 6490, 8583, 8094, 8604, 8584, 8096, 8097
4665, 6271, 6299, 6375, 6435, 6775, 6777, 6627, 6515, 7067, 8125
4666, 1360, 5989, 5975, 6465, 8605, 6087, 8606, 8607, 7837, 7838
4667, 3252, 6293, 2994, 6384, 7104, 8346, 4123, 6615, 7106, 7286
4668, 5293, 5253, 715, 6468, 5424, 5423, 5301, 8608, 8084, 7602
4669, 997, 6292, 6276, 6472, 8609, 8610, 7827, 8080, 8611, 7220
4670, 1022, 6314, 6332, 6400, 8333, 7350, 8500, 8603, 7320, 7351
4671, 6298, 6314, 2997, 6387, 7316, 7315, 7317, 6905, 7019, 8612
4672, 1151, 1086, 1107, 6390, 2479, 1512, 2480, 8613, 8615, 8614
4673, 5992, 831, 5982, 6390, 8616, 8298, 6073, 8617, 8299, 8300
4674, 5587, 6272, 5594, 6286, 8618, 7076, 5675, 8619, 6541, 7079
4675, 1352, 1071, 6271, 6375, 2025, 8123, 8562, 8564, 8122, 6627
4676, 5696, 6260, 1263, 6353, 8620, 7277, 8621, 8622, 7753, 8623
4677, 3317, 3104, 3066, 6461, 4475, 3844, 4476, 7434, 6759, 7303
4678, 3021, 3289, 3271, 6447, 4253, 4252, 4254, 8624, 8626, 8625
4679, 1223, 6400, 6332, 6433, 8627, 7351, 8568, 8211, 8628, 8569
4680, 1045, 1359, 1327, 6430, 1473, 2277, 2274, 8629, 8631, 8630
4681, 3238, 3051, 3300, 6260, 4406, 4408, 4407, 8181, 7569, 7570
4682, 1274, 1276, 1100, 6342, 2550, 2467, 2548, 7261, 6864, 7399
4683, 3251, 3249, 3075, 6342, 4525, 4524, 4441, 6867, 7263, 8057
4684, 1051, 1423, 6255, 6372, 2305, 8527, 6873, 8632, 8528, 7873
4685, 1352, 994, 1071, 6375, 2014, 2023, 2025, 8564, 8565, 8122
4686, 3171, 6108, 6128, 6317, 8633, 6224, 6737, 6963, 7583, 6914
4687, 5582, 831, 5992, 6390, 5658, 8616, 8634, 8635, 8299, 8617
4688, 1320, 6296, 6356, 6437, 8636, 7771, 8314, 8411, 8637, 7555
4689, 1096, 6360, 6263, 6474, 8111, 8004, 8638, 8112, 8113, 8639
4690, 1373, 5700, 5695, 5713, 8213, 5751, 7829, 7830, 5823, 5822
4691, 1360, 5970, 5989, 6465, 8640, 6088, 8605, 8607, 8641, 7837
4692, 6310, 6342, 3075, 6389, 6865, 8057, 8056, 7402, 7240, 8245
4693, 1227, 1339, 6316, 6330, 2876, 8386, 7891, 8642, 8385, 7243
4694, 3077, 3398, 6372, 6459, 4281, 7874, 7863, 8643, 8334, 8335
4695, 3309, 711, 3053, 6270, 8487, 8644, 3458, 8486, 8485, 7011
4696, 1154, 1366, 1155, 6360, 2776, 2775, 2527, 8645, 8282, 8003
4697, 3130, 6319, 6263, 6469, 8595, 8001, 8596, 8646, 8648, 8647
4698, 1225, 6328, 1226, 6433, 8405, 8649, 2903, 8009, 8406, 8518
4699, 5853, 6370, 3010, 6459, 8516, 6810, 8515, 8650, 7027, 8309
4700, 3327, 6299, 6271, 6435, 8223, 6775, 8222, 8651, 7067, 6515
4701, 3011, 3348, 5701, 6427, 3792, 8208, 8652, 8653, 8655, 8654
4702, 1212, 1213, 6299, 6339, 2824, 7264, 6585, 6584, 7508, 6578
4703, 3150, 6252, 3112, 6377, 8656, 8657, 4654, 8658, 8660, 8659
4704, 1207, 6366, 6347, 6439, 8155, 8661, 8662, 8156, 8157, 8663
4705, 1389, 1158, 6439, 6469, 2790, 8206, 8532, 8664, 8666, 8665
4706, 6314, 1231, 6332, 6403, 8499, 7698, 7350, 8599, 7699, 7380
4707, 1357, 1032, 6258, 6465, 2020, 7428, 8667, 8668, 6520, 6817
4708, 1015, 1237, 6284, 6487, 2118, 8443, 6637, 8344, 8669, 8345
4709, 3318, 3293, 3321, 6396, 4923, 4216, 3465, 7022, 8671, 8670
4710, 3187, 6299, 3188, 6339, 6580, 7518, 4799, 6579, 6578, 7519
4711, 1360, 5975, 6254, 6465, 8606, 7836, 8672, 8607, 7838, 7839
4712, 996, 997, 6274, 6375, 2026, 7826, 8673, 8674, 8350, 6938
4713, 3256, 3035, 3037, 6362, 4324, 4322, 4325, 7216, 6619, 7640
4714, 3130, 6263, 3132, 6469, 8596, 8675, 4754, 8646, 8647, 8676
4715, 3308, 3286, 3203, 6381, 4180, 4579, 4887, 7146, 7404, 7581
4716, 5844, 6273, 5826, 6348, 7203, 8677, 5921, 7819, 7820, 8678
4717, 3138, 3342, 6259, 6428, 4779, 8557, 8679, 7912, 8303, 8556
4718, 3332, 6443, 6258, 6444, 8680, 8381, 8681, 8682, 8683, 7331
4719, 3295, 3134, 6296, 6356, 4496, 7770, 8684, 8685, 7169, 7771
4720, 3105, 6265, 6376, 6488, 6981, 6982, 6813, 8686, 8423, 8539
4721, 3142, 6266, 3259, 6322, 7613, 8248, 4674, 7614, 7610, 8249
4722, 1167, 1284, 6266, 6322, 2700, 7617, 7609, 7611, 7618, 7610
4723, 5845, 6273, 3340, 6348, 8687, 8688, 8689, 8690, 7820, 8691
4724, 6336, 6343, 1117, 6428, 7933, 8692, 8693, 7592, 8037, 8694
4725, 1277, 6310, 6293, 6388, 8497, 7105, 8496, 8695, 8594, 8592
4726, 1224, 1225, 6311, 6316, 2901, 8007, 7269, 7391, 8008, 7392
4727, 5968, 3140, 3382, 6271, 7048, 3860, 8696, 6512, 7504, 8697
4728, 6252, 6348, 3112, 6377, 8698, 8699, 8657, 8660, 8700, 8659
4729, 6274, 6299, 1071, 6375, 6998, 8598, 8701, 6938, 6777, 8122
4730, 1318, 1343, 1346, 6365, 2948, 1490, 2242, 8702, 7348, 8703
4731, 3237, 3236, 6358, 6425, 4529, 8704, 7929, 7932, 8705, 7375
4732, 1271, 1053, 1257, 6385, 2315, 2175, 2316, 8468, 7114, 7082
4733, 1010, 1012, 6314, 6387, 2101, 7018, 8332, 7407, 6845, 7019
4734, 5842, 3340, 5845, 6273, 8706, 8689, 5894, 8707, 8688, 8687
4735, 6249, 6313, 3363, 6415, 6926, 8325, 8326, 7959, 7878, 8708
4736, 1099, 1100, 1083, 6389, 2465, 2464, 2459, 7239, 7401, 7115
4737, 2962, 6374, 6326, 6454, 8709, 8511, 8710, 8711, 8713, 8712
4738, 6327, 6391, 3220, 6399, 6719, 8714, 8081, 6722, 6723, 8083
4739, 2974, 6281, 2977, 6379, 8042, 8715, 4023, 8259, 6702, 8716
4740, 3087, 3089, 3119, 6341, 4354, 4577, 4576, 6919, 7477, 6596
4741, 1114, 1112, 1144, 6341, 2380, 2602, 2601, 7468, 6917, 6591
4742, 5696, 5694, 1263, 6260, 5742, 8717, 8621, 8620, 8396, 7277
4743, 1084, 1145, 5839, 6275, 1837, 7416, 8718, 8719, 7638, 7546
4744, 3120, 3059, 5838, 6275, 3811, 7853, 7441, 7637, 7854, 7152
4745, 997, 6375, 6292, 6472, 8350, 8720, 8609, 8080, 8351, 8611
4746, 1363, 1074, 6337, 6350, 2417, 8492, 8392, 8390, 8491, 8391
4747, 5696, 1171, 6315, 6353, 8721, 8722, 8723, 8622, 8724, 6576
4748, 3225, 6292, 6276, 6359, 8725, 8610, 8726, 8727, 7624, 8728
4749, 5713, 6253, 5700, 6427, 6827, 8214, 5823, 8729, 8730, 6940
4750, 3269, 3396, 5691, 6304, 3772, 8731, 8732, 8733, 8566, 8734
4751, 1394, 6309, 1190, 6382, 7355, 8735, 2856, 8247, 8229, 8736
4752, 3233, 6357, 3025, 6445, 8737, 7631, 4212, 8738, 7633, 7257
4753, 3246, 3045, 6331, 6385, 4290, 8739, 8429, 8432, 8740, 8433
4754, 1020, 6420, 6279, 6475, 7009, 8375, 8021, 8741, 8742, 7274
4755, 3341, 6319, 6249, 6360, 8537, 7108, 8536, 8743, 8005, 7958
4756, 3036, 6288, 3037, 6362, 8744, 8745, 4323, 8746, 8549, 7640
4757, 1115, 6308, 1110, 6331, 7650, 8747, 2397, 8218, 8217, 8748
4758, 3255, 3249, 6302, 6425, 4896, 7262, 8339, 8589, 8749, 6960
4759, 6255, 6265, 1097, 6370, 6529, 6535, 6534, 6875, 6980, 8750
4760, 1202, 5047, 5037, 6397, 6803, 5096, 8751, 6804, 6805, 8752
4761, 6314, 6332, 2997, 6403, 7350, 7349, 7315, 8599, 7380, 8753
4762, 1123, 1180, 6270, 6452, 1607, 8754, 8101, 8103, 8755, 7539
4763, 1207, 1389, 1158, 6439, 2170, 2790, 2793, 8156, 8532, 8206
4764, 5971, 5976, 5990, 3104, 6045, 6093, 6092, 7170, 6869, 7171
4765, 1307, 1399, 1129, 6272, 2686, 2685, 2683, 7743, 6543, 8540
4766, 3374, 3283, 3104, 6272, 4660, 4659, 4661, 6536, 7747, 6641
4767, 1090, 850, 1128, 6348, 8756, 8757, 1600, 7818, 8759, 8758
4768, 3168, 6255, 3073, 6340, 8590, 7016, 4513, 8760, 6600, 8175
4769, 1193, 1098, 6255, 6340, 2536, 6598, 8591, 7944, 6599, 6600
4770, 5283, 983, 1279, 6349, 8761, 1769, 8762, 8763, 8764, 7867
4771, 6245, 6273, 1376, 6460, 7056, 8370, 8371, 7480, 8108, 8765
4772, 1095, 1177, 6360, 6489, 2525, 7884, 8110, 8766, 8244, 8200
4773, 5692, 5696, 1171, 6315, 5745, 8721, 8767, 7100, 8723, 8722
4774, 6301, 6385, 6331, 6432, 8205, 8433, 8430, 8456, 8768, 8458
4775, 3383, 6361, 3235, 6413, 7645, 8769, 4749, 7646, 7647, 8770
4776, 5970, 6258, 5989, 6465, 6852, 8380, 6088, 8641, 6817, 7837
4777, 1196, 6128, 6111, 6317, 6692, 6225, 8771, 6913, 6914, 8772
4778, 999, 6276, 1002, 6378, 8773, 8117, 2049, 8774, 6607, 8308
4779, 3120, 3372, 3357, 6256, 3813, 4726, 4725, 7443, 8775, 7641
4780, 2994, 6293, 3218, 6483, 8346, 8445, 4065, 8426, 8427, 8776
4781, 1344, 1345, 1319, 6364, 1570, 2285, 2949, 7343, 8778, 8777
4782, 6263, 6372, 1156, 6474, 7310, 8779, 8780, 8639, 8782, 8781
4783, 3166, 6309, 3118, 6357, 8179, 8783, 4717, 8784, 8786, 8785
4784, 6301, 1271, 6385, 6432, 8455, 8468, 8205, 8456, 8457, 8768
4785, 1123, 6270, 1180, 6365, 8101, 8754, 1607, 8787, 8789, 8788
4786, 5252, 5295, 5272, 6353, 5429, 5369, 5432, 8041, 7683, 6575
4787, 2983, 6295, 2982, 6392, 8364, 8790, 4056, 8501, 6526, 8791
4788, 6273, 6348, 1090, 6460, 7820, 7818, 7202, 8108, 8361, 8107
4789, 6287, 6314, 2987, 6434, 7017, 8341, 8340, 7942, 8267, 8792
4790, 3134, 6296, 6246, 6444, 7770, 7769, 7168, 8793, 7896, 6679
4791, 6256, 6321, 5253, 6468, 7253, 7382, 7381, 7905, 7474, 8084
4792, 3405, 3161, 6326, 6374, 4781, 7128, 8794, 8795, 8510, 8511
4793, 3348, 6253, 5701, 6427, 7850, 8209, 8208, 8655, 8730, 8654
4794, 6293, 6388, 3093, 6484, 8592, 8593, 8434, 8312, 7714, 8796
4795, 1262, 1280, 1274, 6342, 2618, 2921, 2549, 8452, 6958, 7261
4796, 3259, 6266, 3142, 6488, 8248, 7613, 4674, 8251, 7807, 8797
4797, 2962, 6326, 3297, 6454, 8710, 8477, 3962, 8711, 8712, 8798
4798, 6342, 6358, 3076, 6361, 7930, 8799, 8800, 7237, 8802, 8801
4799, 1101, 6358, 6342, 6361, 8803, 7930, 8804, 8805, 8802, 7237
4800, 993, 6258, 1032, 6292, 7666, 7428, 2019, 8806, 6814, 6843
4801, 6119, 3040, 3389, 6416, 8362, 3873, 8131, 8134, 7361, 8136
4802, 3138, 3184, 3342, 6428, 4599, 4780, 4779, 7912, 7590, 8303
4803, 1007, 6380, 6295, 6483, 8408, 8171, 6524, 6652, 8462, 6654
4804, 3344, 6376, 3296, 6488, 7330, 8807, 4448, 8808, 8539, 8809
4805, 3354, 6267, 3128, 6334, 8583, 8383, 4438, 8507, 8382, 8348
4806, 6297, 6309, 1143, 6357, 8810, 8811, 8812, 8813, 8786, 8814
4807, 3118, 6309, 6297, 6357, 8783, 8810, 8815, 8785, 8786, 8813
4808, 5072, 6250, 5032, 6270, 8049, 8184, 5201, 7536, 7525, 8185
4809, 1112, 6278, 1111, 6300, 7956, 7662, 2378, 6916, 6765, 8232
4810, 3087, 3086, 6278, 6300, 4352, 6648, 7954, 6918, 6766, 6765
4811, 1277, 6310, 1276, 6384, 8497, 6863, 2629, 8498, 6570, 7549
4812, 2992, 6338, 6287, 6434, 7981, 7939, 7982, 8816, 7041, 7942
4813, 1271, 6301, 1116, 6331, 8455, 8817, 2401, 8454, 8430, 8073
4814, 2962, 5285, 6374, 6454, 8818, 8819, 8709, 8711, 8820, 8713
4815, 5973, 5970, 992, 5988, 6026, 6850, 8262, 6086, 6085, 6851
4816, 1007, 6290, 1005, 6380, 6522, 8821, 2077, 8408, 6726, 8822
4817, 1383, 6261, 1172, 6352, 6986, 8823, 2829, 7855, 6613, 8824
4818, 994, 6271, 993, 6375, 8563, 7665, 2012, 8565, 6627, 7922
4819, 2976, 6281, 2974, 6449, 8825, 8042, 4021, 8826, 7339, 8448
4820, 3345, 5987, 6272, 6448, 8552, 8827, 8828, 8553, 8554, 8416
4821, 5713, 5690, 5715, 6336, 5800, 5801, 5803, 6829, 6830, 7548
4822, 6258, 6443, 6254, 6465, 8381, 7484, 8379, 6817, 8829, 7839
4823, 6316, 6330, 3314, 6405, 7243, 7242, 7244, 7393, 8831, 8830
4824, 1099, 1101, 6342, 6361, 2542, 8804, 7238, 7236, 8805, 7237
4825, 3074, 6342, 3076, 6361, 7767, 8800, 4516, 7766, 7237, 8801
4826, 5043, 6327, 2953, 6398, 8832, 8833, 8834, 8835, 8837, 8836
4827, 1250, 6276, 997, 6292, 8838, 7827, 2028, 8368, 8610, 8609
4828, 3244, 3331, 6348, 6460, 4696, 8360, 8839, 7888, 7852, 8361
4829, 5031, 5051, 5070, 6352, 5204, 5087, 5197, 8840, 6611, 7463
4830, 3043, 6319, 3282, 6366, 7783, 8841, 4200, 7784, 7112, 8842
4831, 1324, 1202, 986, 6397, 1981, 1656, 1982, 7181, 6804, 8843
4832, 650, 6404, 6306, 6410, 8844, 8845, 8846, 8847, 8849, 8848
4833, 1001, 1252, 6378, 6449, 2052, 7777, 8850, 7572, 7730, 7778
4834, 3146, 5697, 6315, 6353, 8851, 8852, 8853, 8854, 8855, 6576
4835, 1050, 6325, 1037, 6357, 8025, 8190, 2219, 8856, 7632, 8192
4836, 3012, 6325, 3025, 6357, 8186, 7255, 4193, 8189, 7632, 7631
4837, 1068, 1034, 1306, 6366, 2224, 2188, 2225, 7110, 6881, 7843
4838, 6358, 6361, 1239, 6363, 8802, 8857, 7395, 7398, 8858, 7397
4839, 3116, 6356, 6253, 6427, 8859, 7551, 8860, 8861, 6911, 8730
4840, 2988, 6287, 6383, 6487, 7674, 8165, 8428, 7676, 6847, 8474
4841, 1254, 6288, 1244, 6388, 7457, 8862, 2356, 7713, 7712, 8863
4842, 3197, 6344, 6332, 6399, 8864, 7378, 8463, 8466, 8020, 8467
4843, 1132, 6376, 6265, 6488, 8538, 6982, 8422, 7805, 8539, 8423
4844, 1075, 6337, 1281, 6343, 8865, 7498, 2361, 8866, 7502, 7500
4845, 3050, 3256, 6337, 6343, 4336, 7213, 8867, 8868, 7503, 7502
4846, 5970, 5975, 1360, 5989, 6023, 8606, 8640, 6088, 6087, 8605
4847, 1248, 6285, 1270, 6380, 8869, 8870, 2927, 8871, 6717, 8872
4848, 5989, 5974, 5971, 3335, 6090, 6048, 6091, 8291, 8388, 8194
4849, 1073, 6272, 5587, 6286, 7744, 8618, 8873, 7746, 6541, 8619
4850, 1000, 1252, 6278, 6378, 2051, 7776, 8874, 8875, 7777, 6618
4851, 3284, 6298, 6328, 6400, 7654, 8876, 8877, 7655, 7319, 8878
4852, 1259, 6298, 6328, 6392, 8879, 8876, 7521, 7522, 7119, 7140
4853, 6311, 6316, 3199, 6405, 7392, 8880, 8524, 7273, 7393, 8574
4854, 3223, 3218, 6380, 6483, 4055, 8446, 7162, 8881, 8776, 8462
4855, 1227, 6330, 6316, 6405, 8642, 7243, 7891, 7892, 8831, 7393
4856, 5828, 5842, 5853, 3010, 5897, 5934, 5933, 8514, 8882, 8515
4857, 6253, 6356, 3116, 6437, 7551, 8859, 8860, 7554, 7555, 8883
4858, 6301, 6331, 3246, 6425, 8430, 8429, 8431, 7061, 7374, 8884
4859, 3284, 6328, 6298, 6392, 8877, 8876, 7654, 8885, 7140, 7119
4860, 6276, 6292, 1250, 6359, 8610, 8368, 8838, 8728, 7624, 8369
4861, 1243, 1019, 6295, 6384, 2090, 8886, 8167, 8436, 8887, 6840
4862, 850, 6252, 1128, 6348, 8888, 8889, 8757, 8759, 8698, 8758
4863, 2969, 6375, 2971, 6470, 6625, 6937, 3997, 7918, 7919, 8890
4864, 6251, 6307, 6306, 6410, 8891, 8892, 8893, 8894, 8895, 8848
4865, 1373, 1036, 5700, 6253, 1817, 6979, 8213, 7831, 8343, 8214
4866, 1259, 1008, 6298, 6392, 2084, 7118, 8879, 7522, 6588, 7119
4867, 3006, 6294, 2988, 6383, 8896, 7728, 4084, 8897, 6889, 8428
4868, 3294, 3320, 3319, 6401, 4244, 3545, 4924, 8898, 8899, 7122
4869, 1255, 1156, 6372, 6474, 2530, 8779, 8900, 8901, 8781, 8782
4870, 3034, 3060, 3097, 6395, 4317, 4320, 4319, 6563, 6564, 7427
4871, 3180, 3345, 6272, 6448, 4837, 8828, 8902, 8903, 8553, 8416
4872, 885, 1196, 1429, 6317, 7706, 1638, 8904, 7707, 6913, 8178
4873, 5699, 1421, 5694, 6305, 8905, 7786, 5739, 8906, 7788, 7789
4874, 2982, 6392, 6295, 6483, 8791, 6526, 8790, 8907, 6694, 6654
4875, 3002, 6338, 3008, 6366, 8908, 7282, 4156, 8909, 7044, 7284
4876, 5988, 5968, 5974, 2967, 6075, 6051, 6076, 6856, 8290, 6855
4877, 2986, 2988, 6294, 6387, 4081, 7728, 8910, 8911, 7675, 6825
4878, 1054, 1161, 1025, 6369, 2179, 2178, 2176, 7740, 7367, 8912
4879, 1218, 6309, 1428, 6442, 8913, 7354, 1945, 8914, 7341, 7357
4880, 3398, 6255, 3168, 6340, 7872, 8590, 4514, 7871, 6600, 8760
4881, 1193, 6255, 1423, 6340, 8591, 8527, 2539, 7944, 6600, 8526
4882, 5062, 6354, 1217, 6442, 8915, 8916, 8917, 8918, 7233, 8919
4883, 3225, 6276, 6292, 6472, 8726, 8610, 8725, 8920, 7220, 8611
4884, 3183, 2962, 3297, 6454, 3717, 3962, 3961, 8921, 8711, 8798
4885, 5069, 3053, 711, 6270, 7010, 8644, 5084, 7012, 7011, 8485
4886, 6290, 6320, 3005, 6392, 7159, 8353, 8922, 6527, 7139, 8354
4887, 1092, 1142, 6297, 6386, 2505, 8923, 8924, 8925, 7817, 7530
4888, 1045, 1327, 6404, 6430, 2274, 8926, 7377, 8629, 8630, 8927
4889, 3350, 3087, 3119, 6300, 4575, 4576, 4578, 6491, 6918, 6594
4890, 1112, 1375, 1144, 6300, 2599, 2603, 2602, 6916, 6783, 6589
4891, 1418, 6339, 6283, 6464, 8928, 6899, 8929, 8930, 8931, 7990
4892, 1143, 6357, 6309, 6445, 8814, 8786, 8811, 8932, 7633, 7342
4893, 5070, 5031, 6352, 6430, 5197, 8840, 7463, 7465, 8933, 7467
4894, 3295, 3116, 6356, 6437, 4494, 8859, 8685, 8934, 8883, 7555
4895, 5974, 6258, 2957, 6443, 6858, 7835, 7834, 8389, 8381, 8935
4896, 6300, 1339, 6330, 6381, 8936, 8385, 6498, 6767, 8387, 7247
4897, 1052, 1025, 6279, 6423, 2171, 8937, 8086, 8437, 8938, 8438
4898, 5853, 3010, 5842, 6459, 8515, 8882, 5934, 8650, 8309, 8939
4899, 6316, 1333, 6328, 6381, 8940, 8119, 7430, 7246, 8121, 7147
4900, 3214, 6361, 6358, 6363, 8941, 8802, 7541, 7543, 8858, 7398
4901, 3198, 6311, 6332, 6433, 8942, 8464, 8943, 8944, 8011, 8569
4902, 1237, 1235, 6383, 6487, 2210, 7305, 8444, 8669, 8945, 8474
4903, 3130, 3132, 6319, 6469, 4754, 8946, 8595, 8646, 8676, 8648
4904, 5983, 855, 6248, 6441, 5998, 8061, 8062, 8947, 8285, 8286
4905, 1050, 6325, 6357, 6445, 8025, 7632, 8856, 8026, 7256, 7633
4906, 1179, 5059, 1105, 6371, 7414, 8948, 1650, 6632, 7415, 7656
4907, 3309, 3361, 3014, 6396, 4222, 4221, 3456, 8489, 7023, 7024
4908, 3344, 6275, 3296, 6376, 7151, 8949, 4448, 7330, 7751, 8807
4909, 6288, 6337, 3037, 6362, 8950, 7639, 8745, 8549, 7217, 7640
4910, 1222, 6311, 1223, 6332, 7505, 8210, 2891, 8951, 8464, 8568
4911, 3198, 6311, 3197, 6332, 8942, 8465, 4867, 8943, 8464, 8463
4912, 1028, 6359, 6277, 6379, 8329, 7209, 7028, 7029, 8330, 6677
4913, 1154, 1155, 6263, 6360, 2527, 8002, 8952, 8645, 8003, 8004
4914, 5713, 5715, 5695, 6336, 5803, 5812, 5822, 6829, 7548, 6942
4915, 6326, 6368, 3297, 6454, 8478, 8479, 8477, 8712, 8953, 8798
4916, 1077, 1382, 6256, 6468, 2436, 8954, 8955, 8221, 8956, 7905
4917, 1241, 6344, 1050, 6445, 7090, 8024, 2297, 8957, 7096, 8026
4918, 3252, 2994, 3211, 6384, 4123, 4121, 4124, 6615, 7286, 6696
4919, 1054, 6282, 6369, 6423, 7739, 7369, 7740, 8958, 8237, 8472
4920, 3123, 3244, 3351, 6245, 4734, 4531, 4733, 7296, 7810, 7055
4921, 6344, 6354, 1220, 6399, 7093, 8573, 8019, 8020, 8959, 8017
4922, 1352, 6271, 1071, 6435, 8562, 8123, 2025, 8960, 6515, 8124
4923, 980, 6283, 1384, 6373, 8961, 7454, 1947, 8962, 6495, 7455
4924, 5065, 5053, 1197, 6339, 5132, 7513, 8963, 8964, 7515, 7514
4925, 3344, 3059, 3296, 6275, 3808, 4446, 4448, 7151, 7854, 8949
4926, 3249, 6342, 6302, 6425, 7263, 6866, 7262, 8749, 6962, 6960
4927, 6337, 1074, 6436, 6486, 8492, 8965, 8966, 8493, 8494, 8967
4928, 1160, 1286, 6456, 6465, 2634, 8968, 8252, 8149, 8969, 7493
4929, 3043, 3009, 6289, 6366, 4198, 7992, 7971, 7784, 7993, 6883
4930, 3110, 3355, 6313, 6415, 4686, 7627, 7532, 8274, 8970, 7878
4931, 1353, 6412, 6268, 6466, 8254, 8971, 6796, 7797, 8255, 7799
4932, 1256, 1071, 6274, 6299, 2035, 8701, 8544, 8543, 8598, 6998
4933, 3046, 3231, 6274, 6299, 4010, 8546, 6935, 6776, 8547, 6998
4934, 6113, 6114, 6109, 6312, 6231, 6230, 6156, 7759, 7179, 6560
4935, 3150, 6317, 6252, 6377, 8972, 8439, 8656, 8658, 7586, 8660
4936, 6284, 1237, 6383, 6487, 8443, 8444, 8164, 8345, 8669, 8474
4937, 6252, 6317, 1175, 6377, 8439, 8586, 8585, 8660, 7586, 8973
4938, 979, 5062, 1217, 6442, 8974, 8917, 1668, 7910, 8918, 8919
4939, 710, 1078, 5072, 6270, 8239, 7535, 5078, 8242, 7537, 7536
4940, 3186, 6350, 3078, 6490, 7700, 8975, 4538, 8161, 7726, 8095
4941, 1153, 6361, 6334, 6413, 8976, 7644, 8977, 8978, 7647, 7648
4942, 1010, 1011, 1012, 6387, 2096, 2102, 2101, 7407, 7279, 6845
4943, 6126, 6251, 3100, 6307, 8979, 8980, 8981, 8982, 8891, 8983
4944, 3323, 3270, 3061, 6455, 4227, 4457, 3483, 8984, 7870, 7438
4945, 6120, 6123, 1173, 6261, 6147, 8985, 8986, 8987, 7934, 8988
4946, 6119, 3148, 6124, 6261, 8989, 8990, 6172, 8133, 8991, 8581
4947, 1176, 1142, 6313, 6323, 2510, 7816, 8992, 8993, 8994, 7322
4948, 3151, 6313, 3117, 6323, 8995, 7323, 4486, 8996, 7322, 7321
4949, 6276, 6359, 1203, 6379, 8728, 8328, 8215, 8118, 8330, 8216
4950, 3162, 3298, 6282, 6303, 4296, 8234, 8997, 8998, 8418, 6786
4951, 5279, 6318, 5269, 6453, 7408, 7720, 5460, 8421, 7857, 8587
4952, 716, 5253, 5294, 6321, 5422, 5425, 5307, 8999, 7382, 7251
4953, 3253, 3077, 3398, 6372, 4534, 4281, 4535, 6944, 7863, 7874
4954, 3218, 6293, 6380, 6483, 8445, 8169, 8446, 8776, 8427, 8462
4955, 1154, 1096, 1095, 6360, 2522, 2328, 2523, 8645, 8111, 8110
4956, 6257, 6321, 5836, 6364, 8127, 8347, 9000, 9001, 7471, 8270
4957, 5266, 3173, 2965, 6322, 9002, 3750, 9003, 9004, 7412, 9005
4958, 6251, 6306, 6404, 6410, 8893, 8845, 9006, 8894, 8848, 8849
4959, 1095, 6360, 6262, 6489, 8110, 8366, 8367, 8766, 8200, 9007
4960, 5272, 3153, 5274, 6417, 6572, 9008, 5372, 6739, 6740, 9009
4961, 6263, 6340, 3132, 6469, 7307, 9010, 8675, 8647, 9011, 8676
4962, 1194, 6340, 6280, 6466, 7972, 9012, 9013, 7973, 7798, 9014
4963, 1219, 6354, 6391, 6399, 9015, 9016, 7435, 7436, 8959, 6723
4964, 1064, 5695, 5715, 6336, 9017, 5812, 9018, 7102, 6942, 7548
4965, 1153, 6267, 1379, 6490, 7291, 9019, 2463, 9020, 8584, 9021
4966, 3138, 3092, 6336, 6343, 4598, 7960, 7911, 8036, 9022, 7933
4967, 1209, 6253, 984, 6428, 9023, 7225, 1969, 9024, 7591, 8085
4968, 2971, 6375, 6274, 6472, 6937, 6938, 6936, 9025, 8351, 7221
4969, 2985, 6298, 2997, 6387, 9026, 7317, 4079, 9027, 6905, 8612
4970, 1231, 6314, 1230, 6403, 8499, 8315, 2162, 7699, 8599, 6819
4971, 5690, 3039, 5704, 6336, 9028, 6922, 5775, 6830, 6923, 6924
4972, 1111, 6320, 1311, 6381, 7663, 9029, 2598, 7664, 6651, 9030
4973, 3306, 3322, 6264, 6417, 4545, 7197, 9031, 9032, 9034, 9033
4974, 1317, 1310, 1161, 6268, 2696, 2800, 2317, 7494, 6531, 7366
4975, 1011, 6387, 6294, 6487, 7279, 6825, 7278, 7603, 6849, 7729
4976, 1057, 1361, 5709, 6247, 1820, 8520, 6662, 6660, 8519, 6661
4977, 3193, 3166, 3287, 6445, 4834, 4833, 4832, 7097, 8180, 8078
4978, 3172, 5046, 6339, 6345, 9035, 7868, 9036, 9037, 7869, 7509
4979, 3120, 5837, 3372, 6256, 9038, 9039, 3813, 7443, 7903, 8775
4980, 6116, 3366, 3171, 884, 9040, 3611, 6736, 6841, 9041, 7711
4981, 3004, 6277, 2991, 6426, 9042, 7974, 4107, 9043, 7742, 8261
4982, 1053, 6385, 1271, 6432, 7114, 8468, 2315, 9044, 8768, 8457
4983, 3177, 3307, 3299, 6323, 4550, 4806, 3957, 6553, 9045, 6552
4984, 1172, 6261, 6123, 6352, 8823, 7934, 9046, 8824, 6613, 7936
4985, 3029, 6369, 6282, 6423, 8471, 7369, 8233, 8235, 8472, 8237
4986, 2998, 2996, 6420, 6475, 4118, 9047, 9048, 7677, 7166, 8742
4987, 1277, 1118, 6310, 6388, 2628, 9049, 8497, 8695, 9050, 8594
4988, 5714, 5691, 5705, 6260, 5767, 5805, 5810, 7754, 9051, 7755
4989, 5969, 6272, 1129, 6402, 9052, 8540, 9053, 9054, 6645, 8541
4990, 2975, 2974, 6378, 6449, 4016, 6957, 6997, 9055, 8448, 7778
4991, 5985, 6250, 1147, 6452, 6747, 7563, 7593, 8482, 8050, 9056
4992, 3122, 6250, 5986, 6451, 7561, 6769, 7597, 9057, 7527, 8483
4993, 3021, 6346, 3289, 6447, 9058, 9059, 4253, 8624, 9060, 8626
4994, 1229, 978, 6327, 6391, 1674, 9061, 9062, 9063, 9064, 6719
4995, 1236, 1276, 6302, 6384, 2924, 6862, 9065, 9066, 7549, 6571
4996, 5701, 6253, 5713, 6427, 8209, 6827, 5799, 8654, 8730, 8729
4997, 3231, 6299, 3187, 6341, 8547, 6580, 4377, 8548, 6581, 6582
4998, 3130, 6319, 3341, 6360, 8595, 8537, 4751, 8597, 8005, 8743
4999, 1256, 1212, 6299, 6341, 2403, 6585, 8543, 8545, 6586, 6581
5000, 1160, 1286, 1119, 6456, 2634, 2631, 2632, 8252, 8968, 7299
5001, 6279, 3313, 6369, 6412, 7227, 9067, 8091, 7229, 7163, 9068
5002, 1365, 5843, 5844, 6273, 9069, 5869, 7200, 7204, 8295, 7203
5003, 3178, 3225, 6276, 6359, 4015, 8726, 9070, 9071, 8727, 8728
5004, 1415, 5831, 6257, 6482, 9072, 9073, 8575, 8578, 9074, 8580
5005, 3362, 3020, 3310, 6401, 4249, 3536, 4250, 7120, 7121, 9075
5006, 3191, 6330, 3189, 6398, 9076, 8032, 4843, 9077, 8033, 8034
5007, 1218, 6344, 1220, 6445, 8029, 8019, 2880, 8030, 7096, 9078
5008, 1132, 6275, 1321, 6376, 7671, 9079, 2691, 8538, 7751, 9080
5009, 1101, 1262, 6342, 6358, 2547, 8452, 8804, 8803, 9081, 7930
5010, 3237, 3076, 6342, 6358, 4521, 8800, 7931, 7929, 8799, 7930
5011, 3043, 3033, 6249, 6289, 4199, 9082, 7782, 7971, 9083, 7258
5012, 1068, 6249, 1058, 6289, 7109, 7116, 2223, 7259, 7258, 8505
5013, 1068, 1306, 1366, 6319, 2225, 2388, 2387, 7107, 7842, 8280
5014, 3043, 3341, 3282, 6319, 4363, 4362, 4200, 7783, 8537, 8841
5015, 980, 1201, 1384, 6283, 1686, 1948, 1947, 8961, 9084, 7454
5016, 1132, 1167, 1284, 6266, 2697, 2700, 2699, 7670, 7609, 7617
5017, 3168, 6340, 3073, 6466, 8760, 8175, 4513, 9085, 7798, 8048
5018, 2978, 2979, 6281, 6449, 4033, 8022, 6714, 9086, 8317, 7339
5019, 3072, 6255, 3026, 6459, 6792, 9087, 4201, 7750, 7025, 9088
5020, 3288, 6299, 3327, 6435, 7832, 8223, 4381, 9089, 7067, 8651
5021, 1204, 1388, 1316, 6249, 2516, 2391, 2833, 8006, 6928, 7957
5022, 3296, 6376, 6275, 6488, 8807, 7751, 8949, 8809, 8539, 7806
5023, 3260, 3115, 3254, 6418, 4705, 4706, 3741, 9090, 8450, 8451
5024, 1214, 6373, 6330, 6398, 9091, 6499, 9092, 9093, 8035, 8033
5025, 1164, 6343, 6326, 6457, 8376, 7328, 7963, 9094, 9096, 9095
5026, 1186, 6326, 6264, 6374, 7134, 7130, 7132, 9097, 8511, 8509
5027, 2955, 3359, 3176, 6283, 3923, 3922, 3661, 8150, 6789, 7988
5028, 1380, 1204, 1135, 6313, 2515, 2713, 2710, 7629, 7876, 7486
5029, 1207, 6347, 6280, 6439, 8662, 9098, 8530, 8156, 8663, 8533
5030, 1072, 1301, 6367, 6414, 2408, 9099, 9100, 8275, 8276, 9101
5031, 5293, 1077, 6256, 6468, 9102, 8955, 9103, 8608, 8221, 7905
5032, 6332, 6344, 3216, 6403, 7378, 7995, 9104, 7380, 7092, 7996
5033, 3137, 6336, 3092, 6343, 7890, 7960, 4597, 7329, 7933, 9022
5034, 1162, 1117, 6336, 6343, 2621, 8693, 7889, 7327, 8692, 7933
5035, 3341, 6249, 3291, 6360, 8536, 9105, 4364, 8743, 7958, 9106
5036, 1025, 6369, 1161, 6412, 8912, 7367, 2178, 9107, 9068, 9108
5037, 3010, 3105, 3072, 6265, 4204, 4203, 4202, 7052, 6981, 6952
5038, 5696, 5705, 6260, 6353, 5820, 7755, 8620, 8622, 7757, 7753
5039, 1183, 6364, 1126, 6468, 9109, 8269, 1841, 9110, 7476, 8272
5040, 3071, 6360, 3070, 6473, 9111, 9112, 4302, 9113, 9115, 9114
5041, 5843, 6273, 6370, 6459, 8295, 6876, 8296, 9116, 7026, 7027
5042, 1025, 6369, 6279, 6423, 8912, 8091, 8937, 8938, 8472, 8438
5043, 1259, 6328, 6298, 6400, 7521, 8876, 8879, 9117, 8878, 7319
5044, 1227, 1216, 6330, 6405, 2873, 9118, 8642, 7892, 9119, 8831
5045, 1096, 1154, 6263, 6360, 2522, 8952, 8638, 8111, 8645, 8004
5046, 6280, 1389, 6439, 6469, 8531, 8532, 8533, 9120, 8664, 8665
5047, 6291, 6369, 3027, 6423, 8092, 8090, 8089, 8258, 8472, 8257
5048, 1030, 1004, 6290, 6320, 2073, 7336, 7160, 7137, 7795, 7159
5049, 3005, 6290, 2979, 6320, 8922, 8023, 4049, 8353, 7159, 9121
5050, 1275, 6250, 1147, 6335, 6756, 7563, 2382, 6779, 6778, 7565
5051, 5696, 5705, 5694, 6260, 5820, 5806, 5742, 8620, 7755, 8396
5052, 1425, 6306, 1046, 6478, 8363, 6955, 2282, 9122, 9124, 9123
5053, 1259, 1006, 1008, 6392, 2083, 2081, 2084, 7522, 6656, 6588
5054, 998, 6276, 999, 6378, 7828, 8773, 2036, 7899, 6607, 8774
5055, 1204, 1177, 1135, 6269, 2712, 2009, 2713, 7875, 8243, 7488
5056, 1115, 6331, 1261, 6438, 8218, 7372, 2613, 7651, 8219, 8288
5057, 1190, 6309, 6297, 6382, 8735, 8810, 9125, 8736, 8229, 9126
5058, 5276, 3260, 3254, 6418, 9127, 3741, 9128, 9129, 9090, 8451
5059, 1334, 6270, 710, 6365, 8241, 8242, 8240, 9130, 8789, 9131
5060, 1064, 5715, 5692, 6336, 9018, 5811, 7099, 7102, 7548, 7103
5061, 3039, 3322, 3388, 6315, 4344, 4346, 3787, 6920, 7313, 7231
5062, 1238, 5291, 5278, 6333, 7071, 5344, 9132, 7070, 7069, 9133
5063, 2973, 6276, 2974, 6472, 6602, 6956, 4012, 7219, 7220, 9134
5064, 3295, 3116, 3069, 6356, 4494, 4209, 4495, 8685, 8859, 7507
5065, 1189, 1190, 6297, 6382, 2740, 9125, 9135, 9136, 8736, 9126
5066, 5973, 5993, 6271, 6435, 6099, 6513, 8263, 9137, 6514, 6515
5067, 1120, 6408, 6247, 6456, 9138, 8523, 9139, 9140, 9141, 7301
5068, 995, 993, 6292, 6375, 2017, 8806, 9142, 9143, 7922, 8720
5069, 1064, 5695, 5692, 5715, 9017, 5748, 7099, 9018, 5812, 5811
5070, 5851, 6257, 5832, 6321, 9144, 8128, 5953, 9145, 8127, 8126
5071, 5064, 6327, 978, 6391, 9146, 9061, 9147, 9148, 6719, 9064
5072, 1133, 1168, 1167, 6266, 2703, 2702, 2698, 6807, 7123, 7609
5073, 3363, 6249, 3033, 6386, 8326, 9082, 4313, 8327, 6929, 9149
5074, 6309, 6357, 3166, 6445, 8786, 8784, 8179, 7342, 7633, 8180
5075, 2952, 6334, 3383, 6413, 8140, 7643, 3909, 8143, 7648, 7646
5076, 846, 845, 5688, 6408, 848, 5783, 5782, 7423, 7426, 7901
5077, 1194, 6280, 6412, 6466, 9013, 7232, 8253, 7973, 9014, 8255
5078, 1383, 1172, 1179, 6352, 2829, 2445, 2573, 7855, 8824, 6612
5079, 1092, 6297, 6357, 6386, 8924, 8813, 9150, 8925, 7530, 9151
5080, 6121, 6262, 2956, 6462, 8535, 7384, 8534, 9152, 9154, 9153
5081, 3078, 6350, 6486, 6490, 8975, 8495, 8093, 8095, 7726, 8097
5082, 1064, 1413, 1347, 6315, 1812, 2371, 2370, 7101, 7524, 7314
5083, 3122, 6250, 3250, 6335, 7561, 6761, 4358, 7562, 6778, 6785
5084, 5848, 5837, 3120, 6256, 5962, 9038, 7442, 7419, 7903, 7443
5085, 982, 6258, 5970, 6465, 7841, 6852, 7840, 9155, 6817, 8641
5086, 979, 1217, 6354, 6442, 1668, 8916, 9156, 7910, 8919, 7233
5087, 1150, 165, 1089, 6306, 7390, 7389, 2491, 7600, 9157, 7599
5088, 1166, 6345, 6335, 6435, 9158, 6780, 9159, 9160, 7068, 7066
5089, 2955, 3359, 6283, 6373, 3923, 6789, 8150, 8151, 6790, 6495
5090, 3313, 3000, 6279, 6369, 4135, 9161, 7227, 9067, 9162, 8091
5091, 1191, 1143, 6309, 6445, 2741, 8811, 9163, 9164, 8932, 7342
5092, 5842, 5845, 5826, 6273, 5894, 5923, 5925, 8707, 8687, 8677
5093, 1017, 1027, 6338, 6347, 2139, 7556, 7977, 7979, 9165, 7980
5094, 2992, 6338, 3002, 6347, 7981, 8908, 4113, 7983, 7980, 9166
5095, 5293, 6256, 5253, 6468, 9103, 7381, 5424, 8608, 7905, 8084
5096, 641, 3273, 3395, 6410, 9167, 3433, 9168, 9169, 6546, 6547
5097, 3051, 6260, 3238, 6353, 7569, 8181, 4406, 7684, 7753, 8183
5098, 1389, 1207, 1023, 6280, 2170, 2145, 2168, 8531, 8530, 9170
5099, 1156, 6263, 6340, 6372, 8780, 7307, 9171, 8779, 7310, 7311
5100, 3214, 3215, 6333, 6358, 4900, 9172, 7542, 7541, 9173, 7394
5101, 1239, 6333, 1240, 6358, 7396, 7951, 2925, 7395, 7394, 9174
5102, 1263, 6260, 1076, 6353, 7277, 6684, 2431, 8623, 7753, 8064
5103, 1116, 6331, 6301, 6425, 8073, 8430, 8817, 8074, 7374, 7061
5104, 993, 994, 992, 6271, 2012, 2011, 1957, 7665, 8563, 7000
5105, 980, 5063, 1201, 6373, 9175, 9176, 1686, 8962, 9178, 9177
5106, 6120, 6104, 6123, 6261, 6207, 6201, 6147, 8987, 7935, 7934
5107, 2980, 6380, 6290, 6483, 7186, 6726, 7185, 9179, 8462, 6653
5108, 6104, 6119, 6124, 6261, 6205, 6172, 6203, 7935, 8133, 8581
5109, 6275, 6322, 1284, 6394, 7619, 7618, 7615, 9180, 9182, 9181
5110, 6295, 6380, 6293, 6483, 8171, 8169, 8166, 6654, 8462, 8427
5111, 6283, 6373, 5042, 6464, 6495, 9183, 9184, 7990, 7991, 9185
5112, 3403, 6382, 6309, 6442, 9186, 8229, 9187, 9188, 8231, 7341
5113, 6118, 6126, 3397, 6307, 6196, 9189, 9190, 9191, 8982, 9192
5114, 3140, 3327, 6271, 6435, 4787, 8222, 7504, 7049, 8651, 6515
5115, 3131, 3132, 6263, 6340, 4755, 8675, 7308, 7306, 9010, 7307
5116, 998, 996, 997, 6274, 2031, 2026, 2032, 7825, 8673, 7826
5117, 1081, 6310, 6388, 6421, 7861, 8594, 9193, 6991, 7687, 9194
5118, 3356, 3079, 3153, 6417, 4541, 3708, 4542, 7334, 9195, 6740
5119, 3060, 3097, 6395, 6437, 4320, 7427, 6564, 9196, 9198, 9197
5120, 1172, 6352, 860, 6430, 8824, 9199, 9200, 9201, 7467, 9202
5121, 716, 5294, 3052, 6321, 5307, 7250, 9203, 8999, 7251, 7252
5122, 830, 831, 5582, 6390, 833, 5658, 5657, 9204, 8299, 8635
5123, 1018, 6420, 1020, 6475, 7432, 7009, 2128, 9205, 8742, 8741
5124, 3132, 6280, 6340, 6466, 9206, 9012, 9010, 9207, 9014, 7798
5125, 5701, 5713, 5700, 6427, 5799, 5823, 5789, 8654, 8729, 6940
5126, 3316, 3040, 6351, 6416, 4349, 7812, 9208, 8384, 7361, 7815
5127, 1284, 1321, 1132, 6275, 2701, 2691, 2699, 7615, 9079, 7671
5128, 1126, 6257, 5836, 6364, 9209, 9000, 8271, 8269, 9001, 8270
5129, 3069, 6356, 3116, 6427, 7507, 8859, 4209, 7943, 6911, 8861
5130, 2962, 3405, 6326, 6374, 3959, 8794, 8710, 8709, 8795, 8511
5131, 3003, 2991, 6277, 6379, 4039, 7974, 9210, 9211, 7976, 6677
5132, 1300, 1393, 1364, 6318, 1966, 2822, 2676, 7920, 8459, 6859
5133, 725, 5292, 1076, 6353, 5298, 9212, 6682, 8063, 9213, 8064
5134, 745, 1042, 1325, 735, 7999, 2259, 8355, 5487, 8321, 7927
5135, 3150, 6252, 6317, 6414, 8656, 8439, 8972, 9214, 8441, 8277
5136, 1379, 1153, 1082, 6267, 2463, 2462, 2451, 9019, 7291, 7020
5137, 3354, 3057, 3128, 6267, 4427, 4436, 4438, 8583, 9215, 8383
5138, 5279, 3173, 5266, 6322, 7410, 9002, 5414, 7411, 7412, 9004
5139, 984, 1209, 1373, 6253, 1969, 1971, 1816, 7225, 9023, 7831
5140, 3184, 2959, 3348, 6253, 3945, 3790, 3946, 7589, 7182, 7850
5141, 5710, 6260, 5691, 6304, 7691, 9051, 5808, 7690, 7689, 8734
5142, 716, 6321, 3310, 6401, 8999, 9216, 9217, 9218, 7450, 9075
5143, 826, 3127, 3063, 6304, 7387, 4464, 7385, 9219, 7660, 7659
5144, 3018, 6304, 3401, 6479, 7037, 8470, 4241, 9220, 9222, 9221
5145, 2959, 3184, 3092, 6336, 3945, 3944, 3943, 7184, 7588, 7960
5146, 1375, 6300, 1339, 6330, 6783, 8936, 2608, 6890, 6498, 8385
5147, 3350, 3314, 6300, 6330, 4583, 7453, 6491, 6497, 7242, 6498
5148, 3254, 6349, 5263, 6418, 8449, 9223, 9224, 8451, 7143, 9225
5149, 1172, 1173, 6123, 6261, 1892, 8985, 9046, 8823, 8988, 7934
5150, 5042, 6283, 1201, 6373, 9184, 9084, 9226, 9183, 6495, 9177
5151, 6124, 3148, 3147, 6261, 8990, 3866, 9227, 8581, 8991, 9228
5152, 5065, 5046, 5053, 6339, 5237, 5220, 5132, 8964, 7868, 7515
5153, 997, 999, 998, 6276, 2037, 2036, 2032, 7827, 8773, 7828
5154, 1000, 6278, 998, 6378, 8874, 7915, 2041, 8875, 6618, 7899
5155, 1099, 1101, 1100, 6342, 2542, 2541, 2465, 7238, 8804, 7399
5156, 3076, 3074, 3075, 6342, 4516, 4439, 4517, 8800, 7767, 8057
5157, 3000, 3027, 6279, 6369, 4147, 8088, 9161, 9162, 8090, 8091
5158, 1259, 6298, 1308, 6400, 8879, 9229, 2095, 9117, 7319, 9230
5159, 5976, 3345, 5987, 6272, 9231, 8552, 6101, 6868, 8828, 8827
5160, 2996, 6279, 6420, 6475, 7228, 8375, 9047, 7166, 7274, 8742
5161, 5047, 5060, 5037, 6397, 5225, 5227, 5096, 6805, 7281, 8752
5162, 2991, 2977, 6281, 6379, 4036, 8715, 8014, 7976, 8716, 6702
5163, 3241, 6251, 861, 6446, 9232, 9233, 9234, 9235, 9237, 9236
5164, 3184, 6428, 6253, 6437, 7590, 7591, 7589, 8304, 8305, 7554
5165, 3310, 716, 3052, 6321, 9217, 9203, 3538, 9216, 8999, 7252
5166, 1427, 1032, 1357, 6465, 2214, 2020, 2215, 6519, 6520, 8668
5167, 1021, 1020, 6279, 6475, 2142, 8021, 9238, 9239, 8741, 7274
5168, 2966, 3040, 6106, 6269, 3872, 7358, 9240, 9241, 7813, 7894
5169, 1384, 1144, 1375, 6283, 2745, 2603, 2746, 7454, 6590, 6782
5170, 3092, 3137, 3109, 6336, 4597, 4596, 4343, 7960, 7890, 7198
5171, 1162, 1117, 1134, 6336, 2621, 2367, 2622, 7889, 8693, 7194
5172, 1228, 6316, 1339, 6381, 9242, 8386, 2607, 9243, 7246, 8387
5173, 3359, 3350, 3119, 6283, 4720, 4578, 4721, 6789, 6493, 6595
5174, 1334, 1039, 1386, 6365, 1482, 2247, 2246, 9130, 7346, 7347
5175, 1361, 6247, 1120, 6408, 8519, 9139, 2336, 8522, 8523, 9138
5176, 1143, 6297, 1190, 6309, 8812, 9125, 2739, 8811, 8810, 8735
5177, 996, 6274, 1071, 6375, 8673, 8701, 2024, 8674, 6938, 8122
5178, 1198, 6318, 1393, 6453, 7719, 8459, 1963, 8588, 7857, 8460
5179, 3007, 6444, 6258, 6470, 9244, 7331, 9245, 9246, 9247, 7668
5180, 1031, 6294, 6383, 6487, 7275, 6889, 7276, 9248, 7729, 8474
5181, 995, 6292, 997, 6375, 9142, 8609, 2027, 9143, 8720, 8350
5182, 6308, 6349, 3115, 6418, 7087, 8404, 8401, 7142, 7143, 8450
5183, 3245, 6293, 3093, 6484, 9249, 8434, 4600, 9250, 8312, 8796
5184, 3110, 3111, 3040, 6351, 4348, 4347, 3981, 7534, 9251, 7812
5185, 2971, 6470, 6375, 6472, 8890, 7919, 6937, 9025, 9252, 8351
5186, 1249, 6333, 976, 6418, 7734, 9253, 1930, 9254, 9256, 9255
5187, 5057, 3167, 5052, 6250, 9257, 9258, 5193, 6703, 9260, 9259
5188, 1011, 1013, 1012, 6487, 2107, 2106, 2102, 7603, 8358, 6848
5189, 2990, 6347, 2993, 6420, 7695, 9261, 4101, 7697, 6699, 9262
5190, 1418, 1169, 1144, 6283, 1993, 2610, 2744, 8929, 6832, 6590
5191, 1323, 1069, 6303, 6423, 2311, 9263, 9264, 9265, 9266, 8419
5192, 5293, 715, 1077, 6468, 5301, 8220, 9102, 8608, 7602, 8221
5193, 873, 874, 885, 6317, 965, 949, 967, 6964, 6915, 7707
5194, 2989, 6287, 2987, 6434, 9267, 8340, 4087, 9268, 7942, 8792
5195, 1418, 1169, 6283, 6339, 1993, 6832, 8929, 8928, 6727, 6899
5196, 1066, 1256, 998, 6274, 2045, 2034, 2043, 7913, 8544, 7825
5197, 3231, 3041, 2973, 6274, 4020, 4019, 4008, 8546, 7916, 6604
5198, 1387, 1335, 1048, 6364, 2289, 1562, 2290, 7345, 7472, 7344
5199, 5041, 6373, 3176, 6464, 9269, 7987, 9270, 9271, 7991, 7989
5200, 6331, 6385, 3045, 6431, 8433, 8740, 8739, 9272, 9274, 9273
5201, 3393, 3119, 3144, 6283, 4719, 4584, 3967, 9275, 6595, 6835
5202, 1146, 6256, 1145, 6275, 9276, 7420, 2469, 9277, 7545, 7638
5203, 3121, 3120, 6256, 6275, 4445, 7443, 9278, 9279, 7637, 7545
5204, 3149, 6132, 6108, 6122, 8144, 6186, 7924, 7923, 6227, 6223
5205, 3234, 6328, 3284, 6392, 9280, 8877, 4070, 9281, 7140, 8885
5206, 3274, 3397, 6126, 6307, 3901, 9189, 9282, 9283, 9192, 8982
5207, 3118, 6297, 6309, 6382, 8815, 8810, 8783, 9284, 9126, 8229
5208, 6347, 6366, 3182, 6439, 8661, 9285, 9286, 8663, 8157, 9287
5209, 1116, 6301, 1280, 6425, 8817, 7060, 2619, 8074, 7061, 6961
5210, 3009, 3002, 3008, 6366, 4161, 4156, 4162, 7993, 8909, 7284
5211, 1193, 1194, 1353, 6340, 2791, 2860, 2538, 7944, 7972, 6797
5212, 1005, 6290, 1003, 6380, 8821, 8015, 2067, 8822, 6726, 8016
5213, 3232, 6284, 2999, 6385, 9288, 8069, 4129, 9289, 6671, 8055
5214, 1153, 6334, 6267, 6490, 8977, 8382, 7291, 9020, 7725, 8584
5215, 6108, 6116, 3171, 6128, 6189, 6736, 8633, 6224, 6226, 6737
5216, 3028, 2999, 6291, 6385, 4148, 8054, 9290, 9291, 8055, 6688
5217, 3106, 6266, 3108, 6450, 9292, 9293, 4667, 9294, 6510, 9295
5218, 5826, 6273, 5845, 6348, 8677, 8687, 5923, 8678, 7820, 8690
5219, 2999, 6284, 2995, 6420, 8069, 9296, 4126, 8407, 6639, 9297
5220, 5687, 6247, 5709, 6408, 6705, 6661, 5784, 9298, 8523, 8521
5221, 3202, 6316, 3314, 6405, 9299, 7244, 4851, 9300, 7393, 8830
5222, 1394, 1428, 1190, 6309, 1946, 2855, 2856, 7355, 7354, 8735
5223, 3403, 3369, 6382, 6442, 3921, 9301, 9186, 9188, 9302, 8231
5224, 3206, 2997, 6332, 6403, 4137, 7349, 9303, 9304, 8753, 7380
5225, 831, 3265, 5982, 6324, 8098, 9305, 8298, 8100, 6900, 8297
5226, 1054, 6369, 1025, 6423, 7740, 8912, 2176, 8958, 8472, 8938
5227, 3183, 3297, 6368, 6454, 3961, 8479, 9306, 8921, 8798, 8953
5228, 3096, 3167, 5057, 6250, 3673, 9257, 6781, 6762, 9260, 6703
5229, 3313, 3136, 6369, 6466, 4155, 9307, 9067, 9308, 9310, 9309
5230, 6284, 6383, 6287, 6487, 8164, 8165, 6636, 8345, 8474, 6847
5231, 6109, 981, 6262, 6489, 7003, 7004, 6557, 9311, 9312, 9007
5232, 1003, 6285, 1248, 6380, 8013, 8869, 2069, 8016, 6717, 8871
5233, 983, 1393, 1300, 6453, 1962, 1966, 1965, 9313, 8460, 8207
5234, 3337, 5847, 6252, 6367, 9314, 9315, 9316, 9317, 9319, 9318
5235, 6114, 6262, 6121, 6489, 7178, 8535, 6182, 9320, 9007, 9321
5236, 3071, 6263, 3129, 6360, 9322, 9323, 4498, 9111, 8004, 9324
5237, 1130, 6265, 1132, 6376, 9325, 8422, 2688, 9326, 6982, 8538
5238, 3140, 3288, 3327, 6435, 4785, 4381, 4787, 7049, 9089, 8651
5239, 5041, 2955, 3176, 6373, 9327, 3661, 9270, 9269, 8151, 7987
5240, 1227, 1247, 1216, 6405, 2875, 2874, 2873, 7892, 7775, 9119
5241, 1203, 6276, 1250, 6359, 8215, 8838, 2040, 8328, 8728, 8369
5242, 3295, 3069, 3134, 6356, 4495, 4492, 4496, 8685, 7507, 7169
5243, 1233, 6295, 1019, 6384, 8068, 8886, 2100, 8075, 6840, 8887
5244, 6280, 3132, 6340, 6469, 9206, 9010, 9012, 9120, 8676, 9011
5245, 6280, 6347, 1023, 6475, 9098, 9328, 9170, 7212, 9330, 9329
5246, 1418, 6283, 1201, 6464, 8929, 9084, 1995, 8930, 7990, 9331
5247, 6360, 6462, 3070, 6473, 8197, 9332, 9112, 9115, 9333, 9114
5248, 3003, 2991, 3004, 6277, 4039, 4107, 4106, 9210, 7974, 9042
5249, 1016, 1028, 1029, 6277, 2063, 2132, 2131, 6672, 7028, 7741
5250, 1072, 876, 1429, 6317, 9334, 9335, 1633, 8176, 9336, 8178
5251, 3100, 6307, 6251, 6410, 8983, 8891, 8980, 9337, 8895, 8894
5252, 1172, 860, 1266, 6430, 9200, 9338, 1616, 9201, 9202, 9339
5253, 6269, 6415, 6360, 6462, 7879, 7887, 8198, 8196, 9340, 8197
5254, 1092, 6357, 6289, 6386, 9150, 8188, 9341, 8925, 9151, 8506
5255, 2973, 3041, 2975, 6278, 4019, 4018, 4017, 6617, 7917, 6996
5256, 1000, 1066, 998, 6278, 2044, 2043, 2041, 8874, 7914, 7915
5257, 3189, 6330, 3190, 6373, 8032, 6833, 3925, 8031, 6499, 6834
5258, 3001, 6325, 3008, 6338, 9342, 7293, 4157, 9343, 7040, 7282
5259, 1026, 1033, 6325, 6338, 2181, 7295, 6707, 7039, 7043, 7040
5260, 3339, 6318, 6303, 6477, 7764, 6951, 7763, 9344, 6861, 6773
5261, 2986, 6294, 2984, 6387, 8910, 8065, 4071, 8911, 6825, 8079
5262, 6251, 6352, 861, 6446, 9345, 9346, 9233, 9237, 9347, 9236
5263, 3316, 6351, 6261, 6416, 9208, 9348, 8397, 8384, 7815, 8135
5264, 3223, 6380, 2980, 6483, 7162, 7186, 4044, 8881, 8462, 9179
5265, 3007, 3332, 6258, 6444, 3995, 8681, 9245, 9244, 8682, 7331
5266, 1252, 1311, 1111, 6320, 2201, 2598, 2055, 7953, 9029, 7663
5267, 3286, 3227, 3086, 6320, 4177, 4030, 4572, 7403, 9349, 6646
5268, 3038, 6337, 6288, 6436, 9350, 8950, 9351, 9352, 8966, 9353
5269, 3149, 3331, 6312, 6377, 4694, 7851, 8146, 7925, 9354, 8480
5270, 1406, 670, 1405, 6404, 9355, 9356, 1467, 6630, 9357, 6629
5271, 1367, 1085, 1371, 6259, 2477, 2474, 2478, 9358, 9360, 9359
5272, 1063, 6288, 1062, 6436, 9361, 9362, 2353, 9363, 9353, 9364
5273, 5836, 1415, 5831, 6257, 9365, 9072, 5884, 9000, 8575, 9073
5274, 3313, 6369, 6412, 6466, 9067, 9068, 7163, 9308, 9309, 8255
5275, 1249, 6308, 6333, 6418, 7649, 7735, 7734, 9254, 7142, 9256
5276, 3245, 3223, 6293, 6484, 4901, 8310, 9249, 9250, 8311, 8312
5277, 3060, 6395, 6259, 6437, 6564, 6565, 6555, 9196, 9197, 8558
5278, 1024, 1021, 1020, 6279, 2151, 2142, 2152, 6668, 9238, 8021
5279, 3012, 6289, 3008, 6325, 8187, 7283, 4192, 8186, 7294, 7293
5280, 1033, 6289, 1037, 6325, 6880, 8191, 2216, 7295, 7294, 8190
5281, 1376, 6245, 1255, 6372, 8371, 9366, 2758, 8372, 6943, 8900
5282, 1016, 1029, 1254, 6285, 2131, 2134, 2133, 6674, 7661, 7459
5283, 1192, 1121, 5049, 6250, 1698, 7859, 9367, 9368, 6502, 7860
5284, 1223, 1226, 6400, 6433, 2902, 9369, 8627, 8211, 8518, 8628
5285, 3309, 6270, 3053, 6451, 8486, 7011, 3458, 9370, 7014, 7015
5286, 1078, 6270, 1334, 6452, 7537, 8241, 1483, 7538, 7539, 9371
5287, 3163, 3052, 5294, 6256, 3757, 7250, 9372, 9373, 7249, 7248
5288, 6115, 6111, 1196, 6128, 6162, 8771, 6691, 6238, 6225, 6692
5289, 5974, 2957, 3335, 6443, 7834, 3849, 8388, 8389, 8935, 8195
5290, 3037, 6288, 3038, 6337, 8745, 9351, 4327, 7639, 8950, 9350
5291, 3053, 6250, 3360, 6451, 7864, 9374, 4417, 7015, 7527, 9375
5292, 1385, 6250, 1078, 6452, 9376, 8502, 2441, 9377, 8050, 7538
5293, 1148, 6312, 6245, 6460, 7053, 7189, 7188, 9378, 7479, 7480
5294, 1062, 6337, 6288, 6362, 8336, 8950, 9362, 8337, 7217, 8549
5295, 1175, 1301, 1368, 6317, 2680, 2409, 2728, 8586, 8260, 8177
5296, 1003, 1002, 1016, 6281, 2057, 2062, 2061, 8012, 7062, 6701
5297, 2978, 2991, 2977, 6281, 4037, 4036, 4031, 6714, 8014, 8715
5298, 1363, 6326, 6350, 6457, 9379, 8475, 8390, 8393, 9095, 8395
5299, 984, 6336, 1117, 6428, 7226, 8693, 1967, 8085, 7592, 8694
5300, 2974, 2976, 2977, 6281, 4021, 4024, 4023, 8042, 8825, 8715
5301, 3100, 6126, 861, 6251, 8981, 6144, 9380, 8980, 8979, 9233
5302, 6255, 6340, 6268, 6466, 6600, 6601, 6532, 8047, 7798, 7799
5303, 3241, 3100, 861, 6251, 3589, 9380, 9234, 9232, 8980, 9233
5304, 3209, 6294, 3006, 6383, 8264, 8896, 4182, 8226, 6889, 8897
5305, 1257, 1237, 1235, 6284, 2155, 2210, 2922, 7081, 8443, 8038
5306, 3344, 3105, 6376, 6488, 4205, 6813, 7330, 8808, 8686, 8539
5307, 1322, 6350, 6326, 6454, 9381, 8475, 9382, 9383, 9384, 8712
5308, 1002, 999, 1203, 6276, 2049, 2038, 2050, 8117, 8773, 8215
5309, 6124, 6261, 3147, 6352, 8581, 9228, 9227, 8582, 6613, 9385
5310, 3283, 3048, 3180, 6272, 4387, 3688, 4388, 7747, 7077, 8902
5311, 1205, 1073, 1307, 6272, 1713, 2413, 2412, 8414, 7744, 7743
5312, 1137, 6348, 6252, 6377, 9386, 8698, 9387, 9388, 8700, 8660
5313, 1128, 6252, 1137, 6348, 8889, 9387, 2496, 8758, 8698, 9386
5314, 1061, 1062, 6288, 6362, 2347, 9362, 7658, 7621, 8337, 8549
5315, 1198, 990, 1424, 6322, 1775, 2002, 2001, 7722, 9389, 7968
5316, 2965, 3173, 3399, 6322, 3750, 3977, 3976, 9005, 7412, 7970
5317, 1001, 1003, 1004, 6281, 2056, 2059, 2058, 7571, 8012, 7335
5318, 3306, 6264, 3174, 6417, 9031, 9390, 4543, 9032, 9033, 9391
5319, 1293, 785, 1419, 6393, 9392, 9393, 1538, 6743, 9394, 6742
5320, 2952, 3186, 6334, 6458, 3907, 7702, 8140, 8442, 7703, 7704
5321, 5842, 3340, 6273, 6459, 8706, 8688, 8707, 8939, 9395, 7026
5322, 1103, 6436, 6486, 6490, 9396, 8967, 9397, 9398, 9399, 8097
5323, 2952, 3185, 3186, 6458, 3723, 3908, 3907, 8442, 9400, 7703
5324, 3162, 6303, 6282, 6477, 8998, 6786, 8997, 9401, 6773, 6788
5325, 2999, 3232, 2995, 6284, 4129, 4128, 4126, 8069, 9288, 9296
5326, 1024, 1020, 1257, 6284, 2152, 2154, 2153, 6667, 7008, 7081
5327, 982, 993, 992, 6258, 1958, 1957, 1879, 7841, 7666, 6854
5328, 5851, 5836, 6257, 6321, 5942, 9000, 9144, 9145, 8347, 8127
5329, 6325, 6338, 3001, 6434, 7040, 9343, 9342, 6712, 7041, 9402
5330, 2981, 6290, 3005, 6392, 9403, 8922, 4048, 9404, 6527, 8354
5331, 2990, 2995, 6284, 6420, 4103, 9296, 8070, 7697, 9297, 6639
5332, 6337, 6436, 3038, 6486, 8966, 9352, 9350, 8493, 8967, 9405
5333, 3071, 6263, 6360, 6473, 9322, 8004, 9111, 9113, 8052, 9115
5334, 1249, 976, 1285, 6418, 1930, 1763, 1931, 9254, 9255, 7141
5335, 5983, 6248, 5966, 6441, 8062, 9406, 6061, 8947, 8286, 9407
5336, 3345, 3257, 5977, 6448, 3840, 9408, 8551, 8553, 9409, 8555
5337, 1252, 1111, 1000, 6278, 2055, 2054, 2051, 7776, 7662, 8874
5338, 1051, 1102, 1423, 6372, 1974, 2306, 2305, 8632, 9410, 8528
5339, 1248, 1254, 1270, 6285, 2135, 2928, 2927, 8869, 7459, 8870
5340, 3210, 6301, 3209, 6383, 9411, 8225, 4183, 9412, 6893, 8226
5341, 1059, 6362, 6277, 6395, 9413, 6657, 9414, 9415, 6622, 6659
5342, 3305, 6408, 6244, 6461, 6755, 6752, 6754, 9416, 9417, 6758
5343, 6258, 6444, 6292, 6470, 7331, 7332, 6814, 7668, 9247, 9418
5344, 1075, 6343, 1164, 6457, 8866, 8376, 2425, 9419, 9096, 9094
5345, 3305, 3095, 6408, 6461, 4612, 9420, 6755, 9416, 9421, 9417
5346, 3218, 3245, 3223, 6293, 4902, 4901, 4055, 8445, 9249, 8310
5347, 3118, 6309, 3165, 6382, 8783, 9422, 4715, 9284, 8229, 9423
5348, 1015, 1237, 1020, 6284, 2118, 2130, 2129, 6637, 8443, 7008
5349, 3212, 2990, 2995, 6284, 4094, 4103, 4105, 8071, 8070, 9296
5350, 3315, 6350, 3186, 6368, 9424, 7700, 4537, 9425, 7732, 7731
5351, 6244, 6408, 1330, 6456, 6752, 6750, 6748, 9426, 9141, 9427
5352, 6262, 6462, 6360, 6473, 9154, 8197, 8366, 6972, 9333, 9115
5353, 1053, 1052, 1024, 6291, 2173, 2172, 2174, 7113, 8087, 6686
5354, 3027, 3028, 2999, 6291, 4149, 4148, 4146, 8089, 9290, 8054
5355, 1136, 1380, 1135, 6351, 2711, 2710, 2372, 9428, 7630, 7489
5356, 3111, 3110, 3355, 6351, 4348, 4686, 4685, 9251, 7534, 7628
5357, 3140, 5993, 5980, 6335, 7047, 6077, 9429, 7781, 7780, 7363
5358, 5979, 5993, 1165, 6335, 6100, 9430, 9431, 7352, 7780, 9432
5359, 1031, 6383, 1235, 6487, 7276, 7305, 2208, 9248, 8474, 8945
5360, 1003, 1016, 1248, 6285, 2061, 2070, 2069, 8013, 6674, 8869
5361, 2978, 3223, 2991, 6285, 4043, 4045, 4037, 6713, 7161, 7975
5362, 2998, 6347, 6280, 6475, 9433, 9098, 7557, 7677, 9330, 7212
5363, 2980, 2978, 2979, 6290, 4041, 4033, 4042, 7185, 6725, 8023
5364, 1003, 1005, 1004, 6290, 2067, 2066, 2059, 8015, 8821, 7336
5365, 1124, 5694, 6305, 6393, 9434, 7789, 9435, 9436, 9438, 9437
5366, 3071, 3130, 3129, 6263, 4502, 4501, 4498, 9322, 8596, 9323
5367, 1096, 1154, 1155, 6263, 2522, 2527, 2526, 8638, 8952, 8002
5368, 1363, 6337, 1075, 6457, 8392, 8865, 2418, 8393, 8394, 9419
5369, 1235, 1271, 1257, 6301, 2923, 2316, 2922, 7304, 8455, 8040
5370, 1161, 6369, 6268, 6412, 7367, 7368, 7366, 9108, 9068, 8971
5371, 1262, 1116, 1280, 6425, 2617, 2619, 2618, 8453, 8074, 6961
5372, 725, 5252, 5292, 6353, 5426, 5428, 5298, 8063, 8041, 9213
5373, 1187, 6303, 6282, 6423, 6770, 6786, 6787, 9439, 8419, 8237
5374, 1005, 1007, 1006, 6290, 2077, 2076, 2072, 8821, 6522, 6655
5375, 3000, 3027, 2999, 6279, 4147, 4146, 4133, 9161, 8088, 8053
5376, 1052, 1025, 1024, 6279, 2171, 2159, 2172, 8086, 8937, 6668
5377, 860, 1172, 6123, 6352, 9200, 9046, 6137, 9199, 8824, 7936
5378, 1238, 1240, 1239, 6333, 1927, 2925, 1999, 7070, 7951, 7396
5379, 3215, 3213, 3214, 6333, 3903, 3973, 4900, 9172, 7737, 7542
5380, 3337, 6367, 6252, 6414, 9317, 9318, 9316, 9440, 9101, 8441
5381, 3208, 2994, 2984, 6295, 4075, 4064, 4073, 6836, 7285, 8066
5382, 1019, 1233, 1009, 6295, 2100, 2099, 2088, 8886, 8068, 6821
5383, 1429, 876, 885, 6317, 9335, 946, 8904, 8178, 9336, 7707
5384, 3233, 3025, 3287, 6445, 4212, 4274, 4276, 8738, 7257, 8078
5385, 5980, 5979, 5965, 6335, 6065, 6064, 6066, 7363, 7352, 7353
5386, 1115, 1261, 1240, 6438, 2613, 2616, 2615, 7651, 8288, 7952
5387, 5826, 5844, 5843, 6273, 5921, 5869, 5927, 8677, 7203, 8295
5388, 860, 6352, 6251, 6430, 9199, 9345, 9441, 9202, 7467, 9442
5389, 1247, 6398, 1216, 6405, 9443, 9444, 2874, 7775, 9445, 9119
5390, 3383, 3128, 3235, 6361, 4748, 4520, 4749, 7645, 8349, 8769
5391, 3113, 3304, 3305, 6286, 4697, 4700, 4699, 7287, 8116, 6753
5392, 1330, 1329, 1138, 6286, 2724, 2723, 2725, 6749, 8115, 7289
5393, 3174, 3306, 3161, 6264, 4543, 4684, 4827, 9390, 9031, 7126
5394, 2968, 6258, 2957, 6470, 9446, 7835, 3932, 9447, 7668, 9448
5395, 1151, 1086, 6390, 6406, 2479, 8615, 8613, 7679, 7680, 9449
5396, 983, 1198, 1393, 6453, 1772, 1963, 1962, 9313, 8588, 8460
5397, 3006, 2986, 2988, 6294, 4083, 4081, 4084, 8896, 8910, 7728
5398, 5851, 5832, 5837, 6321, 5953, 5906, 5954, 9145, 8126, 7902
5399, 1254, 1061, 1244, 6288, 2200, 2354, 2356, 7457, 7658, 8862
5400, 983, 1300, 6349, 6453, 1965, 7921, 8764, 9313, 8207, 7858
5401, 6262, 6462, 6121, 6489, 9154, 9152, 8535, 9007, 8201, 9321
5402, 1120, 1330, 6408, 6456, 2636, 6750, 9138, 9140, 9427, 9141
5403, 3253, 3398, 3168, 6340, 4535, 4514, 4761, 7531, 7871, 8760
5404, 3233, 3166, 3118, 6357, 4718, 4717, 4484, 8737, 8784, 8785
5405, 3057, 3128, 6267, 6389, 4436, 8383, 9215, 9450, 8373, 6989
5406, 1249, 1285, 6308, 6418, 1931, 7084, 7649, 9254, 7141, 7142
5407, 5714, 3238, 5691, 6260, 8182, 9451, 5767, 7754, 8181, 9051
5408, 3207, 5275, 2952, 6413, 9452, 8141, 3726, 9453, 8142, 8143
5409, 3029, 3162, 3298, 6282, 4295, 4296, 4285, 8233, 8997, 8234
5410, 3196, 6311, 3220, 6399, 9454, 8082, 4861, 9455, 6733, 8083
5411, 3212, 2988, 2990, 6287, 4093, 4091, 4094, 8072, 7674, 7696
5412, 980, 1201, 6283, 6373, 1686, 9084, 8961, 8962, 9177, 6495
5413, 1233, 1011, 1009, 6294, 2098, 2097, 2099, 8067, 7278, 6823
5414, 2986, 3208, 2984, 6294, 4074, 4073, 4071, 8910, 6837, 8065
5415, 3307, 6323, 3177, 6371, 9045, 6553, 4550, 9456, 6967, 7673
5416, 3129, 6263, 3130, 6360, 9323, 8596, 4501, 9324, 8004, 8597
5417, 2987, 2989, 2988, 6287, 4087, 4086, 4082, 8340, 9267, 7674
5418, 1014, 1012, 1013, 6287, 2111, 2106, 2112, 7938, 6846, 8357
5419, 1275, 1147, 1067, 6335, 2382, 1887, 2383, 6779, 7565, 7882
5420, 2998, 6420, 6347, 6475, 9048, 6699, 9433, 7677, 8742, 9330
5421, 988, 6339, 1418, 6464, 9457, 8928, 1992, 9458, 8931, 8930
5422, 3112, 3244, 3331, 6348, 4472, 4696, 4695, 8699, 8839, 8360
5423, 1200, 1059, 6277, 6395, 2193, 9414, 9459, 9460, 9415, 6659
5424, 3122, 3250, 3042, 6335, 4358, 4357, 3861, 7562, 6785, 7845
5425, 1200, 6277, 6359, 6395, 9459, 7209, 9461, 9460, 6659, 7158
5426, 3404, 3343, 6317, 6414, 4386, 9462, 9463, 9464, 9465, 8277
5427, 3166, 6357, 3233, 6445, 8784, 8737, 4718, 8180, 7633, 8738
5428, 6308, 3090, 6431, 6438, 9466, 9467, 9468, 7652, 9470, 9469
5429, 1092, 1093, 1142, 6386, 2339, 2506, 2505, 8925, 7773, 7817
5430, 850, 1090, 5844, 6348, 8756, 7201, 5859, 8759, 7818, 7819
5431, 3241, 861, 6352, 6446, 9234, 9346, 9471, 9235, 9236, 9347
5432, 1407, 5973, 6271, 6435, 9472, 8263, 9473, 9474, 9137, 6515
5433, 1103, 6486, 6350, 6490, 9397, 8495, 9475, 9398, 8097, 7726
5434, 1146, 6275, 1284, 6394, 9277, 7615, 2753, 9476, 9180, 9181
5435, 3378, 3379, 756, 6411, 3522, 9477, 9478, 6798, 6799, 9479
5436, 5983, 5966, 855, 6441, 6061, 6059, 5998, 8947, 9407, 8285
5437, 5051, 5031, 5050, 6352, 5204, 5203, 5205, 6611, 8840, 6950
5438, 1207, 1023, 6280, 6347, 2145, 9170, 8530, 8662, 9328, 9098
5439, 3086, 2975, 6278, 6449, 4028, 6996, 6648, 9480, 9055, 7779
5440, 5294, 5273, 3163, 6256, 5421, 9481, 9372, 7248, 9482, 9373
5441, 6121, 3347, 6106, 6462, 9483, 9484, 6178, 9152, 9486, 9485
5442, 3316, 6261, 6351, 6371, 8397, 9348, 9208, 9487, 6634, 9488
5443, 1092, 6289, 1058, 6386, 9341, 8505, 2239, 8925, 8506, 7117
5444, 1263, 1325, 6260, 6393, 2433, 6683, 7277, 9489, 8153, 9490
5445, 2957, 6258, 2967, 6470, 7835, 6857, 3853, 9448, 7668, 7909
5446, 1220, 6344, 1312, 6445, 8019, 9491, 2882, 9078, 7096, 9492
5447, 3244, 6348, 6273, 6460, 8839, 7820, 7811, 7888, 8361, 8108
5448, 1261, 6358, 1240, 6438, 7370, 9174, 2616, 8288, 8289, 7952
5449, 1192, 1275, 1121, 6250, 2640, 2639, 1698, 9368, 6756, 6502
5450, 3085, 6308, 3090, 6431, 9493, 9466, 4373, 9494, 9468, 9467
5451, 1001, 6378, 6281, 6449, 8850, 8044, 7571, 7572, 7778, 7339
5452, 6114, 6109, 6262, 6489, 6230, 6557, 7178, 9320, 9311, 9007
5453, 6249, 6289, 3033, 6386, 7258, 9083, 9082, 6929, 8506, 9149
5454, 1007, 1243, 1019, 6295, 2078, 2090, 2089, 6524, 8167, 8886
5455, 3250, 3167, 3096, 6250, 4614, 3673, 4615, 6761, 9260, 6762
5456, 860, 6251, 1266, 6430, 9441, 9495, 9338, 9202, 9442, 9339
5457, 6260, 6305, 5694, 6393, 7692, 7789, 8396, 9490, 9437, 9438
5458, 993, 1357, 1032, 6258, 1959, 2020, 2019, 7666, 8667, 7428
5459, 5848, 3120, 5837, 5838, 7442, 9038, 5962, 5963, 7441, 5903
5460, 1104, 1178, 5270, 6417, 1733, 7865, 9496, 8283, 7035, 7187
5461, 2994, 3252, 3218, 6293, 4123, 4125, 4065, 8346, 7104, 8445
5462, 1244, 6388, 6288, 6436, 8863, 7712, 8862, 9497, 9498, 9353
5463, 1244, 1081, 6388, 6436, 2366, 9193, 8863, 9497, 9499, 9498
5464, 2961, 5066, 5060, 6397, 9500, 5151, 7558, 7559, 9501, 7281
5465, 3103, 5847, 851, 6252, 9502, 5866, 9503, 9504, 9315, 9505
5466, 850, 5846, 1128, 6252, 5860, 9506, 8757, 8888, 9507, 8889
5467, 2997, 2985, 3284, 6298, 4079, 4068, 4080, 7317, 9026, 7654
5468, 1308, 1010, 1022, 6298, 2094, 2103, 2105, 9229, 7406, 8331
5469, 6288, 6337, 1062, 6436, 8950, 8336, 9362, 9353, 8966, 9364
5470, 3322, 6315, 6264, 6417, 7313, 7312, 7197, 9034, 6741, 9033
5471, 6268, 6369, 3136, 6466, 7368, 9307, 9508, 7799, 9309, 9310
5472, 3106, 6266, 6450, 6488, 9292, 6510, 9294, 9509, 7807, 9510
5473, 1269, 1365, 1090, 6460, 2499, 1825, 2497, 9511, 8106, 8107
5474, 1198, 5269, 990, 6322, 7718, 9512, 1775, 7722, 7721, 9389
5475, 1112, 1066, 1111, 6278, 2377, 2053, 2378, 7956, 7914, 7662
5476, 3041, 3087, 3086, 6278, 4353, 4352, 4029, 7917, 7954, 6648
5477, 1331, 6374, 6264, 6417, 9513, 8509, 9514, 9515, 9516, 9033
5478, 2968, 2957, 2967, 6470, 3932, 3853, 3933, 9447, 9448, 7909
5479, 1233, 1236, 6302, 6384, 2146, 9065, 8307, 8075, 9066, 6571
5480, 1308, 6298, 1022, 6400, 9229, 8331, 2105, 9230, 7319, 8603
5481, 1320, 1371, 6296, 6437, 2648, 9517, 8636, 8411, 7847, 8637
5482, 3186, 3185, 6368, 6458, 3908, 9518, 7731, 7703, 9400, 7733
5483, 5690, 5704, 5715, 6336, 5775, 5802, 5801, 6830, 6924, 7548
5484, 2985, 2984, 6298, 6387, 4066, 8302, 9026, 9027, 8079, 6905
5485, 1118, 1081, 6310, 6388, 2456, 7861, 9049, 9050, 9193, 8594
5486, 5062, 1217, 6354, 6391, 8917, 8916, 8915, 9519, 9520, 9016
5487, 2959, 3039, 5690, 6336, 3786, 9028, 7183, 7184, 6923, 6830
5488, 1092, 6297, 1143, 6357, 8924, 8812, 2507, 9150, 8813, 8814
5489, 3067, 3118, 6297, 6357, 4483, 8815, 9521, 9522, 8785, 8813
5490, 1092, 1037, 6289, 6357, 2238, 8191, 9341, 9150, 8192, 8188
5491, 1320, 6296, 1159, 6356, 8636, 8318, 2521, 8314, 7771, 8319
5492, 1310, 1131, 1097, 6265, 2535, 2534, 2531, 6528, 6549, 6535
5493, 1132, 1130, 1131, 6265, 2688, 2533, 2689, 8422, 9325, 6549
5494, 1405, 680, 1045, 6404, 9523, 9524, 1470, 6629, 9525, 7377
5495, 3138, 6259, 6343, 6428, 8679, 7501, 8036, 7912, 8556, 8037
5496, 3392, 3117, 6297, 6323, 4713, 7528, 9526, 9527, 7321, 7529
5497, 1417, 6297, 1142, 6323, 9528, 8923, 2737, 9529, 7529, 8994
5498, 6105, 6251, 6126, 6307, 9530, 8979, 6204, 9531, 8891, 8982
5499, 3180, 3257, 3345, 6448, 3685, 3840, 4837, 8903, 9409, 8553
5500, 1302, 1290, 1107, 6390, 1861, 2584, 1515, 9532, 9533, 8614
5501, 1164, 6326, 1363, 6457, 7963, 9379, 2428, 9094, 9095, 8393
5502, 2981, 2979, 3005, 6290, 4047, 4049, 4048, 9403, 8023, 8922
5503, 1004, 1006, 1030, 6290, 2071, 2074, 2073, 7336, 6655, 7160
5504, 3309, 6270, 3155, 6396, 8486, 9534, 4414, 8489, 8490, 9535
5505, 3006, 3209, 3208, 6294, 4182, 4181, 4085, 8896, 8264, 6837
5506, 1234, 1031, 1233, 6294, 2206, 2110, 2207, 6884, 7275, 8067
5507, 5830, 5848, 5839, 1145, 5944, 5943, 5878, 9536, 7417, 7416
5508, 1363, 6326, 1322, 6350, 9379, 9382, 2809, 8390, 8475, 9381
5509, 1193, 6340, 1423, 6372, 7944, 8526, 2539, 9537, 7311, 8528
5510, 3093, 6388, 6421, 6484, 8593, 9194, 9538, 8796, 7714, 9539
5511, 3357, 3158, 3052, 6321, 4411, 4410, 4412, 7642, 9540, 7252
5512, 1059, 1060, 6362, 6395, 2197, 9541, 9413, 9415, 9542, 6622
5513, 3091, 3246, 6331, 6425, 4376, 8429, 9543, 9544, 8884, 7374
5514, 6319, 3132, 6439, 6469, 8946, 9545, 9546, 8648, 8676, 8665
5515, 5691, 3396, 5698, 6304, 8731, 9547, 5764, 8734, 8566, 9548
5516, 1339, 6300, 1113, 6381, 8936, 9549, 2606, 8387, 6767, 9550
5517, 1408, 1153, 6334, 6413, 2773, 8977, 9551, 9552, 8978, 7648
5518, 3234, 3005, 6328, 6392, 4060, 8352, 9280, 9281, 8354, 7140
5519, 3077, 6372, 6273, 6459, 7863, 7059, 7862, 8643, 8335, 7026
5520, 5046, 2963, 3172, 6339, 9553, 3667, 9035, 7868, 9554, 9036
5521, 1200, 6359, 6296, 6395, 9461, 7635, 9555, 9460, 7158, 7636
5522, 3197, 3216, 6332, 6344, 4864, 9104, 8463, 8864, 7995, 7378
5523, 1222, 6332, 1241, 6344, 8951, 7379, 2890, 8018, 7378, 7090
5524, 1017, 1207, 1027, 6347, 2136, 2140, 2139, 7979, 8662, 9165
5525, 3182, 2992, 3002, 6347, 4112, 4113, 4115, 9286, 7983, 9166
5526, 1291, 6422, 840, 6481, 9556, 9557, 9558, 9559, 9561, 9560
5527, 3375, 6132, 3149, 6312, 9562, 8144, 3888, 9563, 8145, 8146
5528, 1189, 1374, 1190, 6382, 1978, 2853, 2740, 9136, 9564, 8736
5529, 3046, 3231, 2971, 6274, 4010, 4009, 3998, 6935, 8546, 6936
5530, 996, 1256, 1071, 6274, 2033, 2035, 2024, 8673, 8544, 8701
5531, 3130, 3132, 3133, 6319, 4754, 4757, 4756, 8595, 8946, 9565
5532, 6246, 6258, 6443, 6444, 6816, 8381, 7175, 6679, 7331, 8683
5533, 1258, 6357, 1143, 6445, 9566, 8814, 2509, 9567, 7633, 8932
5534, 860, 861, 6251, 6352, 863, 9233, 9441, 9199, 9346, 9345
5535, 3216, 6325, 3228, 6403, 7994, 9568, 4272, 7996, 6708, 9569
5536, 1278, 1255, 1156, 6372, 2788, 2530, 2786, 9570, 8900, 8779
5537, 3150, 3103, 3112, 6252, 4653, 4470, 4654, 8656, 9504, 8657
5538, 5069, 711, 5032, 6270, 5084, 5199, 5202, 7012, 8485, 8185
5539, 1097, 1051, 6255, 6370, 2227, 6873, 6534, 8750, 6874, 6875
5540, 1200, 6277, 1028, 6359, 9459, 7028, 2194, 9461, 7209, 8329
5541, 3132, 3169, 6280, 6466, 4766, 9571, 9206, 9207, 9572, 9014
5542, 1253, 1231, 1230, 6403, 2915, 2162, 2185, 7046, 7699, 6819
5543, 1216, 1214, 6330, 6398, 2867, 9092, 9118, 9444, 9093, 8033
5544, 5598, 5981, 1302, 6390, 9573, 9574, 9575, 9576, 9577, 9532
5545, 1316, 1366, 1154, 6360, 2390, 2776, 2777, 7883, 8282, 8645
5546, 1351, 620, 1046, 6306, 9578, 9579, 1452, 6953, 9580, 6955
5547, 5827, 6252, 5847, 6367, 9581, 9315, 5924, 9582, 9318, 9319
5548, 1333, 1225, 6316, 6328, 2909, 8008, 8940, 8119, 8405, 7430
5549, 3200, 3308, 6316, 6328, 4883, 7429, 9583, 9584, 7144, 7430
5550, 3336, 3095, 6247, 6408, 4311, 9585, 9586, 9587, 9420, 8523
5551, 3259, 6322, 6275, 6394, 8249, 7619, 8508, 9588, 9182, 9180
5552, 5594, 3048, 3365, 6286, 7075, 3691, 9589, 7079, 7078, 9590
5553, 1360, 982, 5970, 6465, 1873, 7840, 8640, 8607, 9155, 8641
5554, 3332, 6258, 2968, 6470, 8681, 9446, 3935, 9591, 7668, 9447
5555, 3339, 6318, 3368, 6453, 7764, 9592, 4796, 7856, 7857, 9593
5556, 3007, 6258, 3332, 6470, 9245, 8681, 3995, 9246, 7668, 9591
5557, 1339, 1228, 1227, 6316, 2607, 2911, 2876, 8386, 9242, 7891
5558, 3203, 3314, 3202, 6316, 4581, 4851, 4885, 7580, 7244, 9299
5559, 3392, 6323, 6297, 6397, 9527, 7529, 9526, 9594, 6806, 9595
5560, 3284, 3262, 6400, 6433, 4140, 7898, 7655, 9596, 9597, 8628
5561, 6121, 6106, 6131, 6462, 6178, 6214, 6213, 9152, 9485, 9598
5562, 3287, 3025, 3216, 6344, 4274, 4273, 4275, 8077, 7254, 7995
5563, 2990, 2992, 2993, 6347, 4096, 4102, 4101, 7695, 7983, 9261
5564, 1017, 1015, 1018, 6347, 2122, 2127, 2126, 7979, 6697, 7456
5565, 3258, 5841, 5847, 6367, 9599, 5916, 9600, 9601, 9602, 9319
5566, 3143, 3142, 6318, 6477, 4678, 7612, 9603, 9604, 8212, 6861
5567, 6319, 6439, 1158, 6469, 9546, 8206, 9605, 8648, 8665, 8666
5568, 2979, 6320, 6290, 6449, 9121, 7159, 8023, 8317, 7796, 7338
5569, 6245, 1255, 6372, 6474, 9366, 8900, 6943, 7190, 8901, 8782
5570, 1287, 6332, 1223, 6400, 9606, 8568, 2897, 9607, 7351, 8627
5571, 1276, 1274, 1236, 6302, 2550, 2920, 2924, 6862, 7260, 9065
5572, 3251, 3211, 3249, 6302, 4899, 4894, 4525, 6566, 6695, 7262
5573, 3258, 5847, 3337, 6367, 9600, 9314, 3828, 9601, 9319, 9317
5574, 1273, 1416, 5983, 6248, 2655, 9608, 9609, 9610, 9611, 8062
5575, 1007, 1009, 1008, 6295, 2087, 2086, 2082, 6524, 6821, 6587
5576, 2983, 2984, 2982, 6295, 4062, 4061, 4056, 8364, 8066, 8790
5577, 3149, 3112, 3331, 6377, 4693, 4695, 4694, 7925, 8659, 9354
5578, 3195, 3193, 3287, 6344, 4856, 4832, 4857, 9612, 7095, 8077
5579, 3381, 3380, 671, 6410, 3442, 9613, 9614, 6983, 6984, 9615
5580, 5593, 5991, 5977, 6448, 9616, 6070, 9617, 9618, 9619, 8555
5581, 5062, 1229, 1217, 6391, 9620, 1671, 8917, 9519, 9063, 9520
5582, 2962, 3405, 3297, 6326, 3959, 3963, 3962, 8710, 8794, 8477
5583, 1111, 1113, 6300, 6381, 2596, 9549, 8232, 7664, 9550, 6767
5584, 3209, 3255, 3249, 6302, 4892, 4896, 4895, 8224, 8339, 7262
5585, 1274, 1280, 1234, 6302, 2921, 2918, 2919, 7260, 6959, 6886
5586, 3217, 3189, 5056, 6398, 3655, 8202, 9621, 9622, 8034, 8204
5587, 6247, 6408, 3095, 6461, 8523, 9420, 9585, 7006, 9417, 9421
5588, 3307, 6351, 6323, 6371, 9623, 9624, 9045, 9456, 9488, 6967
5589, 1334, 6270, 1180, 6452, 8241, 8754, 2440, 9371, 7539, 8755
5590, 3309, 3155, 6270, 6451, 4414, 9534, 8486, 9370, 9625, 7014
5591, 3146, 3145, 5697, 6353, 3780, 9626, 8851, 8854, 9627, 8855
5592, 1311, 6320, 1333, 6381, 9029, 8120, 2205, 9030, 6651, 8121
5593, 1250, 1032, 1251, 6292, 2030, 2212, 2211, 8368, 6843, 7625
5594, 1101, 1261, 1262, 6358, 2552, 2554, 2547, 8803, 7370, 9081
5595, 3237, 3236, 3076, 6358, 4529, 4528, 4521, 7929, 8704, 8799
5596, 1010, 1012, 1022, 6314, 2101, 2104, 2103, 8332, 7018, 8333
5597, 1293, 1377, 1265, 6393, 2936, 2931, 2935, 6743, 6744, 9628
5598, 3222, 6327, 3199, 6405, 9629, 8525, 4882, 9630, 7272, 8574
5599, 3093, 6421, 3219, 6484, 9538, 9631, 4433, 8796, 9539, 9632
5600, 5254, 5275, 6413, 6458, 5437, 8142, 9633, 9634, 8322, 8323
5601, 3017, 746, 3379, 6411, 9635, 9636, 3525, 7431, 9637, 6799
5602, 3141, 3188, 3288, 6345, 4790, 4791, 4786, 9638, 7520, 7833
5603, 1365, 985, 5843, 6273, 1823, 8294, 9069, 7204, 7222, 8295
5604, 3181, 6367, 3337, 6414, 9639, 9317, 4838, 9640, 9101, 9440
5605, 1245, 1229, 6327, 6391, 1937, 9062, 6720, 6718, 9063, 6719
5606, 1240, 6358, 6333, 6438, 9174, 7394, 7951, 7952, 8289, 7736
5607, 3325, 3018, 806, 6304, 3507, 9641, 9642, 7036, 7037, 9643
5608, 1374, 1394, 1190, 6382, 1662, 2856, 2853, 9564, 8247, 8736
5609, 1281, 6343, 6259, 6428, 7500, 7501, 7499, 9644, 8037, 8556
5610, 3200, 6328, 6316, 6433, 9584, 7430, 9583, 9645, 8406, 8010
5611, 3297, 6350, 3315, 6368, 8476, 9424, 4841, 8479, 7732, 9425
5612, 1331, 1186, 6264, 6374, 2708, 7132, 9514, 9513, 9097, 8509
5613, 3252, 3093, 3245, 6293, 4602, 4600, 4603, 7104, 8434, 9249
5614, 1373, 1141, 1036, 6253, 2235, 2234, 1817, 7831, 7552, 8343
5615, 1186, 1430, 6326, 6374, 2807, 9646, 7134, 9097, 9647, 8511
5616, 3081, 841, 3266, 6422, 9648, 9649, 4556, 7715, 9650, 7717
5617, 3210, 3255, 3209, 6301, 4893, 4892, 4183, 9411, 8338, 8225
5618, 1235, 1234, 1280, 6301, 2209, 2918, 2917, 7304, 6892, 7060
5619, 651, 650, 6306, 6410, 653, 8846, 9651, 9652, 8847, 8848
5620, 5042, 1201, 5063, 6373, 9226, 9176, 5126, 9183, 9177, 9178
5621, 3132, 6280, 3364, 6439, 9206, 9653, 4765, 9545, 8533, 9654
5622, 3129, 3130, 3341, 6360, 4501, 4751, 4750, 9324, 8597, 8743
5623, 710, 5072, 5032, 6270, 5078, 5201, 5200, 8242, 7536, 8185
5624, 3196, 3197, 6311, 6399, 4862, 8465, 9454, 9455, 8466, 6733
5625, 3392, 6297, 3164, 6397, 9526, 9655, 3954, 9594, 9595, 9656
5626, 1064, 984, 5695, 6336, 1810, 7224, 9017, 7102, 7226, 6942
5627, 831, 3278, 3265, 3082, 9657, 3835, 8098, 8099, 3490, 4558
5628, 125, 1288, 1304, 1109, 9658, 1851, 9659, 9660, 2589, 1443
5629, 3034, 3175, 3003, 6277, 4169, 4168, 4166, 6658, 8293, 9210
5630, 1059, 1028, 1200, 6277, 2192, 2194, 2193, 9414, 7028, 9459
5631, 3278, 5982, 831, 3265, 9661, 8298, 9657, 3835, 9305, 8098
5632, 3259, 3142, 3107, 6488, 4674, 4673, 4675, 8251, 8797, 9662
5633, 6279, 6369, 1025, 6412, 8091, 8912, 8937, 7229, 9068, 9107
5634, 3328, 3073, 6268, 6466, 4512, 7080, 9663, 9664, 8048, 7799
5635, 3140, 6335, 3141, 6435, 7781, 9665, 4359, 7049, 7066, 9666
5636, 1026, 1014, 1017, 6338, 2123, 2121, 2124, 7039, 7940, 7977
5637, 1324, 6323, 1332, 6371, 7180, 9667, 2832, 8398, 6967, 9668
5638, 5715, 5704, 5697, 6315, 5802, 5771, 5815, 7547, 6921, 8852
5639, 3086, 3227, 2975, 6449, 4030, 4027, 4028, 9480, 9669, 9055
5640, 5832, 6329, 3101, 6346, 8173, 9670, 8602, 8129, 8174, 7448
5641, 1163, 1117, 6343, 6428, 2623, 8692, 9671, 9672, 8694, 8037
5642, 1371, 6259, 1085, 6395, 9359, 9360, 2474, 9673, 6565, 9674
5643, 3133, 6319, 3132, 6439, 9565, 8946, 4757, 9675, 9546, 9545
5644, 5263, 6349, 5255, 6418, 9223, 7574, 5441, 9225, 7143, 7575
5645, 1367, 6259, 1371, 6428, 9358, 9359, 2478, 9676, 8556, 9677
5646, 988, 1418, 1201, 6464, 1992, 1995, 1689, 9458, 8930, 9331
5647, 1022, 6332, 1287, 6400, 8500, 9606, 2163, 8603, 7351, 9607
5648, 1381, 6315, 1171, 6353, 7032, 8722, 2825, 8268, 6576, 8724
5649, 6297, 3067, 6357, 6386, 9521, 9522, 8813, 7530, 9678, 9151
5650, 1057, 1120, 1361, 6247, 2334, 2336, 1820, 6660, 9139, 8519
5651, 5294, 5253, 5273, 6256, 5425, 5434, 5421, 7248, 7381, 9482
5652, 5832, 6257, 5850, 6329, 8128, 9679, 5952, 8173, 8172, 9680
5653, 1014, 1230, 1012, 6314, 2114, 2113, 2111, 8266, 8315, 7018
5654, 1219, 1220, 6354, 6399, 2881, 8573, 9015, 7436, 8017, 8959
5655, 5281, 1210, 1208, 6368, 9681, 1745, 9682, 9683, 9685, 9684
5656, 979, 1218, 1428, 6442, 1942, 1945, 1944, 7910, 8914, 7357
5657, 3313, 6412, 6280, 6466, 7163, 7232, 7211, 9308, 8255, 9014
5658, 3158, 5832, 3101, 6321, 9686, 8602, 3817, 9540, 8126, 7449
5659, 1209, 984, 1117, 6428, 1969, 1967, 1970, 9024, 8085, 8694
5660, 6256, 6275, 1146, 6394, 7545, 9277, 9276, 9687, 9180, 9476
5661, 1301, 6252, 6367, 6414, 8440, 9318, 9099, 8276, 8441, 9101
5662, 3209, 3211, 3208, 6302, 4891, 4122, 4181, 8224, 6695, 6932
5663, 1233, 1236, 1234, 6302, 2146, 2916, 2207, 8307, 9065, 6886
5664, 3150, 3112, 3149, 6377, 4654, 4693, 4692, 8658, 8659, 7925
5665, 3101, 3390, 3247, 6329, 3821, 4647, 4646, 9670, 9689, 9688
5666, 3228, 6325, 3001, 6434, 9568, 9342, 4159, 9690, 6712, 9402
5667, 1008, 1009, 1010, 6298, 2086, 2092, 2091, 7118, 6903, 7406
5668, 2983, 2985, 2984, 6298, 4067, 4066, 4062, 8365, 9026, 8302
5669, 3158, 6321, 3101, 6401, 9540, 7449, 3817, 9691, 7450, 7451
5670, 1061, 1062, 1063, 6288, 2347, 2353, 2352, 7658, 9362, 9361
5671, 3038, 3037, 3036, 6288, 4327, 4323, 4328, 9351, 8745, 8744
5672, 3058, 6310, 3075, 6389, 9692, 8056, 4440, 9693, 7402, 8245
5673, 3135, 3134, 3094, 6246, 4607, 4493, 4608, 8238, 7168, 6975
5674, 1119, 1159, 1160, 6246, 2517, 2633, 2632, 7298, 8076, 8148
5675, 3382, 2967, 5968, 6271, 3855, 8290, 8696, 8697, 7002, 6512
5676, 3033, 3363, 3043, 6249, 4313, 4312, 4199, 9082, 8326, 7782
5677, 1068, 1388, 1058, 6249, 2338, 2337, 2223, 7109, 6928, 7116
5678, 1215, 6330, 1214, 6373, 7594, 9092, 1949, 7595, 6499, 9091
5679, 113, 1108, 1289, 6419, 9694, 2586, 9695, 9696, 7791, 7792
5680, 1275, 6335, 1309, 6345, 6779, 9697, 2643, 6757, 6780, 9698
5681, 3010, 3072, 3026, 6459, 4202, 4201, 3948, 8309, 7750, 9088
5682, 1022, 1230, 1231, 6314, 2115, 2162, 2161, 8333, 8315, 8499
5683, 6259, 6362, 1060, 6395, 6620, 9541, 9699, 6565, 6622, 9542
5684, 3167, 3053, 5069, 6250, 3674, 7010, 9700, 9260, 7864, 7526
5685, 1374, 5058, 1394, 6382, 9701, 7709, 1662, 9564, 8230, 8247
5686, 3308, 3005, 3286, 6320, 4179, 4176, 4180, 7145, 8353, 7403
5687, 1030, 1333, 1311, 6320, 2203, 2205, 2202, 7137, 8120, 9029
5688, 3159, 3158, 3101, 6401, 4641, 3817, 4642, 9702, 9691, 7451
5689, 1407, 5973, 992, 6271, 9472, 8262, 1880, 9473, 8263, 7000
5690, 1277, 1118, 1276, 6310, 2628, 2468, 2629, 8497, 9049, 6863
5691, 3093, 3252, 3251, 6310, 4602, 4604, 4443, 8435, 6614, 6568
5692, 1137, 6252, 1128, 6377, 9387, 8889, 2496, 9388, 8660, 9703
5693, 1371, 6259, 6395, 6437, 9359, 6565, 9673, 7847, 8558, 9197
5694, 1191, 1258, 1143, 6445, 2743, 2509, 2741, 9164, 9567, 8932
5695, 5841, 3258, 882, 6367, 9599, 9704, 9705, 9602, 9601, 9706
5696, 2975, 6378, 6278, 6449, 6997, 6618, 6996, 9055, 7778, 7779
5697, 1164, 1363, 1075, 6457, 2428, 2418, 2425, 9094, 8393, 9419
5698, 1288, 6424, 1109, 6482, 9707, 9708, 2589, 9709, 8579, 9710
5699, 5973, 1165, 5993, 6435, 9711, 9430, 6099, 9137, 9712, 6514
5700, 3225, 2972, 6276, 6472, 4004, 9713, 8726, 8920, 9714, 7220
5701, 1212, 1169, 1213, 6339, 2612, 1990, 2824, 6584, 6727, 7508
5702, 3216, 3206, 6332, 6403, 4873, 9303, 9104, 7996, 9304, 7380
5703, 6312, 6377, 6348, 6460, 8480, 8700, 8359, 7479, 9715, 8361
5704, 1094, 1159, 1119, 6356, 2518, 2517, 2333, 8279, 8319, 7657
5705, 6266, 3108, 6450, 6477, 9293, 9295, 6510, 7125, 9717, 9716
5706, 3044, 3027, 3298, 6291, 4283, 4284, 4286, 8600, 8089, 8256
5707, 1085, 6259, 1060, 6395, 9360, 9699, 2342, 9674, 6565, 9542
5708, 1081, 6421, 6388, 6436, 6991, 9194, 9193, 9499, 9718, 9498
5709, 821, 3082, 831, 6324, 9719, 8099, 5574, 9720, 6902, 8100
5710, 6119, 3389, 3148, 6261, 8131, 3868, 8989, 8133, 8132, 8991
5711, 1140, 1127, 1110, 6308, 2592, 2395, 2593, 7083, 8399, 8747
5712, 3102, 3115, 3085, 6308, 4568, 4567, 4369, 8402, 8401, 9493
5713, 3131, 3132, 3130, 6263, 4755, 4754, 4503, 7308, 8675, 8596
5714, 6245, 6372, 6263, 6474, 6943, 7310, 8051, 7190, 8782, 8639
5715, 3179, 3363, 6313, 6415, 4491, 8325, 9721, 9722, 8708, 7878
5716, 6262, 3070, 6462, 6473, 9723, 9332, 9154, 6972, 9114, 9333
5717, 5291, 5267, 5278, 6333, 5457, 5468, 5344, 7069, 8137, 9133
5718, 5037, 986, 1202, 6397, 9724, 1656, 8751, 8752, 8843, 6804
5719, 1225, 1223, 1224, 6311, 2900, 2893, 2901, 8007, 8210, 7269
5720, 2953, 3217, 5045, 6398, 3652, 9725, 9726, 8836, 9622, 9727
5721, 3144, 3187, 3188, 6339, 4586, 4799, 3965, 6729, 6579, 7519
5722, 1245, 1247, 1224, 6327, 1941, 2907, 2895, 6720, 7774, 7270
5723, 3222, 3220, 3199, 6327, 3916, 4870, 4882, 9629, 8081, 8525
5724, 1229, 5038, 978, 6391, 9728, 9729, 1674, 9063, 9730, 9064
5725, 3109, 3306, 3322, 6264, 4683, 4545, 4345, 7196, 9031, 7197
5726, 1331, 1134, 1347, 6264, 2709, 2369, 2571, 9514, 7192, 7191
5727, 3277, 6335, 3250, 6345, 9731, 6785, 4618, 9732, 6780, 6763
5728, 3298, 3102, 3044, 6303, 4371, 4370, 4286, 8418, 9733, 8601
5729, 1127, 1323, 1069, 6303, 2396, 2311, 2394, 9734, 9264, 9263
5730, 1288, 1109, 125, 6482, 2589, 9660, 9658, 9709, 9710, 9735
5731, 1428, 1218, 1191, 6309, 1945, 2857, 2854, 7354, 8913, 9163
5732, 3403, 3166, 3193, 6309, 4830, 4834, 3919, 9187, 8179, 7340
5733, 1251, 6296, 1200, 6359, 7895, 9555, 2645, 7623, 7635, 9461
5734, 676, 6346, 6364, 6401, 9736, 9737, 9738, 9739, 7452, 9740
5735, 5987, 5976, 5977, 3345, 6101, 6042, 6102, 8552, 9231, 8551
5736, 1094, 1036, 1141, 6356, 2232, 2234, 2233, 8279, 6909, 7550
5737, 1188, 6256, 1146, 6394, 9741, 9276, 2749, 9742, 9687, 9476
5738, 1298, 1425, 1046, 6478, 2283, 2282, 1455, 9743, 9122, 9123
5739, 1424, 1167, 1168, 6318, 2817, 2702, 2818, 7967, 7608, 6877
5740, 3143, 3142, 3399, 6318, 4678, 4793, 4792, 9603, 7612, 7969
5741, 1218, 1220, 1312, 6445, 2880, 2882, 2859, 8030, 9078, 9492
5742, 3215, 6333, 6358, 6438, 9172, 7394, 9173, 9744, 7736, 8289
5743, 5993, 1165, 6335, 6435, 9430, 9432, 7780, 6514, 9712, 7066
5744, 3403, 3165, 6309, 6382, 4829, 9422, 9187, 9186, 9423, 8229
5745, 3103, 3112, 6252, 6348, 4470, 8657, 9504, 9745, 8699, 8698
5746, 3161, 3174, 6264, 6374, 4827, 9390, 7126, 8510, 9746, 8509
5747, 1416, 6248, 1273, 6390, 9611, 9610, 2655, 9747, 9749, 9748
5748, 3068, 6313, 3363, 6386, 8570, 8325, 4316, 8571, 6931, 8327
5749, 6347, 6420, 1018, 6475, 6699, 7432, 7456, 9330, 8742, 9205
5750, 1008, 1308, 1259, 6298, 2093, 2095, 2084, 7118, 9229, 8879
5751, 5039, 2963, 5046, 6339, 9750, 9553, 5187, 9751, 9554, 7868
5752, 2972, 3178, 3225, 6276, 4013, 4015, 4004, 9713, 9070, 8726
5753, 997, 1250, 1203, 6276, 2028, 2040, 2039, 7827, 8838, 8215
5754, 2989, 2992, 6287, 6434, 4097, 7982, 9267, 9268, 8816, 7942
5755, 3358, 3316, 3080, 6261, 4554, 4553, 4548, 6906, 8397, 6908
5756, 736, 726, 3300, 3333, 5479, 7566, 7801, 7802, 9752, 4237
5757, 3099, 6304, 6260, 6411, 9753, 7689, 9754, 9755, 9756, 7824
5758, 5842, 2960, 3340, 6459, 9757, 3799, 8706, 8939, 9758, 9395
5759, 3076, 6358, 3214, 6361, 8799, 7541, 4526, 8801, 8802, 8941
5760, 1101, 1239, 6358, 6361, 2551, 7395, 8803, 8805, 8857, 8802
5761, 1206, 881, 1072, 6367, 9759, 9760, 1630, 9761, 9762, 9100
5762, 5269, 5284, 990, 6322, 5359, 9763, 9512, 7721, 9764, 9389
5763, 3207, 2952, 3383, 6413, 3726, 3909, 3911, 9453, 8143, 7646
5764, 3403, 6309, 3193, 6442, 9187, 7340, 3919, 9188, 7341, 7234
5765, 3018, 3401, 3268, 6479, 4241, 4243, 3510, 9220, 9221, 9765
5766, 1124, 6260, 5694, 6393, 9766, 8396, 9434, 9436, 9490, 9438
5767, 6111, 6122, 6113, 6377, 6222, 6237, 6159, 9767, 7926, 9768
5768, 1118, 1081, 1083, 6310, 2456, 2454, 2457, 9049, 7861, 7686
5769, 979, 5058, 5033, 6442, 8559, 5105, 9769, 7910, 7710, 9770
5770, 1260, 1239, 6361, 6363, 2000, 8857, 9771, 9772, 7397, 8858
5771, 3083, 114, 3264, 6480, 9773, 9774, 4561, 9775, 9777, 9776
5772, 1291, 840, 1106, 6481, 9558, 9778, 2581, 9559, 9560, 9779
5773, 5266, 6322, 2965, 6394, 9004, 9005, 9003, 9780, 9182, 9781
5774, 3023, 681, 3380, 6410, 9782, 9783, 3445, 7688, 9784, 6984
5775, 3196, 3199, 3220, 6311, 4868, 4870, 4861, 9454, 8524, 8082
5776, 1224, 1221, 1245, 6311, 2894, 2885, 2895, 7269, 7267, 6732
5777, 3375, 6114, 6132, 6312, 9785, 6183, 9562, 9563, 7179, 8145
5778, 6279, 6369, 6291, 6423, 8091, 8092, 6687, 8438, 8472, 8258
5779, 5697, 5704, 3388, 6315, 5771, 7230, 9786, 8852, 6921, 7231
5780, 3224, 6308, 6418, 6438, 9787, 7142, 9788, 9789, 7652, 9790
5781, 2966, 6106, 3347, 6462, 9240, 9484, 3878, 9791, 9485, 9486
5782, 1077, 1188, 5293, 6256, 1782, 9792, 9102, 8955, 9741, 9103
5783, 1082, 1099, 1083, 6389, 2460, 2459, 2455, 7021, 7239, 7115
5784, 5255, 5263, 5283, 6349, 5441, 5443, 5350, 7574, 9223, 8763
5785, 6105, 6306, 6251, 6307, 9793, 8893, 9530, 9531, 8892, 8891
5786, 5687, 6247, 6408, 6427, 6705, 8523, 9298, 6706, 6665, 9794
5787, 1078, 1334, 1180, 6452, 1483, 2440, 2439, 7538, 9371, 8755
5788, 3309, 3053, 3155, 6451, 3458, 4415, 4414, 9370, 7015, 9625
5789, 6273, 6372, 6255, 6459, 7059, 7873, 6872, 7026, 8335, 7025
5790, 5687, 6408, 5708, 6427, 9298, 9795, 5786, 6706, 9794, 9796
5791, 1216, 6398, 6330, 6405, 9444, 8033, 9118, 9119, 9445, 8831
5792, 3026, 3072, 3073, 6255, 4201, 4278, 4277, 9087, 6792, 7016
5793, 1097, 1051, 1098, 6255, 2227, 2303, 2302, 6534, 6873, 6598
5794, 976, 5289, 1285, 6418, 9797, 9798, 1763, 9255, 9799, 7141
5795, 1374, 6382, 1189, 6397, 9564, 9136, 1978, 9800, 9802, 9801
5796, 3224, 3090, 3085, 6308, 4565, 4373, 4566, 9787, 9466, 9493
5797, 1249, 1110, 1115, 6308, 2590, 2397, 2591, 7649, 8747, 7650
5798, 1200, 6296, 1122, 6395, 9555, 9803, 2346, 9460, 7636, 9804
5799, 3232, 3210, 6383, 6385, 4897, 9412, 9805, 9289, 9807, 9806
5800, 3206, 2997, 3262, 6332, 4137, 4139, 4138, 9303, 7349, 7897
5801, 1231, 1287, 1022, 6332, 2164, 2163, 2161, 7698, 9606, 8500
5802, 1093, 1176, 1142, 6313, 2511, 2510, 2506, 7772, 8992, 7816
5803, 3151, 3068, 3117, 6313, 4485, 4480, 4486, 8995, 8570, 7323
5804, 6355, 6365, 751, 6396, 9808, 9809, 9810, 9811, 9813, 9812
5805, 979, 6354, 1218, 6442, 9156, 8028, 1942, 7910, 7233, 8914
5806, 1273, 1416, 1123, 5983, 2655, 1857, 2653, 9609, 9608, 8058
5807, 1400, 1174, 6113, 6312, 1913, 9814, 9815, 9816, 9817, 7759
5808, 1302, 5981, 1290, 6390, 9574, 9818, 1861, 9532, 9577, 9533
5809, 3339, 3368, 3275, 6453, 4796, 3941, 4650, 7856, 9593, 8228
5810, 785, 6305, 6304, 6393, 9819, 7694, 9820, 9394, 9437, 9821
5811, 979, 5033, 5062, 6442, 9769, 5108, 8974, 7910, 9770, 8918
5812, 3038, 6288, 6421, 6436, 9351, 9822, 9823, 9352, 9353, 9718
5813, 1422, 6125, 6117, 6306, 9824, 6169, 9825, 8512, 9827, 9826
5814, 1266, 860, 1125, 6251, 9338, 9828, 1615, 9495, 9441, 9829
5815, 3171, 3114, 6108, 6317, 3890, 7582, 8633, 6963, 7584, 7583
5816, 5272, 5270, 5252, 6353, 5431, 5430, 5432, 6575, 6934, 8041
5817, 1110, 1070, 6331, 6432, 2393, 9830, 8748, 9831, 9832, 8458
5818, 3061, 6324, 811, 6455, 7437, 9833, 9834, 7438, 7439, 9835
5819, 1072, 876, 6317, 6414, 9334, 9336, 8176, 8275, 9836, 8277
5820, 5691, 5710, 5694, 6260, 5808, 5807, 5804, 9051, 7691, 8396
5821, 3232, 6383, 6284, 6385, 9805, 8164, 9288, 9289, 9806, 6671
5822, 3091, 3246, 3045, 6331, 4376, 4290, 4374, 9543, 8429, 8739
5823, 5044, 5058, 6382, 6442, 5213, 8230, 9837, 9838, 7710, 8231
5824, 5272, 5274, 5270, 6417, 5372, 5449, 5431, 6739, 9009, 7187
5825, 2973, 2974, 2972, 6472, 4012, 4011, 4006, 7219, 9134, 9714
5826, 993, 1032, 995, 6292, 2019, 2018, 2017, 8806, 6843, 9142
5827, 3357, 3052, 3163, 6256, 4412, 3757, 4413, 7641, 7249, 9373
5828, 1077, 1382, 1188, 6256, 2436, 2438, 1782, 8955, 8954, 9741
5829, 1194, 6280, 6340, 6469, 9013, 9012, 7972, 9839, 9120, 9011
5830, 1271, 1116, 1070, 6432, 2401, 2400, 2314, 8457, 9840, 9832
5831, 5968, 5993, 5980, 3140, 6078, 6077, 6054, 7048, 7047, 9429
5832, 3145, 3238, 5714, 6353, 3777, 8182, 9841, 9627, 8183, 7756
5833, 6125, 1125, 860, 6251, 9842, 9828, 6138, 9843, 9829, 9441
5834, 5697, 3388, 3146, 6315, 9786, 3782, 8851, 8852, 7231, 8853
5835, 3235, 6361, 6363, 6413, 8769, 8858, 9844, 8770, 7647, 9845
5836, 3295, 6356, 6296, 6437, 8685, 7771, 8684, 8934, 7555, 8637
5837, 3235, 6361, 3214, 6363, 8769, 8941, 3975, 9844, 8858, 7543
5838, 1189, 6382, 6297, 6397, 9136, 9126, 9135, 9801, 9802, 9595
5839, 5979, 5973, 1165, 5993, 6029, 9711, 9431, 6100, 6099, 9430
5840, 3277, 3250, 3096, 6345, 4618, 4615, 4616, 9732, 6763, 6764
5841, 1154, 1095, 1177, 6360, 2523, 2525, 2524, 8645, 8110, 7884
5842, 3273, 6307, 641, 6463, 9846, 9847, 9167, 9848, 9850, 9849
5843, 6291, 6385, 1053, 6432, 6688, 7114, 7113, 9851, 8768, 9044
5844, 3065, 5845, 3340, 6348, 9852, 8689, 3800, 9853, 8690, 8691
5845, 5692, 5697, 5696, 6315, 5814, 5813, 5745, 7100, 8852, 8723
5846, 1136, 6351, 1135, 6416, 9428, 7489, 2372, 9854, 7815, 8469
5847, 1249, 1285, 1140, 6308, 1931, 2730, 2594, 7649, 7084, 7083
5848, 6122, 6312, 6113, 6377, 8147, 7759, 6237, 7926, 8480, 9768
5849, 1271, 6331, 1116, 6432, 8454, 8073, 2401, 8457, 8458, 9840
5850, 3121, 6275, 6256, 6394, 9279, 7545, 9278, 9855, 9180, 9687
5851, 3090, 6308, 3224, 6438, 9466, 9787, 4565, 9470, 7652, 9789
5852, 877, 6107, 6115, 6127, 9856, 6165, 9857, 9858, 6217, 6216
5853, 1037, 1058, 1092, 6289, 2221, 2239, 2238, 8191, 8505, 9341
5854, 5263, 5276, 3254, 6418, 5405, 9128, 9224, 9225, 9129, 8451
5855, 3093, 6388, 6310, 6421, 8593, 8594, 8435, 9538, 9194, 7687
5856, 3075, 3058, 3251, 6310, 4440, 4442, 4441, 8056, 9692, 6568
5857, 1100, 1276, 1083, 6310, 2467, 2466, 2464, 7400, 6863, 7686
5858, 1263, 5694, 1124, 6260, 8717, 9434, 1801, 7277, 8396, 9766
5859, 1275, 1309, 1121, 6345, 2643, 2642, 2639, 6757, 9698, 6503
5860, 6385, 6431, 6331, 6432, 9274, 9272, 8433, 8768, 9859, 8458
5861, 6111, 1139, 1196, 6317, 9860, 1916, 8771, 8772, 9861, 6913
5862, 6268, 6412, 6369, 6466, 8971, 9068, 7368, 7799, 8255, 9309
5863, 3224, 6418, 6333, 6438, 9788, 9256, 9862, 9789, 9790, 7736
5864, 1260, 6361, 1153, 6413, 9771, 8976, 2545, 9863, 7647, 8978
5865, 3038, 6436, 6421, 6486, 9352, 9718, 9823, 9405, 8967, 9864
5866, 1245, 1219, 1229, 6391, 2886, 2879, 1937, 6718, 7435, 9063
5867, 1422, 6306, 6117, 6419, 8512, 9826, 9825, 8324, 8513, 9865
5868, 2996, 3313, 3000, 6279, 4131, 4135, 4134, 7228, 7227, 9161
5869, 3276, 3337, 6252, 6414, 4657, 9316, 9866, 9867, 9440, 8441
5870, 5257, 1246, 6322, 6394, 9868, 9869, 9870, 9871, 9872, 9182
5871, 1227, 1216, 1339, 6330, 2873, 2870, 2876, 8642, 9118, 8385
5872, 3234, 3005, 3308, 6328, 4060, 4179, 4178, 9280, 8352, 7144
5873, 1030, 1259, 1333, 6328, 2085, 2204, 2203, 7135, 7521, 8119
5874, 3236, 6358, 6425, 6438, 8704, 7375, 8705, 9873, 8289, 8542
5875, 3196, 3197, 3198, 6311, 4862, 4867, 4866, 9454, 8465, 8942
5876, 1221, 1223, 1222, 6311, 2892, 2891, 2888, 7267, 8210, 7505
5877, 6114, 6121, 6131, 6489, 6182, 6213, 6232, 9320, 9321, 9874
5878, 6280, 6439, 3132, 6469, 8533, 9545, 9206, 9120, 8665, 8676
5879, 3403, 3369, 3165, 6382, 3921, 4831, 4829, 9186, 9301, 9423
5880, 1217, 1219, 6354, 6391, 2878, 9015, 8916, 9520, 7435, 9016
5881, 989, 5291, 1238, 6363, 9875, 7071, 1757, 9876, 7072, 7073
5882, 2961, 3299, 3392, 6323, 3956, 3958, 3955, 6551, 6552, 9527
5883, 874, 6116, 884, 6127, 8105, 6841, 966, 9877, 6234, 9878
5884, 1115, 1110, 1070, 6331, 2397, 2393, 2398, 8218, 8748, 9830
5885, 1176, 6323, 6313, 6351, 8993, 7322, 8992, 9879, 9624, 7491
5886, 6313, 6323, 3151, 6351, 7322, 8996, 8995, 7491, 9624, 9880
5887, 650, 640, 641, 6306, 4972, 643, 4975, 8846, 9882, 9881
5888, 6264, 6374, 3174, 6417, 8509, 9746, 9390, 9033, 9516, 9391
5889, 3202, 3199, 6316, 6405, 4880, 8880, 9299, 9300, 8574, 7393
5890, 3396, 5698, 6304, 6422, 9547, 9548, 8566, 8246, 9883, 8567
5891, 3328, 3073, 3285, 6268, 4512, 4506, 4515, 9663, 7080, 6994
5892, 1353, 1310, 1098, 6268, 2540, 2532, 2537, 6796, 6531, 6597
5893, 3007, 3332, 2968, 6470, 3995, 3935, 3993, 9246, 9591, 9447
5894, 5827, 5847, 5841, 6367, 5924, 5916, 5930, 9582, 9319, 9602
5895, 2992, 2990, 2989, 6287, 4096, 4092, 4097, 7982, 7696, 9267
5896, 1015, 1017, 1014, 6287, 2122, 2121, 2116, 6635, 7978, 7938
5897, 1187, 1323, 6303, 6423, 2321, 9264, 6770, 9439, 9265, 8419
5898, 3035, 3036, 3037, 6362, 4173, 4323, 4322, 6619, 8746, 7640
5899, 1229, 978, 1245, 6327, 1674, 1938, 1937, 9062, 9061, 6720
5900, 3349, 3164, 6382, 6397, 3952, 9884, 9885, 9886, 9656, 9802
5901, 1263, 6260, 1124, 6393, 7277, 9766, 1801, 9489, 9490, 9436
5902, 1414, 6120, 1173, 6416, 9887, 8986, 1893, 9888, 9890, 9889
5903, 3175, 3225, 6359, 6444, 4836, 8727, 7155, 9891, 9892, 7626
5904, 1322, 1340, 6350, 6454, 2866, 9893, 9381, 9383, 9894, 9384
5905, 1371, 6395, 6296, 6437, 9673, 7636, 9517, 7847, 9197, 8637
5906, 5043, 2953, 5045, 6398, 8834, 9726, 5172, 8835, 8836, 9727
5907, 1271, 1280, 1116, 6301, 2620, 2619, 2401, 8455, 7060, 8817
5908, 1090, 1128, 1137, 6348, 1600, 2496, 2495, 7818, 8758, 9386
5909, 1399, 6244, 1342, 6402, 6542, 9895, 2687, 7678, 6643, 9896
5910, 1206, 1072, 1301, 6367, 1630, 2408, 2407, 9761, 9100, 9099
5911, 1156, 6340, 1278, 6372, 9171, 9897, 2786, 8779, 7311, 9570
5912, 5689, 1392, 5588, 5702, 9898, 9899, 9900, 5733, 9902, 9901
5913, 6106, 6269, 6131, 6462, 7894, 9903, 6214, 9485, 8196, 9598
5914, 3066, 5971, 3335, 6254, 7576, 8194, 3850, 7605, 7481, 8193
5915, 5267, 3213, 2951, 6333, 8461, 3735, 9904, 8137, 7737, 9905
5916, 1075, 1062, 1281, 6337, 2360, 2349, 2361, 8865, 8336, 7498
5917, 3037, 3050, 3256, 6337, 4334, 4336, 4325, 7639, 8867, 7213
5918, 5050, 3080, 5036, 6371, 7880, 9906, 5145, 7961, 7962, 9907
5919, 3080, 6261, 3316, 6371, 6908, 8397, 4553, 7962, 6634, 9487
5920, 1422, 1299, 6125, 6306, 1926, 9908, 9824, 8512, 9909, 9827
5921, 5972, 5589, 5978, 5991, 9910, 9911, 6014, 6095, 9912, 6096
5922, 1284, 6322, 1246, 6394, 7618, 9869, 2004, 9181, 9182, 9872
5923, 3350, 3314, 3088, 6300, 4583, 4582, 4574, 6491, 7453, 7510
5924, 1375, 1113, 1339, 6300, 2600, 2606, 2608, 6783, 9549, 8936
5925, 3228, 6403, 6325, 6434, 9569, 6708, 9568, 9690, 6711, 6712
5926, 983, 5259, 1198, 6453, 9913, 9914, 1772, 9313, 9915, 8588
5927, 5583, 6272, 5592, 6448, 9916, 8413, 5672, 9917, 8416, 8417
5928, 830, 5598, 1302, 6390, 5603, 9575, 9918, 9204, 9576, 9532
5929, 6129, 871, 888, 6419, 9919, 904, 9920, 9921, 9923, 9922
5930, 1217, 1229, 1219, 6391, 1671, 2879, 2878, 9520, 9063, 7435
5931, 1360, 5975, 1091, 6254, 8606, 9924, 1875, 8672, 7836, 9925
5932, 5976, 3104, 3345, 6272, 6869, 3845, 9231, 6868, 6641, 8828
5933, 3231, 3187, 3089, 6341, 4377, 4587, 4356, 8548, 6582, 7477
5934, 1129, 5969, 1370, 6272, 9053, 9926, 1870, 8540, 9052, 9927
5935, 1256, 1114, 1212, 6341, 2381, 2611, 2403, 8545, 7468, 6586
5936, 1076, 1325, 1358, 725, 2432, 2262, 1556, 6682, 6681, 9928
5937, 726, 3051, 3300, 3333, 7567, 4408, 7566, 9752, 3531, 4237
5938, 1269, 6273, 1365, 6460, 9929, 7204, 2499, 9511, 8108, 8106
5939, 3036, 6288, 6362, 6426, 8744, 8549, 8746, 9930, 7462, 7622
5940, 6117, 6129, 888, 6419, 6219, 9920, 9931, 9865, 9921, 9922
5941, 3340, 6273, 3244, 6348, 8688, 7811, 4474, 8691, 7820, 8839
5942, 976, 6333, 5289, 6418, 9253, 9932, 9797, 9255, 9256, 9799
5943, 1214, 1215, 1216, 6330, 1949, 2868, 2867, 9092, 7594, 9118
5944, 3190, 3189, 3191, 6330, 3925, 4843, 4842, 6833, 8032, 9076
5945, 1146, 1145, 1084, 6275, 2469, 1837, 2470, 9277, 7638, 8719
5946, 3120, 3121, 3059, 6275, 4445, 4444, 3811, 7637, 9279, 7854
5947, 5715, 5697, 5692, 6315, 5815, 5814, 5811, 7547, 8852, 7100
5948, 5837, 5851, 6321, 6468, 5954, 9145, 7902, 7904, 9933, 7474
5949, 6388, 6421, 6288, 6436, 9194, 9822, 7712, 9498, 9718, 9353
5950, 1120, 1330, 1361, 6408, 2636, 2638, 2336, 9138, 6750, 8522
5951, 3305, 3095, 3336, 6408, 4612, 4311, 4613, 6755, 9420, 9587
5952, 3222, 6398, 6327, 6405, 9934, 8837, 9629, 9630, 9445, 7272
5953, 5041, 3176, 5068, 6464, 9270, 9935, 5181, 9271, 7989, 9936
5954, 5271, 6256, 1188, 6394, 9937, 9741, 9938, 9939, 9687, 9742
5955, 1316, 1154, 1177, 6360, 2777, 2524, 2778, 7883, 8645, 7884
5956, 741, 3318, 3321, 6396, 9940, 3465, 9941, 9942, 7022, 8670
5957, 1207, 1306, 1027, 6366, 2190, 2189, 2140, 8155, 7843, 7376
5958, 1060, 6259, 1281, 6362, 9699, 7499, 2350, 9541, 6620, 7596
5959, 6296, 6395, 3097, 6437, 7636, 7427, 7634, 8637, 9197, 9198
5960, 3234, 3201, 3284, 6328, 4889, 4888, 4070, 9280, 9943, 8877
5961, 6120, 6261, 1173, 6416, 8987, 8988, 8986, 9890, 8135, 9889
5962, 1123, 1180, 1181, 6365, 1607, 2650, 2649, 8787, 8788, 9944
5963, 6301, 6383, 3210, 6385, 6893, 9412, 9411, 8205, 9806, 9807
5964, 1330, 1342, 1399, 6244, 2637, 2687, 2950, 6748, 9895, 6542
5965, 3317, 3305, 3374, 6244, 4611, 4925, 4662, 7433, 6754, 6538
5966, 6333, 6418, 6308, 6438, 9256, 7142, 7735, 7736, 9790, 7652
5967, 1224, 1227, 1225, 6316, 2906, 2905, 2901, 7391, 7891, 8008
5968, 3200, 3202, 3199, 6316, 4881, 4880, 4875, 9583, 9299, 8880
5969, 6328, 6400, 1226, 6433, 8878, 9369, 8649, 8406, 8628, 8518
5970, 5696, 6315, 5697, 6353, 8723, 8852, 5813, 8622, 6576, 8855
5971, 3145, 3356, 3153, 6353, 4800, 4542, 4404, 9627, 8109, 6577
5972, 2963, 6339, 5039, 6464, 9554, 9751, 9750, 9945, 8931, 9946
5973, 6289, 6357, 3012, 6386, 8188, 8189, 8187, 8506, 9151, 9947
5974, 3008, 3001, 3228, 6325, 4157, 4159, 4158, 7293, 9342, 9568
5975, 1253, 1026, 1033, 6325, 2183, 2181, 2184, 7045, 6707, 7295
5976, 3132, 3169, 3364, 6280, 4766, 4143, 4765, 9206, 9571, 9653
5977, 3071, 3129, 3070, 6360, 4498, 4497, 4302, 9111, 9324, 9112
5978, 5840, 5841, 875, 6367, 5929, 9948, 9949, 9950, 9602, 9951
5979, 1116, 6331, 1070, 6432, 8073, 9830, 2400, 9840, 8458, 9832
5980, 1371, 6428, 6259, 6437, 9677, 8556, 9359, 7847, 8305, 8558
5981, 2961, 6323, 3392, 6397, 6551, 9527, 3955, 7559, 6806, 9594
5982, 3117, 3067, 3118, 6297, 4481, 4483, 4482, 7528, 9521, 8815
5983, 1092, 1142, 1143, 6297, 2505, 2508, 2507, 8924, 8923, 8812
5984, 1219, 1221, 1220, 6399, 2884, 2883, 2881, 7436, 7268, 8017
5985, 3266, 3281, 5698, 5597, 3765, 9952, 9953, 9954, 9956, 9955
5986, 3358, 3147, 6261, 6352, 4803, 9228, 6906, 8560, 9385, 6613
5987, 1218, 1191, 6309, 6445, 2857, 9163, 8913, 8030, 9164, 7342
5988, 2974, 6276, 2972, 6472, 6956, 9713, 4011, 9134, 7220, 9714
5989, 6267, 6421, 1081, 6436, 6993, 6991, 6988, 9957, 9718, 9499
5990, 1247, 6327, 6398, 6405, 7774, 8837, 9443, 7775, 7272, 9445
5991, 3101, 6329, 3247, 6346, 9670, 9688, 4646, 7448, 8174, 9958
5992, 1333, 6316, 1228, 6381, 8940, 9242, 2912, 8121, 7246, 9243
5993, 1041, 765, 1403, 6393, 9959, 9960, 1544, 7218, 9961, 8265
5994, 1174, 6113, 6312, 6377, 9814, 7759, 9817, 9962, 9768, 8480
5995, 6323, 6351, 1332, 6371, 9624, 9963, 9667, 6967, 9488, 9668
5996, 875, 5840, 5854, 5841, 9949, 5961, 9964, 9948, 5929, 5938
5997, 6350, 6368, 6326, 6454, 7732, 8478, 8475, 9384, 8953, 8712
5998, 6115, 6107, 877, 1391, 6165, 9856, 9857, 9965, 9967, 9966
5999, 3286, 3088, 3203, 6381, 4573, 4580, 4579, 7404, 7511, 7581
6000, 1178, 1076, 5292, 6353, 1730, 9212, 9968, 7866, 8064, 9213
6001, 3043, 3009, 3033, 6289, 4198, 4196, 4199, 7971, 7992, 9083
6002, 1034, 1068, 1058, 6289, 2224, 2223, 2222, 6879, 7259, 8505
6003, 995, 1250, 997, 6292, 2029, 2028, 2027, 9142, 8368, 8609
6004, 1247, 6327, 978, 6398, 7774, 9061, 1939, 9443, 8837, 9969
6005, 3103, 6252, 851, 6348, 9504, 9505, 9503, 9745, 8698, 9970
6006, 873, 3404, 6317, 6414, 9971, 9463, 6964, 9972, 9464, 8277
6007, 5699, 5711, 5600, 6422, 5795, 9973, 9974, 9975, 9977, 9976
6008, 5284, 5257, 990, 6322, 5362, 9978, 9763, 9764, 9870, 9389
6009, 3197, 3216, 3206, 6332, 4864, 4873, 4874, 8463, 9104, 9303
6010, 1241, 1222, 1231, 6332, 2890, 2898, 2899, 7379, 8951, 7698
6011, 3151, 3355, 6313, 6351, 4488, 7627, 8995, 9880, 7628, 7491
6012, 1380, 1176, 6313, 6351, 2512, 8992, 7629, 7630, 9879, 7491
6013, 1131, 1133, 1132, 6266, 2693, 2692, 2689, 6508, 6807, 7670
6014, 6263, 6319, 1155, 6469, 8001, 8000, 8002, 8647, 8648, 9979
6015, 3007, 6292, 6444, 6470, 9980, 7332, 9244, 9246, 9418, 9247
6016, 1189, 1190, 1143, 6297, 2740, 2739, 2735, 9135, 9125, 8812
6017, 6337, 6343, 1075, 6457, 7502, 8866, 8865, 8394, 9096, 9419
6018, 3382, 3140, 3327, 6271, 3860, 4787, 3990, 8697, 7504, 8222
6019, 1376, 1102, 6273, 6372, 2556, 8292, 8370, 8372, 9410, 7059
6020, 3273, 6307, 3243, 6410, 9846, 9981, 4919, 6546, 8895, 8572
6021, 1183, 1184, 1126, 6364, 2667, 2666, 1841, 9109, 9982, 8269
6022, 3138, 6259, 3256, 6343, 8679, 7215, 4402, 8036, 7501, 7503
6023, 3140, 3141, 3288, 6435, 4359, 4786, 4785, 7049, 9666, 9089
6024, 1126, 1272, 1415, 6257, 2670, 2672, 1847, 9209, 9983, 8575
6025, 3101, 6346, 3160, 6401, 7448, 9984, 4644, 7451, 7452, 9985
6026, 5257, 1246, 990, 6322, 9868, 1778, 9978, 9870, 9869, 9389
6027, 6308, 6431, 6331, 6438, 9468, 9272, 8217, 7652, 9469, 8219
6028, 5843, 5842, 6273, 6459, 5926, 8707, 8295, 9116, 8939, 7026
6029, 1413, 5692, 1171, 6315, 7523, 8767, 1807, 7524, 7100, 8722
6030, 889, 6471, 5849, 6482, 9986, 9987, 9988, 9989, 9991, 9990
6031, 1326, 745, 1042, 6393, 7998, 7999, 2260, 8152, 8356, 8154
6032, 1302, 1107, 830, 6390, 1515, 9992, 9918, 9532, 8614, 9204
6033, 5032, 5052, 5069, 6250, 5207, 5194, 5202, 8184, 9259, 7526
6034, 5274, 3153, 3079, 6417, 9008, 3708, 9993, 9009, 6740, 9195
6035, 5034, 5056, 6373, 6398, 5215, 8203, 9994, 9995, 8204, 8035
6036, 3320, 686, 3319, 6401, 9996, 9997, 3545, 8899, 9998, 7122
6037, 3067, 6297, 3117, 6386, 9521, 7528, 4481, 9678, 7530, 7324
6038, 2952, 5275, 5264, 6458, 8141, 5387, 9999, 8442, 8322, 10000
6039, 5050, 5071, 3154, 6352, 5142, 10001, 7803, 6950, 10002, 7804
6040, 3316, 3148, 3389, 6261, 4805, 3868, 4351, 8397, 8991, 8132
6041, 1325, 1358, 725, 735, 2262, 9928, 6681, 7927, 8320, 5477
6042, 1327, 1267, 6404, 6430, 2937, 10003, 8926, 8630, 10004, 8927
6043, 5834, 878, 5840, 5854, 10005, 10006, 5890, 5960, 10007, 5961
6044, 5273, 3163, 6256, 6394, 9481, 9373, 9482, 10008, 10009, 9687
6045, 5691, 6260, 3099, 6304, 9051, 9754, 10010, 8734, 7689, 9753
6046, 5281, 6368, 1208, 6454, 9683, 9684, 9682, 10011, 8953, 10012
6047, 3178, 6359, 6276, 6379, 9071, 8728, 9070, 10013, 8330, 8118
6048, 6125, 1125, 6251, 6306, 9842, 9829, 9843, 9827, 10014, 8893
6049, 5702, 5588, 5689, 5712, 9901, 9900, 5733, 5796, 10015, 5797
6050, 3244, 3077, 3351, 6273, 4530, 4532, 4531, 7811, 7862, 7057
6051, 3183, 5268, 2962, 6454, 10016, 10017, 3717, 8921, 10018, 8711
6052, 1097, 6265, 1130, 6370, 6535, 9325, 2229, 8750, 6980, 10019
6053, 3161, 3109, 3137, 6264, 4681, 4596, 4682, 7126, 7196, 7127
6054, 1134, 1186, 1162, 6264, 2707, 2706, 2622, 7192, 7132, 7131
6055, 2952, 5264, 3185, 6458, 9999, 10020, 3723, 8442, 10000, 9400
6056, 2964, 5286, 3207, 6363, 10021, 10022, 3729, 10023, 10025, 10024
6057, 2966, 6269, 6106, 6462, 9241, 7894, 9240, 9791, 8196, 9485
6058, 3154, 5071, 3054, 6352, 10001, 10026, 3622, 7804, 10002, 10027
6059, 5581, 5600, 5711, 6422, 5663, 9973, 10028, 10029, 9976, 9977
6060, 6248, 6324, 800, 6390, 10030, 10031, 10032, 9749, 8301, 10033
6061, 1419, 775, 1041, 6393, 10034, 10035, 1541, 6742, 10036, 7218
6062, 5271, 1188, 1246, 6394, 9938, 1781, 10037, 9939, 9742, 9872
6063, 5052, 3167, 5069, 6250, 9258, 9700, 5194, 9259, 9260, 7526
6064, 3171, 3404, 3343, 6317, 3613, 4386, 4704, 6963, 9463, 9462
6065, 1196, 1368, 1429, 6317, 2729, 2411, 1638, 6913, 8177, 8178
6066, 5850, 6257, 5831, 6482, 9679, 9073, 5949, 10038, 8580, 9074
6067, 3258, 3337, 3181, 6367, 3828, 4838, 3602, 9601, 9317, 9639
6068, 6243, 3102, 6308, 6349, 10039, 8402, 10040, 10041, 8403, 7087
6069, 6292, 6359, 3225, 6444, 7624, 8727, 8725, 7332, 7626, 9892
6070, 3396, 3266, 5698, 6422, 3770, 9953, 9547, 8246, 7717, 9883
6071, 1127, 6243, 6308, 6349, 10042, 10040, 8399, 8400, 10041, 7087
6072, 1120, 6247, 1119, 6456, 9139, 7297, 2335, 9140, 7301, 7299
6073, 6246, 6443, 6258, 6465, 7175, 8381, 6816, 6521, 8829, 6817
6074, 5983, 6248, 1416, 6390, 8062, 9611, 9608, 10043, 9749, 9747
6075, 5065, 1197, 988, 6339, 8963, 1692, 10044, 8964, 7514, 9457
6076, 1415, 1149, 1288, 6424, 2762, 2588, 1848, 8577, 10045, 9707
6077, 3336, 3095, 3032, 6247, 4311, 4310, 3795, 9586, 9585, 10046
6078, 3221, 5266, 2965, 6394, 10047, 9003, 3753, 10048, 9780, 9781
6079, 1045, 690, 1359, 6430, 10049, 10050, 1473, 8629, 10051, 8631
6080, 5977, 3257, 5593, 6448, 9408, 10052, 9617, 8555, 9409, 9618
6081, 5041, 5042, 6373, 6464, 5238, 9183, 9269, 9271, 9185, 7991
6082, 1140, 1300, 1127, 6349, 2674, 2673, 2592, 7085, 7921, 8400
6083, 3275, 3115, 3102, 6349, 4648, 4568, 4649, 8227, 8404, 8403
6084, 5581, 840, 5600, 6422, 5662, 5606, 5663, 10029, 9557, 9976
6085, 1192, 5072, 1078, 6250, 10053, 7535, 1699, 9368, 8049, 8502
6086, 5279, 5266, 5269, 6322, 5414, 5470, 5460, 7411, 9004, 7721
6087, 1093, 1092, 1058, 6386, 2339, 2239, 2340, 7773, 8925, 7117
6088, 3171, 873, 3404, 6317, 6735, 9971, 3613, 6963, 6964, 9463
6089, 5064, 978, 5038, 6391, 9147, 9729, 5114, 9148, 9064, 9730
6090, 3191, 3189, 3217, 6398, 4843, 3655, 4844, 9077, 8034, 9622
6091, 1238, 5278, 976, 6333, 9132, 10054, 1760, 7070, 9133, 9253
6092, 1119, 1120, 1057, 6247, 2335, 2334, 2332, 7297, 9139, 6660
6093, 1104, 1331, 1347, 6417, 2568, 2571, 2570, 8283, 9515, 10055
6094, 3138, 3342, 3256, 6259, 4779, 4452, 4402, 8679, 8557, 7215
6095, 882, 875, 5841, 6367, 962, 9948, 9705, 9706, 9951, 9602
6096, 3337, 5847, 3103, 6252, 9314, 9502, 3577, 9316, 9315, 9504
6097, 5846, 1362, 1128, 6252, 10056, 1602, 9506, 9507, 10057, 8889
6098, 1193, 1278, 6340, 6372, 2787, 9897, 7944, 9537, 9570, 7311
6099, 3207, 5286, 5262, 6363, 10022, 5393, 10058, 10024, 10025, 10059
6100, 1201, 6283, 5042, 6464, 9084, 9184, 9226, 9331, 7990, 9185
6101, 5851, 5836, 6321, 6468, 5942, 8347, 9145, 9933, 8273, 7474
6102, 3170, 3113, 5707, 6286, 3759, 7723, 10060, 10061, 7287, 7724
6103, 3150, 6317, 3343, 6414, 8972, 9462, 4702, 9214, 8277, 9465
6104, 1341, 6351, 6261, 6371, 10062, 9348, 10063, 10064, 9488, 6634
6105, 1263, 1264, 1325, 6393, 2656, 2929, 2433, 9489, 10065, 8153
6106, 3276, 3181, 3337, 6414, 4383, 4838, 4657, 9867, 9640, 9440
6107, 3350, 3190, 3314, 6330, 4847, 4845, 4583, 6497, 6833, 7242
6108, 1375, 1339, 1215, 6330, 2608, 2871, 2872, 6890, 8385, 7594
6109, 6297, 6323, 1417, 6397, 7529, 9529, 9528, 9595, 6806, 10066
6110, 1139, 6317, 6111, 6377, 9861, 8772, 9860, 10067, 7586, 9767
6111, 1178, 5292, 5270, 6353, 9968, 5310, 7865, 7866, 9213, 6934
6112, 5285, 2962, 5268, 6454, 8818, 10017, 5381, 8820, 8711, 10018
6113, 3349, 2961, 3164, 6397, 3634, 3953, 3952, 9886, 7559, 9656
6114, 3216, 3025, 3228, 6325, 4273, 4195, 4272, 7994, 7255, 9568
6115, 1253, 1050, 1241, 6325, 2220, 2297, 2298, 7045, 8025, 7088
6116, 6331, 6431, 3090, 6438, 9272, 9467, 10068, 8219, 9469, 9470
6117, 1091, 6254, 5975, 6402, 9925, 7836, 9924, 10069, 7604, 10070
6118, 5843, 6370, 5853, 6459, 8296, 8516, 5958, 9116, 7027, 8650
6119, 5992, 5982, 831, 5599, 6073, 8298, 8616, 10071, 10072, 5609
6120, 3164, 6297, 3118, 6382, 9655, 8815, 4711, 9884, 9126, 9284
6121, 1371, 6253, 6428, 6437, 8561, 7591, 9677, 7847, 7554, 8305
6122, 1269, 1376, 6273, 6460, 2557, 8370, 9929, 9511, 8765, 8108
6123, 836, 841, 3081, 6422, 5685, 9648, 7946, 8425, 9650, 7715
6124, 6350, 6368, 1340, 6458, 7732, 10073, 9893, 7705, 7733, 10074
6125, 641, 651, 650, 6306, 4974, 653, 4975, 9881, 9651, 8846
6126, 1122, 1200, 1251, 6296, 2346, 2645, 2644, 9803, 9555, 7895
6127, 119, 1108, 113, 6419, 7950, 9694, 866, 8409, 7791, 9696
6128, 1408, 1260, 1153, 6413, 2774, 2545, 2773, 9552, 9863, 8978
6129, 3087, 3041, 3089, 6341, 4353, 4355, 4354, 6919, 7984, 7477
6130, 1114, 1066, 1112, 6341, 2379, 2377, 2380, 7468, 7986, 6917
6131, 1195, 5706, 1138, 6286, 10075, 7808, 1785, 10076, 7809, 7289
6132, 1415, 6257, 1272, 6424, 8575, 9983, 2672, 8577, 8576, 10077
6133, 1261, 1115, 1116, 6331, 2613, 2399, 2614, 7372, 8218, 8073
6134, 1146, 1284, 1246, 6394, 2753, 2004, 2752, 9476, 9181, 9872
6135, 1383, 1341, 6261, 6371, 2579, 10063, 6986, 6987, 10064, 6634
6136, 5711, 5698, 5597, 6422, 5816, 9955, 10078, 9977, 9883, 10079
6137, 5262, 3207, 6363, 6413, 10058, 10024, 10059, 10080, 9453, 9845
6138, 3284, 3201, 3262, 6433, 4888, 4879, 4140, 9596, 10081, 9597
6139, 1188, 1146, 1246, 6394, 2749, 2752, 1781, 9742, 9476, 9872
6140, 3360, 3053, 3167, 6250, 4417, 3674, 4418, 9374, 7864, 9260
6141, 6111, 6113, 1174, 6377, 6159, 9814, 10082, 9767, 9768, 9962
6142, 3198, 6332, 3262, 6433, 8943, 7897, 4871, 8944, 8569, 9597
6143, 3323, 3061, 801, 6455, 3483, 10083, 10084, 8984, 7438, 10085
6144, 1291, 1305, 1106, 840, 1789, 1520, 2581, 9558, 10086, 9778
6145, 3044, 6243, 6291, 6303, 10087, 10088, 8600, 8601, 10089, 8424
6146, 5696, 1170, 1171, 6353, 10090, 1806, 8721, 8622, 10091, 8724
6147, 3030, 6114, 3375, 6312, 7177, 9785, 3883, 7051, 7179, 9563
6148, 3356, 6315, 3322, 6417, 7333, 7313, 4547, 7334, 6741, 9034
6149, 3327, 3288, 3046, 6299, 4381, 4380, 4000, 8223, 7832, 6776
6150, 1385, 1192, 1078, 6250, 2443, 1699, 2441, 9376, 9368, 8502
6151, 5992, 5582, 5972, 5967, 8634, 10092, 6098, 6072, 10094, 10093
6152, 1196, 6115, 874, 1391, 6691, 6690, 6689, 1637, 9965, 10095
6153, 2998, 6280, 6347, 6439, 7557, 9098, 9433, 10096, 8533, 8663
6154, 1156, 6340, 6263, 6469, 9171, 7307, 8780, 10097, 9011, 8647
6155, 3046, 3187, 3231, 6299, 4378, 4377, 4010, 6776, 6580, 8547
6156, 3012, 3009, 3008, 6289, 4191, 4162, 4192, 8187, 7992, 7283
6157, 1037, 1033, 1034, 6289, 2216, 2186, 2217, 8191, 6880, 6879
6158, 1256, 1212, 1071, 6299, 2403, 2402, 2035, 8543, 6585, 8598
6159, 3287, 3166, 3233, 6445, 4833, 4718, 4276, 8078, 8180, 8738
6160, 3161, 3405, 3174, 6374, 4781, 3960, 4827, 8510, 8795, 9746
6161, 1086, 820, 1107, 6390, 10098, 10099, 1512, 8615, 10100, 8614
6162, 5262, 5275, 3207, 6413, 5390, 9452, 10058, 10080, 8142, 9453
6163, 1330, 1342, 6244, 6456, 2637, 9895, 6748, 9427, 10101, 9426
6164, 831, 5582, 5992, 5599, 5658, 8634, 8616, 5609, 5660, 10071
6165, 826, 836, 3330, 3127, 5579, 7945, 7386, 7387, 7947, 4465
6166, 119, 165, 1354, 1150, 974, 7388, 7948, 7949, 7390, 2494
6167, 1199, 6374, 1331, 6417, 10102, 9513, 2569, 10103, 9516, 9515
6168, 1208, 1210, 1340, 6368, 1745, 2865, 2864, 9684, 9685, 10073
6169, 1348, 800, 1086, 6406, 10104, 10105, 1508, 8550, 10106, 7680
6170, 978, 6327, 5064, 6398, 9061, 9146, 9147, 9969, 8837, 10107
6171, 1247, 978, 1242, 6398, 1939, 1677, 1940, 9443, 9969, 10108
6172, 3178, 6276, 2974, 6379, 9070, 6956, 4014, 10013, 8118, 8259
6173, 5842, 5826, 5843, 6273, 5925, 5927, 5926, 8707, 8677, 8295
6174, 2975, 2976, 2974, 6449, 4022, 4021, 4016, 9055, 8826, 8448
6175, 1063, 1081, 1244, 6436, 2364, 2366, 2355, 9363, 9499, 9497
6176, 3235, 6363, 3207, 6413, 9844, 10024, 3972, 8770, 9845, 9453
6177, 165, 6306, 1150, 6419, 9157, 7600, 7390, 10109, 8513, 7790
6178, 5982, 831, 5599, 3278, 8298, 5609, 10072, 9661, 9657, 10110
6179, 1289, 1422, 6117, 6419, 1925, 9825, 10111, 7792, 8324, 9865
6180, 1304, 886, 5831, 6482, 10112, 10113, 10114, 10115, 10116, 9074
6181, 3172, 6339, 3188, 6345, 9036, 7519, 3969, 9037, 7509, 7520
6182, 3087, 3088, 3086, 6300, 4571, 4570, 4352, 6918, 7510, 6766
6183, 1113, 1112, 1111, 6300, 2595, 2378, 2596, 9549, 6916, 8232
6184, 1063, 1244, 6288, 6436, 2355, 8862, 9361, 9363, 9497, 9353
6185, 5065, 5039, 5046, 6339, 5235, 5187, 5237, 8964, 9751, 7868
6186, 3150, 3276, 6252, 6414, 4656, 9866, 8656, 9214, 9867, 8441
6187, 860, 6123, 6104, 6352, 6137, 6201, 6198, 9199, 7936, 7937
6188, 2955, 5056, 3189, 6373, 10117, 8202, 3658, 8151, 8203, 8031
6189, 886, 1304, 5831, 5834, 10112, 10114, 10113, 10118, 10119, 5887
6190, 1197, 1213, 6339, 6345, 1994, 7508, 7514, 7517, 7265, 7509
6191, 1340, 6368, 6350, 6454, 10073, 7732, 9893, 9894, 8953, 9384
6192, 3134, 3226, 6296, 6444, 4772, 10120, 7770, 8793, 10121, 7896
6193, 5049, 5057, 5052, 6250, 5222, 5193, 5208, 7860, 6703, 9259
6194, 731, 6365, 6270, 6396, 10122, 8789, 10123, 10124, 9813, 8490
6195, 1363, 1074, 1075, 6337, 2417, 2359, 2418, 8392, 8492, 8865
6196, 1395, 1182, 1318, 6407, 2842, 2835, 2243, 10125, 10127, 10126
6197, 6324, 6355, 791, 6455, 10128, 10129, 10130, 7439, 10132, 10131
6198, 1110, 6308, 6243, 6331, 8747, 10040, 10133, 8748, 8217, 10134
6199, 1287, 1222, 1223, 6332, 2896, 2891, 2897, 9606, 8951, 8568
6200, 3198, 3197, 3262, 6332, 4867, 4872, 4871, 8943, 8463, 7897
6201, 6114, 6131, 6109, 6489, 6232, 6229, 6230, 9320, 9874, 9311
6202, 785, 6304, 786, 6393, 9820, 10135, 788, 9394, 9821, 10136
6203, 5836, 5831, 5850, 6257, 5884, 5949, 5948, 9000, 9073, 9679
6204, 5031, 5071, 5050, 6352, 5198, 5142, 5203, 8840, 10002, 6950
6205, 3339, 6303, 3162, 6477, 7763, 8998, 4794, 9344, 6773, 9401
6206, 3397, 3264, 6118, 6480, 3899, 10137, 9190, 10138, 9776, 10139
6207, 1363, 1103, 1074, 6350, 2421, 2420, 2417, 8390, 9475, 8491
6208, 716, 715, 5253, 6321, 718, 5423, 5422, 8999, 7578, 7382
6209, 5689, 5600, 1305, 5699, 10140, 10141, 10142, 5736, 9974, 10143
6210, 1214, 5034, 6373, 6398, 10144, 9994, 9091, 9093, 9995, 8035
6211, 3055, 3038, 6421, 6486, 4338, 9823, 10145, 10146, 9405, 9864
6212, 3291, 6360, 6249, 6415, 9106, 7958, 9105, 10147, 7887, 7959
6213, 850, 5827, 5846, 6252, 5919, 5922, 5860, 8888, 9581, 9507
6214, 851, 5847, 5827, 6252, 5866, 5924, 5920, 9505, 9315, 9581
6215, 3042, 3140, 5980, 6335, 3859, 9429, 7844, 7845, 7781, 7363
6216, 5061, 3349, 6382, 6397, 10148, 9885, 10149, 10150, 9886, 9802
6217, 5711, 5689, 5581, 5693, 5794, 10151, 10028, 5817, 10153, 10152
6218, 1328, 1045, 1327, 6404, 2275, 2274, 2276, 6628, 7377, 8926
6219, 1162, 1163, 1117, 6343, 2423, 2623, 2621, 7327, 9671, 8692
6220, 3138, 3137, 3092, 6343, 4398, 4597, 4598, 8036, 7329, 9022
6221, 5292, 5252, 5270, 6353, 5428, 5430, 5310, 9213, 8041, 6934
6222, 1180, 6270, 1334, 6365, 8754, 8241, 2440, 8788, 8789, 9130
6223, 1406, 1328, 1044, 6404, 2272, 2269, 1464, 6630, 6628, 10154
6224, 5711, 5597, 5581, 6422, 10078, 5664, 10028, 9977, 10079, 10029
6225, 3305, 6244, 3317, 6461, 6754, 7433, 4611, 9416, 6758, 7434
6226, 1258, 1050, 6357, 6445, 2236, 8856, 9566, 9567, 8026, 7633
6227, 6254, 6443, 3261, 6461, 7484, 8503, 10155, 7606, 7176, 8504
6228, 5843, 5853, 5842, 6459, 5958, 5934, 5926, 9116, 8650, 8939
6229, 3293, 3321, 6396, 6440, 4216, 8670, 8671, 10156, 10158, 10157
6230, 1210, 6368, 5281, 6458, 9685, 9683, 9681, 10159, 7733, 10160
6231, 6332, 6400, 3262, 6433, 7351, 7898, 7897, 8569, 8628, 9597
6232, 3301, 3300, 3017, 6411, 4234, 4236, 4235, 6800, 7822, 7431
6233, 3078, 3186, 3315, 6350, 4538, 4537, 4536, 8975, 7700, 9424
6234, 3101, 5832, 3390, 6329, 8602, 10161, 3821, 9670, 8173, 9689
6235, 1376, 1148, 1255, 6245, 2757, 2331, 2758, 8371, 7188, 9366
6236, 3123, 3351, 3230, 6245, 4733, 4732, 4306, 7296, 7055, 7445
6237, 3028, 3045, 6385, 6431, 4287, 8740, 9291, 10162, 9273, 9274
6238, 851, 5827, 850, 6252, 5920, 5919, 853, 9505, 9581, 8888
6239, 5969, 5990, 6272, 6402, 6080, 8529, 9052, 9054, 7173, 6645
6240, 1295, 1151, 1273, 6406, 2482, 2766, 2767, 7681, 7679, 10163
6241, 5829, 5834, 870, 5849, 10164, 10165, 10166, 5936, 5947, 10167
6242, 1055, 1400, 6113, 6312, 1908, 9815, 7758, 6561, 9816, 7759
6243, 6125, 6251, 6105, 6306, 9843, 9530, 6202, 9827, 8893, 9793
6244, 1067, 5979, 1165, 6335, 7881, 9431, 1883, 7882, 7352, 9432
6245, 1001, 1002, 6281, 6378, 2048, 7062, 7571, 8850, 8308, 8044
6246, 1173, 1172, 1383, 6261, 1892, 2829, 2828, 8988, 8823, 6986
6247, 3147, 3148, 3358, 6261, 3866, 4804, 4803, 9228, 8991, 6906
6248, 1371, 1122, 6296, 6395, 2475, 9803, 9517, 9673, 9804, 7636
6249, 1156, 1193, 1278, 6340, 2784, 2787, 2786, 9171, 7944, 9897
6250, 3168, 3131, 3253, 6340, 4760, 4762, 4761, 8760, 7306, 7531
6251, 1072, 6367, 876, 6414, 9100, 10168, 9334, 8275, 9101, 9836
6252, 1293, 785, 6393, 6467, 9392, 9394, 6743, 10169, 10171, 10170
6253, 3212, 6284, 3232, 6383, 8071, 9288, 4130, 8163, 8164, 9805
6254, 1200, 1028, 1203, 6359, 2194, 2065, 2195, 9461, 8329, 8328
6255, 1427, 1160, 1159, 6246, 2795, 2633, 2796, 6517, 8148, 8076
6256, 3402, 3134, 3135, 6246, 4770, 4607, 4771, 10172, 7168, 8238
6257, 5583, 3180, 6272, 6448, 10173, 8902, 9916, 9917, 8903, 8416
6258, 3164, 3118, 3165, 6382, 4711, 4715, 4714, 9884, 9284, 9423
6259, 3392, 3164, 2961, 6397, 3954, 3953, 3955, 9594, 9656, 7559
6260, 3378, 3016, 3301, 6411, 3519, 4231, 4232, 6798, 10174, 6800
6261, 6265, 6450, 6266, 6488, 6550, 6510, 6548, 8423, 9510, 7807
6262, 1362, 6252, 5846, 6367, 10057, 9507, 10056, 10175, 9318, 10176
6263, 1035, 5833, 5843, 6370, 10177, 5872, 10178, 10179, 10180, 8296
6264, 3318, 731, 3014, 6396, 10181, 10182, 3462, 7022, 10124, 7024
6265, 1302, 5598, 5972, 5981, 9575, 10183, 10184, 9574, 9573, 6011
6266, 5583, 5594, 5587, 6272, 5646, 5675, 5674, 9916, 7076, 8618
6267, 2970, 2969, 2971, 6470, 3992, 3997, 3996, 10185, 7918, 8890
6268, 2978, 6281, 2976, 6449, 6714, 8825, 4032, 9086, 7339, 8826
6269, 3175, 3226, 3225, 6444, 4619, 4187, 4836, 9891, 10121, 9892
6270, 3170, 6286, 5707, 6409, 10061, 7724, 10060, 10186, 10188, 10187
6271, 3291, 3341, 3043, 6249, 4364, 4363, 4365, 9105, 8536, 7782
6272, 1316, 1068, 1366, 6249, 2389, 2387, 2390, 7957, 7109, 8281
6273, 3400, 3272, 3243, 6463, 4270, 4916, 4917, 10189, 10191, 10190
6274, 1281, 1163, 6343, 6428, 2427, 9671, 7500, 9644, 9672, 8037
6275, 5707, 6286, 5688, 6409, 7724, 7900, 5787, 10187, 10188, 10192
6276, 3404, 883, 3047, 6414, 10193, 10194, 3608, 9464, 10196, 10195
6277, 3347, 6121, 2956, 6462, 9483, 8534, 3877, 9486, 9152, 9153
6278, 5038, 1229, 5062, 6391, 9728, 9620, 5111, 9730, 9063, 9519
6279, 1288, 1304, 5831, 6482, 1851, 10114, 10197, 9709, 10115, 9074
6280, 1060, 1281, 1062, 6362, 2350, 2349, 2348, 9541, 7596, 8337
6281, 3233, 3012, 3025, 6357, 4211, 4193, 4212, 8737, 8189, 7631
6282, 1258, 1050, 1037, 6357, 2236, 2219, 2237, 9566, 8856, 8192
6283, 1292, 1426, 1265, 6467, 2266, 2934, 2933, 10198, 10200, 10199
6284, 3127, 6304, 826, 6422, 7660, 9219, 7387, 7716, 8567, 10201
6285, 3164, 6297, 6382, 6397, 9655, 9126, 9884, 9656, 9595, 9802
6286, 1281, 1060, 1085, 6259, 2350, 2342, 2351, 7499, 9699, 9360
6287, 3256, 3060, 3035, 6259, 4326, 4318, 4324, 7215, 6555, 6556
6288, 3295, 3134, 3226, 6296, 4496, 4772, 4621, 8684, 7770, 10120
6289, 1320, 1251, 1159, 6296, 2647, 2797, 2521, 8636, 7895, 8318
6290, 665, 6346, 6257, 6364, 10202, 8130, 10203, 10204, 9737, 9001
6291, 1277, 1243, 6293, 6384, 2150, 8168, 8496, 8498, 8436, 7106
6292, 2970, 6470, 2971, 6472, 10185, 8890, 3996, 10205, 9252, 9025
6293, 5714, 5697, 3145, 6353, 5772, 9626, 9841, 7756, 8855, 9627
6294, 1324, 1332, 1202, 6371, 2832, 2576, 1981, 8398, 9668, 6966
6295, 850, 851, 6252, 6348, 853, 9505, 8888, 8759, 9970, 8698
6296, 3058, 3093, 6310, 6421, 4431, 8435, 9692, 10206, 9538, 7687
6297, 665, 675, 6346, 6364, 4997, 10207, 10202, 10204, 10208, 9737
6298, 1208, 6368, 1340, 6454, 9684, 10073, 2864, 10012, 8953, 9894
6299, 983, 1300, 1279, 6349, 1965, 1964, 1769, 8764, 7921, 7867
6300, 3049, 6337, 3038, 6486, 10209, 9350, 4333, 10210, 8493, 9405
6301, 3067, 3012, 6357, 6386, 4214, 8189, 9522, 9678, 9947, 9151
6302, 3200, 3201, 6328, 6433, 4877, 9943, 9584, 9645, 10081, 8406
6303, 5259, 5269, 1198, 6453, 5356, 7718, 9914, 9915, 8587, 8588
6304, 675, 676, 6346, 6364, 678, 9736, 10207, 10208, 9738, 9737
6305, 5846, 6252, 5827, 6367, 9507, 9581, 5922, 10176, 9318, 9582
6306, 651, 3395, 3022, 6410, 10211, 3436, 10212, 9652, 6547, 8162
6307, 6251, 6306, 1125, 6404, 8893, 10014, 9829, 9006, 8845, 10213
6308, 5273, 6256, 5271, 6394, 9482, 9937, 5435, 10008, 9687, 9939
6309, 1278, 1376, 1255, 6372, 2559, 2758, 2788, 9570, 8372, 8900
6310, 721, 3309, 3014, 6396, 10214, 3456, 10215, 10216, 8489, 7024
6311, 1371, 6253, 1141, 6428, 8561, 7552, 2733, 9677, 7591, 10217
6312, 1128, 6252, 1175, 6377, 8889, 8585, 2679, 9703, 8660, 8973
6313, 5842, 3010, 2960, 6459, 8882, 3803, 9757, 8939, 8309, 9758
6314, 1137, 6348, 6377, 6460, 9386, 8700, 9388, 10218, 8361, 9715
6315, 3358, 3154, 3147, 6352, 4549, 4419, 4803, 8560, 7804, 9385
6316, 3146, 3388, 3322, 6315, 3782, 4346, 4802, 8853, 7231, 7313
6317, 3056, 6267, 3055, 6421, 10219, 10220, 4339, 10221, 6993, 10145
6318, 5043, 5064, 6327, 6398, 5233, 9146, 8832, 8835, 10107, 8837
6319, 6131, 6462, 6269, 6489, 9598, 8196, 9903, 9874, 8201, 8199
6320, 3055, 3056, 3057, 6267, 4339, 4425, 4424, 10220, 10219, 9215
6321, 1080, 1082, 1081, 6267, 2450, 2449, 2365, 10222, 7020, 6988
6322, 5280, 6374, 1199, 6417, 10223, 10102, 10224, 10225, 9516, 10103
6323, 315, 1421, 1294, 5694, 1795, 1797, 1794, 5737, 7786, 7785
6324, 3284, 6298, 2983, 6392, 7654, 8365, 4069, 8885, 7119, 8501
6325, 3243, 6307, 3100, 6410, 9981, 8983, 4638, 8572, 8895, 9337
6326, 1277, 6293, 1270, 6388, 8496, 10226, 2627, 8695, 8592, 10227
6327, 3277, 3188, 3141, 6345, 4788, 4790, 4789, 9732, 7520, 9638
6328, 6254, 6456, 1286, 6465, 8473, 8968, 10228, 7839, 7493, 8969
6329, 1093, 1388, 1204, 6313, 2341, 2516, 2514, 7772, 6927, 7876
6330, 3179, 3363, 3068, 6313, 4491, 4316, 4490, 9721, 8325, 8570
6331, 3057, 6267, 3056, 6421, 9215, 10219, 4425, 10229, 6993, 10221
6332, 5689, 313, 1392, 5702, 5731, 1725, 9898, 5733, 5729, 9902
6333, 5853, 5828, 6370, 6376, 5933, 8517, 8516, 10230, 8046, 6812
6334, 3319, 696, 3020, 6401, 10231, 10232, 3542, 7122, 10233, 7121
6335, 5706, 6286, 1195, 6409, 7809, 10076, 10075, 10234, 10188, 10235
6336, 1213, 1309, 1166, 6345, 2815, 2814, 2813, 7265, 9698, 9158
6337, 1264, 1263, 1124, 6393, 2656, 1801, 2657, 10065, 9489, 9436
6338, 1413, 1171, 1347, 6315, 1807, 2827, 2371, 7524, 8722, 7314
6339, 3382, 3327, 2967, 6271, 3990, 3989, 3855, 8697, 8222, 7002
6340, 1352, 1407, 992, 6271, 2015, 1880, 2013, 8562, 9473, 7000
6341, 5829, 889, 3280, 5835, 10236, 10237, 10238, 5912, 10240, 10239
6342, 2978, 2976, 2979, 6449, 4032, 4034, 4033, 9086, 8826, 8317
6343, 3269, 532, 5691, 3396, 3768, 5763, 8732, 3772, 3771, 8731
6344, 3094, 3032, 6247, 6427, 4308, 10046, 6973, 7598, 10241, 6665
6345, 1110, 6331, 6243, 6432, 8748, 10134, 10133, 9831, 8458, 10242
6346, 6350, 6458, 1340, 6490, 7705, 10074, 9893, 7726, 7727, 10243
6347, 2979, 3227, 6320, 6449, 4035, 9349, 9121, 8317, 9669, 7796
6348, 5835, 5849, 889, 6471, 5937, 9988, 10240, 10244, 9987, 9986
6349, 3153, 3051, 3145, 6353, 3705, 4405, 4404, 6577, 7684, 9627
6350, 979, 1217, 1218, 6354, 1668, 1943, 1942, 9156, 8916, 8028
6351, 5691, 3238, 3099, 6260, 9451, 3775, 10010, 9051, 8181, 9754
6352, 1317, 1187, 1133, 6282, 2320, 2705, 2694, 7205, 6787, 6808
6353, 886, 5849, 5831, 6482, 10245, 5946, 10113, 10116, 9990, 9074
6354, 5841, 5854, 875, 882, 5938, 9964, 9948, 9705, 10246, 962
6355, 3220, 6327, 2953, 6391, 8081, 8833, 3912, 8714, 6719, 10247
6356, 5035, 1197, 5053, 6345, 10248, 7513, 5135, 6505, 7517, 7516
6357, 3400, 3273, 3024, 6463, 4271, 3430, 4269, 10189, 9848, 10249
6358, 3320, 6401, 3294, 6476, 8899, 8898, 4244, 10250, 10252, 10251
6359, 1309, 6335, 1166, 6345, 9697, 9159, 2814, 9698, 6780, 9158
6360, 3217, 6398, 3222, 6405, 9622, 9934, 3914, 10253, 9445, 9630
6361, 5706, 5688, 6286, 6409, 5785, 7900, 7809, 10234, 10192, 10188
6362, 3280, 5835, 889, 6471, 10239, 10240, 10237, 10254, 10244, 9986
6363, 1243, 1270, 6293, 6380, 2926, 10226, 8168, 8170, 8872, 8169
6364, 6337, 6457, 6350, 6486, 8394, 8395, 8391, 8493, 10255, 8495
6365, 5283, 6349, 5263, 6453, 8763, 9223, 5443, 10256, 7858, 10257
6366, 831, 821, 6324, 6390, 5574, 9720, 8100, 8299, 10258, 8301
6367, 6291, 6431, 6385, 6432, 10259, 9274, 6688, 9851, 9859, 8768
6368, 3310, 3052, 3158, 6321, 3538, 4410, 4409, 9216, 7252, 9540
6369, 3383, 3235, 3207, 6413, 4749, 3972, 3911, 7646, 8770, 9453
6370, 1175, 6317, 1139, 6377, 8586, 9861, 2726, 8973, 7586, 10067
6371, 1426, 1043, 1293, 6467, 2267, 1535, 2268, 10200, 10260, 10169
6372, 3005, 2979, 3227, 6320, 4049, 4035, 4050, 8353, 9121, 9349
6373, 1030, 1252, 1004, 6320, 2075, 2060, 2073, 7137, 7953, 7795
6374, 3020, 706, 3310, 6401, 10261, 10262, 3536, 7121, 10263, 9075
6375, 1130, 6370, 6265, 6376, 10019, 6980, 9325, 9326, 6812, 6982
6376, 3281, 5693, 5698, 5597, 10264, 5761, 9952, 9956, 10265, 9955
6377, 1407, 6271, 1352, 6435, 9473, 8562, 2015, 9474, 6515, 8960
6378, 3091, 6425, 6331, 6438, 9544, 7374, 9543, 10266, 8542, 8219
6379, 735, 736, 726, 6260, 738, 5479, 5480, 7928, 7821, 7568
6380, 1170, 1381, 1171, 6353, 2826, 2825, 1806, 10091, 8268, 8724
6381, 1148, 6245, 1376, 6460, 7188, 8371, 2757, 9378, 7480, 8765
6382, 1251, 1200, 1250, 6359, 2645, 2861, 2211, 7623, 9461, 8369
6383, 2962, 5285, 3174, 6374, 8818, 10267, 3714, 8709, 8819, 9746
6384, 3129, 3341, 3291, 6360, 4750, 4364, 4753, 9324, 8743, 9106
6385, 3238, 3300, 3239, 6411, 4407, 4904, 4632, 10268, 7822, 10269
6386, 3012, 3008, 3025, 6325, 4192, 4194, 4193, 8186, 7293, 7255
6387, 1033, 1037, 1050, 6325, 2216, 2219, 2218, 7295, 8190, 8025
6388, 1080, 6267, 1081, 6436, 10222, 6988, 2365, 10270, 9957, 9499
6389, 5267, 2951, 5265, 6333, 9904, 10271, 5399, 8137, 9905, 10272
6390, 6119, 6104, 6120, 6261, 6205, 6207, 6206, 8133, 7935, 8987
6391, 861, 6126, 6105, 6251, 6144, 6204, 6200, 9233, 8979, 9530
6392, 5599, 5967, 5982, 3278, 10273, 6036, 10072, 10110, 10274, 9661
6393, 3237, 6342, 3249, 6425, 7931, 7263, 4523, 7932, 6962, 8749
6394, 3035, 3036, 6362, 6426, 4173, 8746, 6619, 10275, 9930, 7622
6395, 3259, 6275, 3121, 6394, 8508, 9279, 4728, 9588, 9180, 9855
6396, 1109, 6424, 125, 6482, 9708, 10276, 9660, 9710, 8579, 9735
6397, 6107, 6115, 375, 1391, 6165, 6161, 6163, 9967, 9965, 1642
6398, 991, 6269, 6112, 6416, 10277, 10278, 10279, 10280, 7814, 10281
6399, 3231, 3089, 3041, 6341, 4356, 4355, 4020, 8548, 7477, 7984
6400, 1256, 1066, 1114, 6341, 2045, 2379, 2381, 8545, 7986, 7468
6401, 6260, 6393, 755, 6411, 9490, 10282, 10283, 7824, 10285, 10284
6402, 3070, 2956, 3031, 6262, 3929, 3927, 3930, 9723, 7384, 6968
6403, 1095, 1056, 981, 6262, 1954, 1953, 1955, 8367, 6895, 7004
6404, 1340, 6368, 1210, 6458, 10073, 9685, 2865, 10074, 7733, 10159
6405, 2955, 3190, 3359, 6373, 3924, 3926, 3923, 8151, 6834, 6790
6406, 860, 6104, 861, 6352, 6198, 6197, 863, 9199, 7937, 9346
6407, 3023, 3303, 3302, 6410, 4263, 4262, 4264, 7688, 6985, 10286
6408, 5833, 332, 1035, 5843, 5870, 1828, 10177, 5872, 5868, 10178
6409, 3217, 5056, 5045, 6398, 9621, 5175, 9725, 9622, 8204, 9727
6410, 1194, 6340, 1157, 6469, 7972, 10287, 2792, 9839, 9011, 10288
6411, 6263, 6360, 6262, 6474, 8004, 8366, 10289, 8639, 8113, 6897
6412, 3175, 6359, 3178, 6379, 7155, 9071, 4170, 10290, 8330, 10013
6413, 1182, 1315, 1273, 6406, 2840, 2839, 2654, 10291, 10292, 10163
6414, 3277, 3141, 6335, 6345, 4789, 9665, 9731, 9732, 9638, 6780
6415, 3292, 6282, 6369, 6450, 10293, 7369, 10294, 10295, 6511, 10296
6416, 1364, 1187, 1323, 6303, 2820, 2321, 2677, 6771, 6770, 9264
6417, 3162, 3339, 3298, 6303, 4794, 4652, 4296, 8998, 7763, 8418
6418, 1124, 5694, 1294, 6305, 9434, 7785, 1793, 9435, 7789, 7787
6419, 3194, 3220, 6391, 6399, 4860, 8714, 10297, 10298, 8083, 6723
6420, 3296, 6275, 3259, 6488, 8949, 8508, 4676, 8809, 7806, 8251
6421, 1273, 5983, 1123, 6248, 9609, 8058, 2653, 9610, 8062, 8060
6422, 5968, 5974, 2967, 573, 6051, 6855, 8290, 6050, 6046, 3854
6423, 6105, 6307, 6126, 6419, 9531, 8982, 6204, 10299, 10301, 10300
6424, 889, 5849, 870, 6482, 9988, 10167, 909, 9989, 9990, 10302
6425, 5266, 5257, 6322, 6394, 5450, 9870, 9004, 9780, 9871, 9182
6426, 6251, 6404, 670, 6410, 9006, 9357, 10303, 8894, 8849, 10304
6427, 3254, 2958, 5287, 6453, 3744, 10305, 10306, 10307, 10309, 10308
6428, 3316, 6351, 3307, 6371, 9208, 9623, 4552, 9487, 9488, 9456
6429, 5694, 5710, 5699, 6305, 5807, 5821, 5739, 7789, 7693, 8906
6430, 3139, 3405, 3161, 6326, 4782, 4781, 4778, 7964, 8794, 7128
6431, 1164, 1186, 1430, 6326, 2803, 2807, 2806, 7963, 7134, 9646
6432, 1318, 1386, 1343, 6365, 2837, 2248, 2948, 8702, 7347, 7348
6433, 1307, 1129, 1370, 6272, 2683, 1870, 2684, 7743, 8540, 9927
6434, 3283, 3345, 3104, 6272, 4658, 3845, 4659, 7747, 8828, 6641
6435, 3050, 6343, 6337, 6457, 8868, 7502, 8867, 10310, 9096, 8394
6436, 1407, 1165, 5973, 6435, 1885, 9711, 9472, 9474, 9712, 9137
6437, 3303, 3381, 3022, 6410, 4260, 3439, 4259, 6985, 6983, 8162
6438, 6107, 888, 6117, 6129, 10311, 9931, 6168, 6218, 9920, 6219
6439, 3040, 2966, 3110, 6269, 3872, 3982, 3981, 7813, 9241, 7533
6440, 3246, 6301, 3210, 6385, 8431, 9411, 4898, 8432, 8205, 9807
6441, 2993, 6347, 2998, 6420, 9261, 9433, 4119, 9262, 6699, 9048
6442, 3308, 3203, 3200, 6316, 4887, 4886, 4883, 7429, 7580, 9583
6443, 1228, 1333, 1225, 6316, 2912, 2909, 2910, 9242, 8940, 8008
6444, 1343, 740, 1346, 6365, 10312, 10313, 1490, 7348, 10314, 8703
6445, 3195, 6344, 3197, 6399, 9612, 8864, 4863, 10315, 8020, 8466
6446, 119, 165, 1150, 6419, 974, 7390, 7949, 8409, 10109, 7790
6447, 1194, 6280, 1338, 6412, 9013, 10316, 2167, 8253, 7232, 10317
6448, 1183, 1335, 6364, 6468, 2435, 7472, 9109, 9110, 7475, 7476
6449, 1333, 1226, 1225, 6328, 2908, 2903, 2909, 8119, 8649, 8405
6450, 3200, 3201, 3308, 6328, 4877, 4884, 4883, 9584, 9943, 7144
6451, 1363, 1322, 1340, 6350, 2809, 2866, 2565, 8390, 9381, 9893
6452, 3297, 3338, 3315, 6350, 4783, 4540, 4841, 8476, 10318, 9424
6453, 5970, 992, 356, 5973, 6850, 1878, 6022, 6026, 8262, 6024
6454, 6243, 6303, 3102, 6349, 10089, 9733, 10039, 10041, 7761, 8403
6455, 5581, 5597, 841, 6422, 5664, 5612, 5661, 10029, 10079, 9650
6456, 5832, 5835, 3390, 6329, 5909, 10319, 10161, 8173, 10320, 9689
6457, 2953, 6327, 5043, 6391, 8833, 8832, 8834, 10247, 6719, 10321
6458, 721, 731, 6270, 6396, 5474, 10123, 10322, 10216, 10124, 8490
6459, 1387, 1344, 1319, 6364, 2291, 2949, 2846, 7345, 7343, 8777
6460, 3010, 5828, 5842, 549, 8514, 5897, 8882, 3804, 5896, 5892
6461, 1127, 6303, 6243, 6349, 9734, 10089, 10042, 8400, 7761, 10041
6462, 1035, 5843, 985, 6370, 10178, 8294, 1829, 10179, 8296, 7223
6463, 3235, 3076, 3214, 6361, 4519, 4526, 3975, 8769, 8801, 8941
6464, 1101, 1260, 1239, 6361, 2543, 2000, 2551, 8805, 9771, 8857
6465, 1242, 5054, 1214, 6398, 10323, 10324, 1680, 10108, 10325, 9093
6466, 6261, 6351, 1341, 6416, 9348, 10062, 10063, 8135, 7815, 10326
6467, 3238, 6260, 3300, 6411, 8181, 7570, 4407, 10268, 7824, 7822
6468, 6131, 6121, 6462, 6489, 6213, 9152, 9598, 9874, 9321, 8201
6469, 1406, 1044, 660, 6404, 1464, 10327, 10328, 6630, 10154, 10329
6470, 3292, 6282, 3029, 6369, 10293, 8233, 4292, 10294, 7369, 8471
6471, 1194, 1193, 1157, 6340, 2791, 2785, 2792, 7972, 7944, 10287
6472, 1301, 6252, 1362, 6367, 8440, 10057, 2682, 9099, 9318, 10175
6473, 1021, 6279, 1025, 6412, 9238, 8937, 2158, 10330, 7229, 9107
6474, 5589, 5978, 352, 5972, 9911, 6012, 10331, 9910, 6014, 6010
6475, 3094, 3032, 3095, 6247, 4308, 4310, 4309, 6973, 10046, 9585
6476, 641, 6307, 3273, 6410, 9847, 9846, 9167, 9169, 8895, 6546
6477, 3391, 3248, 3098, 6324, 4630, 4629, 3831, 10332, 10334, 10333
6478, 751, 6355, 750, 6365, 9810, 10335, 753, 9809, 9808, 10336
6479, 1344, 685, 1345, 6364, 10337, 10338, 1570, 7343, 10339, 8778
6480, 3132, 3168, 3169, 6466, 4759, 4767, 4766, 9207, 9085, 9572
6481, 1427, 1160, 6246, 6465, 2795, 8148, 6517, 6519, 8149, 6521
6482, 5289, 976, 5278, 6333, 9797, 10054, 5343, 9932, 9253, 9133
6483, 3132, 6340, 3168, 6466, 9010, 8760, 4759, 9207, 7798, 9085
6484, 3402, 6443, 3332, 6444, 10340, 8680, 4190, 10341, 8683, 8682
6485, 1306, 1034, 1027, 6366, 2188, 2187, 2189, 7843, 6881, 7376
6486, 1191, 1143, 1190, 6309, 2741, 2739, 2742, 9163, 8811, 8735
6487, 3118, 3166, 3165, 6309, 4717, 4716, 4715, 8783, 8179, 9422
6488, 1213, 1313, 1212, 6299, 2816, 2405, 2824, 7264, 7965, 6585
6489, 991, 1135, 6269, 6416, 2006, 7488, 10277, 10280, 8469, 7814
6490, 3172, 3096, 5046, 6345, 3670, 10342, 9035, 9037, 6764, 7869
6491, 1368, 1139, 1175, 6317, 2727, 2726, 2728, 8177, 9861, 8586
6492, 3343, 3150, 3114, 6317, 4702, 4701, 4703, 9462, 8972, 7584
6493, 5592, 5583, 5587, 6272, 5672, 5674, 5624, 8413, 9916, 8618
6494, 5837, 6256, 5848, 6468, 7903, 7419, 5962, 7904, 7905, 10343
6495, 1123, 1182, 6248, 6365, 2651, 10344, 8060, 8787, 10346, 10345
6496, 3135, 3402, 6246, 6443, 4771, 10172, 8238, 8159, 10340, 7175
6497, 6360, 6462, 6262, 6489, 8197, 9154, 8366, 8200, 8201, 9007
6498, 5293, 1188, 5271, 6256, 9792, 9938, 5366, 9103, 9741, 9937
6499, 3169, 3313, 6280, 6466, 4141, 7211, 9571, 9572, 9308, 9014
6500, 3094, 6247, 3095, 6461, 6973, 9585, 4309, 7005, 7006, 9421
6501, 736, 746, 3017, 6411, 5489, 9635, 7800, 7823, 9637, 7431
6502, 3188, 3187, 3288, 6299, 4799, 4379, 4791, 7518, 6580, 7832
6503, 3028, 6385, 6291, 6431, 9291, 6688, 9290, 10162, 9274, 10259
6504, 5710, 6305, 6304, 6422, 7693, 7694, 7690, 10347, 10348, 8567
6505, 1269, 1376, 1102, 6273, 2557, 2556, 2555, 9929, 8370, 8292
6506, 3332, 2957, 2968, 6258, 3934, 3932, 3935, 8681, 7835, 9446
6507, 1357, 993, 982, 6258, 1959, 1958, 1960, 8667, 7666, 7841
6508, 3043, 3282, 3009, 6366, 4200, 4164, 4198, 7784, 8842, 7993
6509, 1390, 1073, 5587, 6286, 1716, 8873, 10349, 10350, 7746, 8619
6510, 3126, 3270, 3248, 6455, 4456, 4741, 4742, 7440, 7870, 10351
6511, 3145, 3051, 3238, 6353, 4405, 4406, 3777, 9627, 7684, 8183
6512, 861, 6105, 860, 6251, 6200, 6199, 863, 9233, 9530, 9441
6513, 5834, 5831, 886, 5849, 5887, 10113, 10118, 5947, 5946, 10245
6514, 6105, 6306, 6307, 6419, 9793, 8892, 9531, 10299, 8513, 10301
6515, 1090, 6348, 1137, 6460, 7818, 9386, 2495, 8107, 8361, 10218
6516, 1084, 6275, 5839, 6376, 8719, 7546, 8718, 10352, 7751, 10353
6517, 5046, 3096, 5057, 6345, 10342, 6781, 5190, 7869, 6764, 6704
6518, 2997, 6314, 2987, 6387, 7315, 8341, 4078, 8612, 7019, 8342
6519, 2951, 3213, 5267, 488, 3735, 8461, 9904, 3734, 3730, 5395
6520, 1080, 6436, 1103, 6490, 10270, 9396, 2419, 10354, 9399, 9398
6521, 836, 3127, 826, 6422, 7947, 7387, 5579, 8425, 7716, 10201
6522, 3335, 5974, 5971, 572, 8388, 6048, 8194, 3848, 6047, 6043
6523, 3378, 766, 3016, 6411, 10355, 10356, 3519, 6798, 10357, 10174
6524, 1145, 1397, 5830, 6468, 1838, 10358, 9536, 10359, 10361, 10360
6525, 1055, 1148, 1356, 6312, 2322, 2325, 2324, 6561, 7053, 10362
6526, 3103, 851, 3065, 6348, 9503, 10363, 3576, 9745, 9970, 9853
6527, 1416, 1273, 1151, 6390, 2655, 2766, 2768, 9747, 9748, 8613
6528, 3368, 6318, 3173, 6453, 9592, 7409, 3937, 9593, 7857, 8420
6529, 1260, 6363, 6361, 6413, 9772, 8858, 9771, 9863, 9845, 7647
6530, 978, 5064, 1242, 6398, 9147, 10364, 1677, 9969, 10107, 10108
6531, 1423, 1098, 1051, 6255, 2304, 2303, 2305, 8527, 6598, 6873
6532, 3073, 3398, 3026, 6255, 4280, 4279, 4277, 7016, 7872, 9087
6533, 3316, 3040, 3111, 6351, 4349, 4347, 4350, 9208, 7812, 9251
6534, 3178, 3175, 3225, 6359, 4170, 4836, 4015, 9071, 7155, 8727
6535, 5836, 1126, 1415, 6257, 8271, 1847, 9365, 9000, 9209, 8575
6536, 1320, 1371, 1122, 6296, 2648, 2475, 2646, 8636, 9517, 9803
6537, 1338, 6280, 1023, 6412, 10316, 9170, 2156, 10317, 7232, 10365
6538, 1151, 6390, 1273, 6406, 8613, 9748, 2766, 7679, 9449, 10163
6539, 1156, 6263, 1155, 6469, 8780, 8002, 2529, 10097, 8647, 9979
6540, 5266, 3221, 5277, 6394, 10047, 10366, 5417, 9780, 10048, 10367
6541, 5040, 6354, 5062, 6442, 10368, 8915, 5211, 10369, 7233, 8918
6542, 5975, 1360, 355, 5970, 8606, 1874, 6019, 6023, 8640, 6021
6543, 988, 1201, 5042, 6464, 1689, 9226, 10370, 9458, 9331, 9185
6544, 5699, 5689, 5600, 5711, 5736, 10140, 9974, 5795, 5794, 9973
6545, 3184, 6253, 3116, 6437, 7589, 8860, 4709, 8304, 7554, 8883
6546, 5596, 1390, 6286, 6409, 10371, 10350, 10372, 10373, 10374, 10188
6547, 3248, 6324, 6355, 6441, 10334, 10128, 10375, 10376, 10378, 10377
6548, 6266, 6450, 6282, 6477, 6510, 6511, 6507, 7125, 9716, 6788
6549, 887, 6118, 6129, 6110, 10379, 6235, 10380, 10381, 6195, 6236
6550, 791, 6324, 6248, 6355, 10130, 10030, 10382, 10129, 10128, 10383
6551, 338, 5834, 878, 5840, 5886, 10005, 10384, 5888, 5890, 10006
6552, 5256, 5280, 1199, 6417, 5316, 10224, 10385, 10386, 10225, 10103
6553, 3191, 6398, 3217, 6405, 9077, 9622, 4844, 10387, 9445, 10253
6554, 5583, 3257, 3180, 6448, 10388, 3685, 10173, 9917, 9409, 8903
6555, 3155, 6396, 6270, 6441, 9535, 8490, 9534, 10389, 10390, 8287
6556, 3054, 6352, 5071, 6446, 10027, 10002, 10026, 10391, 9347, 10392
6557, 3070, 2956, 6262, 6462, 3929, 7384, 9723, 9332, 9153, 9154
6558, 1167, 1424, 1284, 6322, 2817, 2005, 2700, 7611, 7968, 7618
6559, 3142, 3259, 3399, 6322, 4674, 3980, 4793, 7614, 8249, 7970
6560, 3292, 6369, 3136, 6450, 10294, 9307, 4293, 10295, 10296, 10393
6561, 3108, 3292, 6450, 6477, 4670, 10295, 9295, 9717, 10394, 9716
6562, 1035, 1097, 1130, 6370, 2226, 2229, 2228, 10179, 8750, 10019
6563, 6262, 6360, 6263, 6473, 8366, 8004, 10289, 6972, 9115, 8052
6564, 5712, 5595, 5703, 6409, 10395, 10396, 5819, 10397, 10399, 10398
6565, 2977, 3178, 2974, 6379, 4025, 4014, 4023, 8716, 10013, 8259
6566, 3106, 6450, 6265, 6488, 9294, 6550, 10400, 9509, 9510, 8423
6567, 888, 871, 113, 6419, 904, 903, 890, 9922, 9923, 9696
6568, 3404, 3047, 3343, 6414, 3608, 4384, 4386, 9464, 10195, 9465
6569, 3060, 6259, 3342, 6437, 6555, 8557, 4451, 9196, 8558, 8306
6570, 3223, 2980, 3218, 6483, 4044, 4053, 4055, 8881, 9179, 8776
6571, 3332, 2957, 6258, 6443, 3934, 7835, 8681, 8680, 8935, 8381
6572, 5065, 6339, 988, 6464, 8964, 9457, 10044, 10401, 8931, 9458
6573, 5032, 711, 710, 6270, 5199, 713, 5200, 8185, 8485, 8242
6574, 3369, 5044, 6382, 6442, 10402, 9837, 9301, 9302, 9838, 8231
6575, 5981, 5598, 5972, 5992, 9573, 10183, 6011, 6097, 10403, 6098
6576, 1329, 1073, 1390, 6286, 2415, 1716, 2416, 8115, 7746, 10350
6577, 3048, 3304, 3365, 6286, 4389, 4391, 3691, 7078, 8116, 9590
6578, 1383, 1105, 1341, 6371, 2574, 2577, 2579, 6987, 7656, 10064
6579, 873, 883, 3404, 6414, 924, 10193, 9971, 9972, 10196, 9464
6580, 5293, 5271, 5253, 6256, 5366, 5433, 5424, 9103, 9937, 7381
6581, 3194, 6354, 3193, 6399, 10404, 7094, 4853, 10298, 8959, 10405
6582, 1259, 1226, 6328, 6400, 2913, 8649, 7521, 9117, 9369, 8878
6583, 726, 725, 735, 6260, 728, 5477, 5480, 7568, 6685, 7928
6584, 3169, 3313, 2998, 6280, 4141, 4132, 4142, 9571, 7211, 7557
6585, 1338, 1194, 1023, 6280, 2167, 2166, 2156, 10316, 9013, 9170
6586, 5039, 6339, 5065, 6464, 9751, 8964, 5235, 9946, 8931, 10401
6587, 889, 126, 6471, 6482, 899, 10406, 9986, 9989, 10407, 9991
6588, 876, 1072, 881, 6367, 9334, 9760, 943, 10168, 9100, 9762
6589, 3012, 3033, 6289, 6386, 4197, 9083, 8187, 9947, 9149, 8506
6590, 1176, 1332, 6323, 6351, 2715, 9667, 8993, 9879, 9963, 9624
6591, 3307, 3151, 6323, 6351, 4690, 8996, 9045, 9623, 9880, 9624
6592, 6304, 6305, 6260, 6393, 7694, 7692, 7689, 9821, 9437, 9490
6593, 675, 676, 666, 6346, 678, 4999, 5000, 10207, 9736, 10408
6594, 666, 665, 675, 6346, 668, 4997, 5000, 10408, 10202, 10207
6595, 3205, 6314, 2997, 6403, 10409, 7315, 4090, 10410, 8599, 8753
6596, 5257, 5271, 1246, 6394, 5365, 10037, 9868, 9871, 9939, 9872
6597, 5062, 6354, 5040, 6391, 8915, 10368, 5211, 9519, 9016, 10411
6598, 1161, 6268, 1353, 6412, 7366, 6796, 2801, 9108, 8971, 8254
6599, 991, 1065, 1135, 6416, 1896, 2007, 2006, 10280, 10412, 8469
6600, 3136, 6369, 6268, 6450, 9307, 7368, 9508, 10393, 10296, 6995
6601, 1218, 1219, 1220, 6354, 2877, 2881, 2880, 8028, 9015, 8573
6602, 1095, 6262, 981, 6489, 8367, 7004, 1955, 8766, 9007, 9312
6603, 1232, 5282, 989, 6413, 10413, 10414, 1754, 10415, 10417, 10416
6604, 3074, 6361, 3128, 6389, 7766, 8349, 4437, 7768, 7241, 8373
6605, 5041, 5068, 5042, 6464, 5181, 5236, 5238, 9271, 9936, 9185
6606, 3179, 6313, 3355, 6415, 9721, 7627, 4489, 9722, 7878, 8970
6607, 3261, 3066, 6254, 6461, 4478, 7605, 10155, 8504, 7303, 7606
6608, 5699, 6305, 5710, 6422, 8906, 7693, 5821, 9975, 10348, 10347
6609, 5064, 5043, 6327, 6391, 5233, 8832, 9146, 9148, 10321, 6719
6610, 1357, 6258, 982, 6465, 8667, 7841, 1960, 8668, 6817, 9155
6611, 554, 5829, 3280, 5835, 5911, 10238, 3826, 5907, 5912, 10239
6612, 1237, 1031, 1235, 6487, 2120, 2208, 2210, 8669, 9248, 8945
6613, 3151, 3111, 3355, 6351, 4691, 4685, 4488, 9880, 9251, 7628
6614, 1380, 1136, 1176, 6351, 2711, 2714, 2512, 7630, 9428, 9879
6615, 989, 1238, 1239, 6363, 1757, 1999, 1998, 9876, 7073, 7397
6616, 3199, 6311, 3198, 6433, 8524, 8942, 4869, 10418, 8011, 8944
6617, 3143, 6318, 3339, 6477, 9603, 7764, 4795, 9604, 6861, 9344
6618, 1064, 1134, 1117, 6336, 2368, 2367, 1968, 7102, 7194, 8693
6619, 3092, 3109, 3039, 6336, 4343, 4342, 3942, 7960, 7198, 6923
6620, 1296, 1049, 1349, 6429, 2292, 1585, 2295, 10419, 10421, 10420
6621, 1270, 1254, 1244, 6388, 2928, 2356, 2625, 10227, 7713, 8863
6622, 5269, 5266, 5284, 6322, 5470, 5452, 5359, 7721, 9004, 9764
6623, 1069, 6243, 6303, 6423, 10422, 10089, 9263, 9266, 10423, 8419
6624, 3204, 3220, 2953, 6391, 3913, 3912, 3649, 10424, 8714, 10247
6625, 3340, 3077, 3244, 6273, 3951, 4530, 4474, 8688, 7862, 7811
6626, 3091, 3236, 6425, 6438, 4588, 8705, 9544, 10266, 9873, 8542
6627, 3037, 3038, 3049, 6337, 4327, 4333, 4332, 7639, 9350, 10209
6628, 6120, 6119, 6261, 6416, 6206, 8133, 8987, 9890, 8134, 8135
6629, 3159, 3101, 3160, 6401, 4642, 4644, 4643, 9702, 7451, 9985
6630, 6288, 3219, 6421, 6484, 10425, 9631, 9822, 7496, 9632, 9539
6631, 1288, 125, 1304, 6482, 9658, 9659, 1851, 9709, 9735, 10115
6632, 2962, 3174, 3405, 6374, 3714, 3960, 3959, 8709, 9746, 8795
6633, 3072, 6265, 3106, 6450, 6952, 10400, 4508, 6794, 6550, 9294
6634, 2955, 3189, 3190, 6373, 3658, 3925, 3924, 8151, 8031, 6834
6635, 1430, 6326, 6374, 6454, 9646, 8511, 9647, 10426, 8712, 8713
6636, 3058, 3056, 3093, 6421, 4430, 4432, 4431, 10206, 10221, 9538
6637, 790, 6248, 791, 6324, 10427, 10382, 793, 10428, 10030, 10130
6638, 1174, 1139, 6111, 6377, 1911, 9860, 10082, 9962, 10067, 9767
6639, 1021, 6279, 6412, 6475, 9238, 7229, 10330, 9239, 7274, 7167
6640, 6125, 860, 6105, 6251, 6138, 6199, 6202, 9843, 9441, 9530
6641, 1277, 1019, 1243, 6384, 2149, 2090, 2150, 8498, 8887, 8436
6642, 3158, 3310, 6321, 6401, 4409, 9216, 9540, 9691, 9075, 7450
6643, 1424, 1393, 1198, 6318, 2823, 1963, 2001, 7967, 8459, 7719
6644, 3399, 3173, 3368, 6318, 3977, 3937, 4798, 7969, 7409, 9592
6645, 1197, 5035, 1121, 6345, 10248, 6500, 1695, 7517, 6505, 6503
6646, 5061, 5066, 3349, 6397, 5154, 10429, 10148, 10150, 9501, 9886
6647, 3123, 3030, 3331, 6312, 4298, 4300, 4299, 7153, 7051, 7851
6648, 3023, 6410, 3302, 6446, 7688, 10286, 4264, 10430, 10432, 10431
6649, 1314, 1185, 1396, 6429, 2849, 2851, 2850, 10433, 10435, 10434
6650, 5254, 6413, 977, 6458, 9633, 10436, 10437, 9634, 8323, 10438
6651, 1001, 999, 1002, 6378, 2047, 2049, 2048, 8850, 8774, 8308
6652, 3191, 6330, 6398, 6405, 9076, 8033, 9077, 10387, 8831, 9445
6653, 1384, 1201, 1418, 6283, 1948, 1995, 2747, 7454, 9084, 8929
6654, 3318, 3361, 3293, 6396, 4223, 4813, 4923, 7022, 7023, 8671
6655, 680, 6430, 6251, 6446, 10439, 9442, 10440, 10441, 10442, 9237
6656, 6126, 6307, 6118, 6419, 8982, 9191, 6196, 10300, 10301, 10443
6657, 3079, 3356, 3322, 6417, 4541, 4547, 4546, 9195, 7334, 9034
6658, 1118, 1277, 1270, 6388, 2628, 2627, 2626, 9050, 8695, 10227
6659, 5834, 878, 5854, 5829, 10005, 10007, 5960, 10164, 10444, 5939
6660, 3291, 6249, 3363, 6415, 9105, 8326, 4366, 10147, 7959, 8708
6661, 1026, 1027, 1033, 6338, 2138, 2182, 2181, 7039, 7556, 7043
6662, 3002, 3001, 3008, 6338, 4114, 4157, 4156, 8908, 9343, 7282
6663, 3397, 6307, 3274, 6480, 9192, 9283, 3901, 10138, 10446, 10445
6664, 2951, 6333, 3224, 6418, 9905, 9862, 3904, 10447, 9256, 9788
6665, 3393, 3176, 3359, 6283, 3970, 3922, 4722, 9275, 7988, 6789
6666, 5588, 5689, 5712, 5693, 9900, 5797, 10015, 10448, 10153, 5818
6667, 1268, 1267, 1125, 6404, 2663, 2662, 2664, 10449, 10003, 10213
6668, 1141, 6253, 1209, 6428, 7552, 9023, 2732, 10217, 7591, 9024
6669, 2996, 6279, 2999, 6420, 7228, 8053, 4127, 9047, 8375, 8407
6670, 3022, 3381, 661, 6410, 3439, 10450, 10451, 8162, 6983, 10452
6671, 5829, 889, 5835, 5849, 10236, 10240, 5912, 5936, 9988, 5937
6672, 3038, 6288, 3219, 6421, 9351, 10425, 4329, 9823, 9822, 9631
6673, 5058, 1374, 5048, 6382, 9701, 10453, 5102, 8230, 9564, 10454
6674, 3254, 5263, 6349, 6453, 9224, 9223, 8449, 10307, 10257, 7858
6675, 6282, 6450, 3292, 6477, 6511, 10295, 10293, 6788, 9716, 10394
6676, 1268, 1125, 6306, 6404, 2664, 10014, 10455, 10449, 10213, 8845
6677, 3057, 6389, 6267, 6421, 9450, 6989, 9215, 10229, 6992, 6993
6678, 3212, 3232, 3210, 6383, 4130, 4897, 4185, 8163, 9805, 9412
6679, 1421, 1294, 6305, 6481, 1797, 7787, 7788, 10456, 10458, 10457
6680, 1324, 1176, 1332, 6323, 2831, 2715, 2832, 7180, 8993, 9667
6681, 3299, 3307, 3151, 6323, 4806, 4690, 4807, 6552, 9045, 8996
6682, 1331, 1199, 1186, 6374, 2569, 2852, 2708, 9513, 10102, 9097
6683, 800, 6248, 790, 6324, 10032, 10427, 5542, 10031, 10030, 10428
6684, 3334, 3023, 3302, 6446, 3448, 4264, 4265, 10459, 10430, 10431
6685, 1304, 337, 5831, 5834, 1850, 5883, 10114, 10119, 5885, 5887
6686, 850, 5844, 5826, 6348, 5859, 5921, 5918, 8759, 7819, 8678
6687, 3291, 3043, 3363, 6249, 4365, 4312, 4366, 9105, 7782, 8326
6688, 1068, 1316, 1388, 6249, 2389, 2391, 2338, 7109, 7957, 6928
6689, 3365, 5584, 5594, 6286, 10460, 5649, 9589, 9590, 10461, 7079
6690, 886, 870, 5849, 6482, 908, 10167, 10245, 10116, 10302, 9990
6691, 3284, 2983, 3234, 6392, 4069, 4058, 4070, 8885, 8501, 9281
6692, 3099, 3239, 3240, 6411, 4631, 4634, 4633, 9755, 10269, 10462
6693, 1007, 1005, 1243, 6380, 2077, 2079, 2078, 8408, 8822, 8170
6694, 5063, 980, 1214, 6373, 9175, 1683, 10463, 9178, 8962, 9091
6695, 1246, 1284, 990, 6322, 2004, 2003, 1778, 9869, 7618, 9389
6696, 3058, 6310, 6389, 6421, 9692, 7402, 9693, 10206, 7687, 6992
6697, 5589, 5972, 5967, 5991, 9910, 10093, 10464, 9912, 6095, 6071
6698, 660, 6404, 650, 6410, 10329, 8844, 4982, 10465, 8849, 8847
6699, 3163, 3121, 6256, 6394, 4723, 9278, 9373, 10009, 9855, 9687
6700, 1123, 1181, 1182, 6365, 2649, 2652, 2651, 8787, 9944, 10346
6701, 1299, 1422, 1150, 6306, 1926, 2763, 2764, 9909, 8512, 7600
6702, 3230, 3123, 6245, 6473, 4306, 7296, 7445, 7446, 7154, 6946
6703, 1255, 6245, 1148, 6474, 9366, 7188, 2331, 8901, 7190, 7054
6704, 5273, 5277, 3163, 6394, 5420, 10466, 9481, 10008, 10367, 10009
6705, 873, 6317, 876, 6414, 6964, 9336, 968, 9972, 8277, 9836
6706, 801, 800, 6324, 6390, 803, 10031, 10467, 10468, 10033, 8301
6707, 878, 5834, 870, 5829, 10005, 10165, 954, 10444, 10164, 10166
6708, 5589, 5972, 5582, 5967, 9910, 10092, 5668, 10464, 10093, 10094
6709, 696, 6364, 6321, 6401, 10469, 7471, 10470, 10233, 9740, 7450
6710, 5689, 5588, 5581, 5693, 9900, 5665, 10151, 10153, 10448, 10152
6711, 3265, 3126, 3391, 6324, 4559, 4743, 3833, 6900, 6901, 10332
6712, 5693, 5711, 5698, 5597, 5817, 5816, 5761, 10265, 10078, 9955
6713, 5967, 5982, 5992, 5599, 6036, 6073, 6072, 10273, 10072, 10071
6714, 1319, 6364, 1345, 6485, 8777, 8778, 2285, 10471, 10473, 10472
6715, 1185, 1126, 1184, 6364, 2668, 2666, 2669, 10474, 8269, 9982
6716, 755, 1326, 1403, 6393, 7906, 2257, 7908, 10282, 8152, 8265
6717, 5587, 5596, 1390, 6286, 5627, 10371, 10349, 8619, 10372, 10350
6718, 3006, 2988, 3212, 6383, 4084, 4093, 4095, 8897, 8428, 8163
6719, 3255, 6301, 3246, 6425, 8338, 8431, 4595, 8589, 7061, 8884
6720, 1039, 730, 1343, 6365, 10475, 10476, 1487, 7346, 10477, 7348
6721, 6268, 6369, 6282, 6450, 7368, 7369, 7365, 6995, 10296, 6511
6722, 6244, 1342, 6402, 6456, 9895, 9896, 6643, 9426, 10101, 10478
6723, 6284, 6383, 6301, 6385, 8164, 6893, 8039, 6671, 9806, 8205
6724, 1365, 1102, 985, 6273, 1976, 1975, 1823, 7204, 8292, 7222
6725, 756, 6260, 755, 6411, 10479, 10283, 758, 9479, 7824, 10284
6726, 5849, 6471, 5835, 6482, 9987, 10244, 5937, 9990, 9991, 10480
6727, 2987, 2988, 2986, 6387, 4082, 4081, 4076, 8342, 7675, 8911
6728, 1393, 1168, 1364, 6318, 2821, 2819, 2822, 8459, 6877, 6859
6729, 3143, 3368, 3339, 6318, 4797, 4796, 4795, 9603, 9592, 7764
6730, 3315, 3186, 3185, 6368, 4537, 3908, 4839, 9425, 7731, 9518
6731, 3150, 3343, 3276, 6414, 4702, 4385, 4656, 9214, 9465, 9867
6732, 1185, 6257, 1126, 6364, 10481, 9209, 2668, 10474, 9001, 8269
6733, 3328, 6268, 3136, 6466, 9663, 9508, 4776, 9664, 7799, 9310
6734, 1023, 6412, 6280, 6475, 10365, 7232, 9170, 9329, 7167, 7212
6735, 1344, 1048, 695, 6364, 1567, 10482, 10483, 7343, 7344, 10484
6736, 1189, 6297, 1417, 6397, 9135, 9528, 1980, 9801, 9595, 10066
6737, 1156, 1157, 6340, 6469, 2779, 10287, 9171, 10097, 10288, 9011
6738, 3099, 3240, 6304, 6411, 4633, 10485, 9753, 9755, 10462, 9756
6739, 992, 994, 1352, 6271, 2011, 2014, 2013, 7000, 8563, 8562
6740, 2967, 3327, 2969, 6271, 3989, 3988, 3987, 7002, 8222, 6623
6741, 3224, 6308, 3115, 6418, 9787, 8401, 4569, 9788, 7142, 8450
6742, 3269, 3127, 3396, 6304, 4746, 4744, 3772, 8733, 7660, 8566
6743, 3278, 5967, 5982, 568, 10274, 6036, 9661, 3836, 6035, 6031
6744, 3121, 3120, 3163, 6256, 4445, 4724, 4723, 9278, 7443, 9373
6745, 1145, 1146, 1188, 6256, 2469, 2749, 2748, 7420, 9276, 9741
6746, 1417, 6323, 1324, 6397, 9529, 7180, 1983, 10066, 6806, 7181
6747, 680, 6404, 6251, 6430, 9525, 9006, 10440, 10439, 8927, 9442
6748, 3306, 3079, 3322, 6417, 4544, 4546, 4545, 9032, 9195, 9034
6749, 2982, 2981, 6392, 6483, 4052, 9404, 8791, 8907, 10486, 6694
6750, 3000, 3313, 3136, 6369, 4135, 4155, 4154, 9162, 9067, 9307
6751, 550, 3344, 5828, 5838, 3802, 8045, 5895, 5899, 7148, 5900
6752, 3274, 6126, 3100, 6307, 9282, 8981, 3898, 9283, 8982, 8983
6753, 1290, 1151, 1107, 6390, 2583, 2480, 2584, 9533, 8613, 8614
6754, 3281, 5698, 5693, 531, 9952, 5761, 10264, 3764, 5760, 5756
6755, 1193, 1423, 1278, 6372, 2539, 2560, 2787, 9537, 8528, 9570
6756, 3248, 3157, 3098, 6355, 4628, 4627, 4629, 10375, 10488, 10487
6757, 587, 3040, 6119, 6106, 3871, 8362, 6170, 6174, 7358, 6175
6758, 5700, 319, 1373, 5695, 5749, 1815, 8213, 5751, 5747, 7829
6759, 856, 6270, 855, 6441, 10489, 8102, 858, 10490, 8287, 8285
6760, 876, 873, 885, 6317, 968, 967, 946, 9336, 6964, 7707
6761, 1131, 1130, 1097, 6265, 2533, 2229, 2534, 6549, 9325, 6535
6762, 3072, 3105, 3106, 6265, 4203, 4509, 4508, 6952, 6981, 10400
6763, 2998, 6347, 3182, 6439, 9433, 9286, 4120, 10096, 8663, 9287
6764, 3057, 3056, 6389, 6421, 4425, 10491, 9450, 10229, 10221, 6992
6765, 5839, 333, 1369, 5833, 5873, 1826, 10492, 5875, 5871, 10493
6766, 1166, 1309, 1275, 6335, 2814, 2643, 2386, 9159, 9697, 6779
6767, 1243, 1248, 1270, 6380, 2080, 2927, 2926, 8170, 8871, 8872
6768, 3294, 3319, 3362, 6401, 4924, 4251, 4822, 8898, 7122, 7120
6769, 5840, 5827, 5841, 6367, 5928, 5930, 5929, 9950, 9582, 9602
6770, 785, 786, 776, 6393, 788, 5529, 5530, 9394, 10136, 10494
6771, 1314, 1272, 1185, 6257, 2848, 2671, 2849, 10495, 9983, 10481
6772, 5588, 313, 1392, 5689, 10496, 1725, 9899, 9900, 5731, 9898
6773, 5695, 318, 1064, 5692, 5746, 1811, 9017, 5748, 5744, 7099
6774, 5258, 5291, 989, 6363, 5339, 9875, 10497, 10498, 7072, 9876
6775, 3110, 3179, 3355, 6415, 4687, 4489, 4686, 8274, 9722, 8970
6776, 1256, 996, 998, 6274, 2033, 2031, 2034, 8544, 8673, 7825
6777, 2971, 3231, 2973, 6274, 4009, 4008, 4007, 6936, 8546, 6604
6778, 3215, 3224, 6333, 6438, 3905, 9862, 9172, 9744, 9789, 7736
6779, 3026, 6255, 3398, 6459, 9087, 7872, 4279, 9088, 7025, 8334
6780, 3055, 6421, 6267, 6486, 10145, 6993, 10220, 10146, 9864, 8604
6781, 5710, 5691, 5698, 6304, 5808, 5764, 5809, 7690, 8734, 9548
6782, 6104, 6124, 861, 6352, 6203, 6143, 6197, 7937, 8582, 9346
6783, 1288, 1149, 1109, 6424, 2588, 2484, 2589, 9707, 10045, 9708
6784, 1305, 314, 5689, 5699, 1790, 5732, 10142, 10143, 5734, 5736
6785, 1069, 1052, 6291, 6423, 2307, 8087, 10499, 9266, 8437, 8258
6786, 1199, 1331, 1104, 6417, 2569, 2568, 1736, 10103, 9515, 8283
6787, 6304, 6393, 6260, 6411, 9821, 9490, 7689, 9756, 10285, 7824
6788, 3340, 3244, 3065, 6348, 4474, 4473, 3800, 8691, 8839, 9853
6789, 1000, 1001, 1252, 6378, 2046, 2052, 2051, 8875, 8850, 7777
6790, 3171, 3343, 3114, 6317, 4704, 4703, 3890, 6963, 9462, 7584
6791, 1368, 1196, 1139, 6317, 2729, 1916, 2727, 8177, 6913, 9861
6792, 3275, 3254, 6349, 6453, 3940, 8449, 8227, 8228, 10307, 7858
6793, 745, 1326, 1404, 755, 7998, 2263, 7997, 5497, 7906, 7907
6794, 1023, 6347, 1018, 6475, 9328, 7456, 2143, 9329, 9330, 9205
6795, 5284, 5266, 5257, 6322, 5452, 5450, 5362, 9764, 9004, 9870
6796, 2969, 2967, 6271, 6470, 3987, 7002, 6623, 7918, 7909, 7669
6797, 1395, 1318, 1038, 6407, 2243, 2241, 2244, 10125, 10126, 10500
6798, 6112, 6269, 6130, 6416, 10278, 7893, 6240, 10281, 7814, 7360
6799, 1259, 1308, 1226, 6400, 2095, 2914, 2913, 9117, 9230, 9369
6800, 3028, 3045, 3246, 6385, 4287, 4290, 4289, 9291, 8740, 8432
6801, 3200, 3199, 3198, 6433, 4875, 4869, 4876, 9645, 10418, 8944
6802, 5696, 1263, 1170, 6353, 8621, 1802, 10090, 8622, 8623, 10091
6803, 680, 6251, 681, 6446, 10440, 10501, 683, 10441, 9237, 10502
6804, 1293, 1043, 37, 6467, 1535, 1531, 1533, 10169, 10260, 10503
6805, 3036, 3219, 6288, 6426, 4330, 10425, 8744, 9930, 10504, 7462
6806, 1312, 6344, 1241, 6445, 9491, 7090, 2299, 9492, 7096, 8957
6807, 3131, 3168, 3132, 6340, 4760, 4759, 4755, 7306, 8760, 9010
6808, 1156, 1157, 1193, 6340, 2779, 2785, 2784, 9171, 10287, 7944
6809, 6111, 6115, 1196, 374, 6162, 6691, 8771, 6158, 6160, 1915
6810, 1320, 1094, 1141, 6356, 2519, 2233, 2520, 8314, 8279, 7550
6811, 680, 670, 6251, 6404, 5002, 10303, 10440, 9525, 9357, 9006
6812, 3349, 5066, 2961, 6397, 10429, 9500, 3634, 9886, 9501, 7559
6813, 532, 5698, 5691, 3396, 5759, 5764, 5763, 3771, 9547, 8731
6814, 5255, 1285, 5289, 6418, 7573, 9798, 5347, 7575, 7141, 9799
6815, 351, 1302, 5972, 5981, 1860, 10184, 6009, 6007, 9574, 6011
6816, 2972, 2974, 3178, 6276, 4011, 4014, 4013, 9713, 6956, 9070
6817, 999, 997, 1203, 6276, 2037, 2039, 2038, 8773, 7827, 8215
6818, 5714, 5705, 5697, 6353, 5810, 5824, 5772, 7756, 7757, 8855
6819, 855, 6270, 856, 6451, 8102, 10489, 858, 10505, 7014, 10506
6820, 1175, 1128, 1301, 6252, 2679, 2681, 2680, 8585, 8889, 8440
6821, 3276, 3103, 3150, 6252, 4655, 4653, 4656, 9866, 9504, 8656
6822, 1430, 6374, 987, 6454, 9647, 10507, 1985, 10426, 8713, 10508
6823, 1304, 125, 886, 6482, 9659, 897, 10112, 10115, 9735, 10116
6824, 3247, 3124, 3271, 6447, 4736, 4460, 4735, 10509, 10510, 8625
6825, 1286, 1360, 1091, 6254, 2504, 1875, 2502, 10228, 8672, 9925
6826, 3066, 3335, 3261, 6254, 3850, 4479, 4478, 7605, 8193, 10155
6827, 5270, 5256, 1104, 6417, 5313, 10511, 9496, 7187, 10386, 8283
6828, 3261, 6254, 3335, 6443, 10155, 8193, 4479, 8503, 7484, 8195
6829, 1137, 1128, 1175, 6377, 2496, 2679, 2678, 9388, 9703, 8973
6830, 1400, 1356, 1174, 6312, 2326, 2720, 1913, 9816, 10362, 9817
6831, 996, 995, 997, 6375, 2022, 2027, 2026, 8674, 9143, 8350
6832, 5285, 5260, 6374, 6454, 5463, 10512, 8819, 8820, 10513, 8713
6833, 1338, 6412, 1023, 6475, 10317, 10365, 2156, 10514, 7167, 9329
6834, 3242, 3243, 3100, 6410, 4639, 4638, 4636, 10515, 8572, 9337
6835, 1028, 1059, 1029, 6277, 2192, 2191, 2132, 7028, 9414, 7741
6836, 3034, 3003, 3004, 6277, 4166, 4106, 4167, 6658, 9210, 9042
6837, 3186, 3354, 3128, 6334, 4539, 4438, 4747, 7702, 8507, 8348
6838, 3021, 646, 6346, 6447, 10516, 10517, 9058, 8624, 10518, 9060
6839, 3191, 3217, 3222, 6405, 4844, 3914, 4849, 10387, 10253, 9630
6840, 6246, 6443, 3402, 6444, 7175, 10340, 10172, 6679, 8683, 10341
6841, 3232, 3246, 3210, 6385, 4291, 4898, 4897, 9289, 8432, 9807
6842, 5966, 6248, 5983, 6390, 9406, 8062, 6061, 10519, 9749, 10043
6843, 5063, 5041, 5042, 6373, 5216, 5238, 5126, 9178, 9269, 9183
6844, 3192, 3204, 5067, 6391, 3646, 10520, 10521, 10522, 10424, 10523
6845, 3183, 6368, 5268, 6454, 9306, 10524, 10016, 8921, 8953, 10018
6846, 5258, 989, 5282, 6413, 10497, 10414, 5336, 10525, 10416, 10417
6847, 3348, 5701, 5690, 536, 8208, 5778, 7848, 3791, 5777, 5773
6848, 1035, 6370, 1130, 6376, 10179, 10019, 2228, 10526, 6812, 9326
6849, 3091, 6331, 3090, 6438, 9543, 10068, 4375, 10266, 8219, 9470
6850, 2975, 3041, 3086, 6278, 4018, 4029, 4028, 6996, 7917, 6648
6851, 1000, 1111, 1066, 6278, 2054, 2053, 2044, 8874, 7662, 7914
6852, 1360, 6254, 1286, 6465, 8672, 10228, 2504, 8607, 7839, 8969
6853, 3134, 6246, 3402, 6444, 7168, 10172, 4770, 8793, 6679, 10341
6854, 3314, 6330, 3191, 6405, 7242, 9076, 4846, 8830, 8831, 10387
6855, 1371, 1141, 1209, 6428, 2733, 2732, 2734, 9677, 10217, 9024
6856, 5071, 6352, 5031, 6446, 10002, 8840, 5198, 10392, 9347, 10527
6857, 741, 751, 6365, 6396, 5494, 9809, 10528, 9942, 9812, 9813
6858, 5258, 6363, 989, 6413, 10498, 9876, 10497, 10525, 9845, 10416
6859, 1249, 1240, 976, 6333, 1929, 1928, 1930, 7734, 7951, 9253
6860, 3224, 2951, 3215, 6333, 3904, 3902, 3905, 9862, 9905, 9172
6861, 3292, 3162, 3029, 6282, 4294, 4295, 4292, 10293, 8997, 8233
6862, 1317, 1054, 1187, 6282, 2318, 2319, 2320, 7205, 7739, 6787
6863, 3328, 3285, 3136, 6268, 4515, 4775, 4776, 9663, 6994, 9508
6864, 1353, 1161, 1310, 6268, 2801, 2800, 2540, 6796, 7366, 6531
6865, 756, 746, 6260, 6411, 5499, 10529, 10479, 9479, 9637, 7824
6866, 3194, 3193, 3195, 6399, 4853, 4856, 4855, 10298, 10405, 10315
6867, 375, 877, 6107, 1391, 10530, 9856, 6163, 1642, 9966, 9967
6868, 1035, 1369, 5833, 6370, 1830, 10493, 10177, 10179, 10531, 10180
6869, 1312, 1241, 1050, 6445, 2299, 2297, 2300, 9492, 8957, 8026
6870, 3003, 3175, 3178, 6379, 4168, 4170, 4040, 9211, 10290, 10013
6871, 2985, 2997, 2987, 6387, 4079, 4078, 4077, 9027, 8612, 8342
6872, 6254, 6456, 6247, 6461, 8473, 7301, 7794, 7606, 10532, 7006
6873, 1421, 315, 5699, 5694, 1795, 5735, 8905, 7786, 5737, 5739
6874, 3189, 3217, 5056, 409, 3655, 9621, 8202, 3654, 3650, 5173
6875, 6251, 6410, 681, 6446, 8894, 9784, 10501, 9237, 10432, 10502
6876, 3156, 3309, 3155, 6396, 4809, 4414, 4624, 10533, 8489, 9535
6877, 1069, 6291, 6243, 6423, 10499, 10088, 10422, 9266, 8258, 10423
6878, 1187, 6282, 1054, 6423, 6787, 7739, 2319, 9439, 8237, 8958
6879, 3161, 3306, 3109, 6264, 4684, 4683, 4681, 7126, 9031, 7196
6880, 1331, 1186, 1134, 6264, 2708, 2707, 2709, 9514, 7132, 7192
6881, 3219, 6288, 6426, 6484, 10425, 7462, 10504, 9632, 7496, 7601
6882, 1055, 6109, 6113, 372, 6559, 6156, 7758, 1906, 6152, 6154
6883, 332, 985, 1035, 5843, 1821, 1829, 1828, 5868, 8294, 10178
6884, 1001, 1002, 1003, 6281, 2048, 2057, 2056, 7571, 7062, 8012
6885, 2977, 2976, 2978, 6281, 4024, 4032, 4031, 8715, 8825, 6714
6886, 1236, 1277, 1276, 6384, 2148, 2629, 2924, 9066, 8498, 7549
6887, 1329, 1195, 1138, 6286, 2722, 1785, 2723, 8115, 10076, 7289
6888, 3170, 3304, 3113, 6286, 4698, 4697, 3759, 10061, 8116, 7287
6889, 1124, 6305, 1265, 6393, 9435, 10534, 2659, 9436, 9437, 9628
6890, 1334, 720, 1039, 6365, 10535, 10536, 1482, 9130, 10537, 7346
6891, 1074, 1062, 6337, 6436, 2358, 8336, 8492, 8965, 9364, 8966
6892, 5585, 5991, 5593, 6448, 10538, 9616, 5673, 10539, 9619, 9618
6893, 1363, 1164, 1322, 6326, 2428, 2808, 2809, 9379, 7963, 9382
6894, 6125, 6306, 6105, 6419, 9827, 9793, 6202, 10540, 8513, 10299
6895, 3000, 2999, 2996, 6279, 4133, 4127, 4134, 9161, 8053, 7228
6896, 1021, 1024, 1025, 6279, 2151, 2159, 2158, 9238, 6668, 8937
6897, 1264, 1326, 1325, 6393, 2932, 2261, 2929, 10065, 8152, 8153
6898, 995, 994, 993, 6375, 2016, 2012, 2017, 9143, 8565, 7922
6899, 3164, 3392, 3117, 6297, 3954, 4713, 4710, 9655, 9526, 7528
6900, 1417, 1189, 1142, 6297, 1980, 2736, 2737, 9528, 9135, 8923
6901, 3204, 2953, 5043, 6391, 3649, 8834, 10541, 10424, 10247, 10321
6902, 5966, 6324, 6248, 6390, 10542, 10030, 9406, 10519, 8301, 9749
6903, 1369, 5839, 5833, 6376, 10492, 5875, 10493, 10543, 10353, 10544
6904, 1341, 1173, 6261, 6416, 2830, 8988, 10063, 10326, 9889, 8135
6905, 3141, 3250, 3277, 6335, 4361, 4618, 4789, 9665, 6785, 9731
6906, 1273, 6390, 6248, 6406, 9748, 9749, 9610, 10163, 9449, 10545
6907, 1356, 6312, 1148, 6460, 10362, 7053, 2325, 10546, 7479, 9378
6908, 1281, 6259, 1367, 6428, 7499, 9358, 2476, 9644, 8556, 9676
6909, 855, 6270, 6451, 6452, 8102, 7014, 10505, 8104, 7539, 10547
6910, 676, 6364, 686, 6401, 9738, 10548, 5009, 9739, 9740, 9998
6911, 3058, 6389, 3056, 6421, 9693, 10491, 4430, 10206, 6992, 10221
6912, 980, 1214, 193, 5063, 1683, 1679, 1681, 9175, 10463, 5122
6913, 2991, 6285, 3229, 6426, 7975, 10549, 4109, 8261, 7461, 10550
6914, 705, 1048, 1335, 6364, 10551, 1562, 10552, 10553, 7344, 7472
6915, 1327, 1266, 1267, 6430, 2448, 2661, 2937, 8630, 9339, 10004
6916, 3342, 3060, 3256, 6259, 4451, 4326, 4452, 8557, 6555, 7215
6917, 1085, 1367, 1281, 6259, 2477, 2476, 2351, 9360, 9358, 7499
6918, 3397, 3274, 3125, 6480, 3901, 4740, 4738, 10138, 10445, 10554
6919, 1421, 1152, 1294, 6481, 2769, 2770, 1797, 10456, 10555, 10458
6920, 5830, 5839, 334, 1145, 5878, 5874, 5876, 9536, 7416, 1836
6921, 5837, 3120, 551, 5838, 9038, 3812, 5902, 5903, 7441, 5898
6922, 5050, 5036, 5059, 6371, 5145, 5224, 5226, 7961, 9907, 7415
6923, 3212, 2995, 3232, 6284, 4105, 4128, 4130, 8071, 9296, 9288
6924, 1020, 1237, 1257, 6284, 2130, 2155, 2154, 7008, 8443, 7081
6925, 1074, 1063, 1062, 6436, 2357, 2353, 2358, 8965, 9363, 9364
6926, 1145, 6256, 1382, 6468, 7420, 8954, 2750, 10359, 7905, 8956
6927, 1307, 1370, 1205, 6272, 2684, 2862, 2412, 7743, 9927, 8414
6928, 3345, 3283, 3180, 6272, 4658, 4388, 4837, 8828, 7747, 8902
6929, 1021, 1025, 1338, 6412, 2158, 2160, 2157, 10330, 9107, 10317
6930, 2991, 3223, 3229, 6285, 4045, 4110, 4109, 7975, 7161, 10549
6931, 1254, 1248, 1016, 6285, 2135, 2070, 2133, 7459, 8869, 6674
6932, 5049, 5032, 5072, 6250, 5206, 5201, 5139, 7860, 8184, 8049
6933, 1095, 1056, 6262, 6474, 1954, 6895, 8367, 8114, 6896, 6897
6934, 3070, 6262, 3031, 6473, 9723, 6968, 3930, 9114, 6972, 6970
6935, 6116, 3171, 591, 6108, 6736, 3891, 6188, 6189, 8633, 6184
6936, 1146, 1321, 1284, 6275, 2471, 2701, 2753, 9277, 9079, 7615
6937, 3296, 3121, 3259, 6275, 4447, 4728, 4676, 8949, 9279, 8508
6938, 3080, 3316, 3307, 6371, 4553, 4552, 4551, 7962, 9487, 9456
6939, 3255, 3237, 3249, 6425, 4594, 4523, 4896, 8589, 7932, 8749
6940, 3248, 3098, 6324, 6441, 4629, 10333, 10334, 10376, 10556, 10378
6941, 5264, 6368, 3185, 6458, 10557, 9518, 10020, 10000, 7733, 9400
6942, 5842, 3010, 549, 2960, 8882, 3804, 5892, 9757, 3803, 3797
6943, 5282, 1232, 977, 6413, 10413, 1751, 10558, 10417, 10415, 10436
6944, 3085, 6243, 3102, 6308, 10559, 10039, 4369, 9493, 10040, 8402
6945, 1127, 6243, 1110, 6308, 10042, 10133, 2395, 8399, 10040, 8747
6946, 5583, 5593, 3257, 6448, 5643, 10052, 10388, 9917, 9618, 9409
6947, 6257, 6329, 635, 6424, 8172, 10560, 10561, 8576, 10563, 10562
6948, 6122, 6132, 6114, 6312, 6227, 6183, 6241, 8147, 8145, 7179
6949, 1041, 1326, 1377, 6393, 2254, 2256, 2255, 7218, 8152, 6744
6950, 991, 6269, 1177, 6489, 10277, 8243, 2008, 10564, 8199, 8244
6951, 1055, 1356, 1400, 6312, 2324, 2326, 1908, 6561, 10362, 9816
6952, 3129, 6360, 6415, 6462, 9324, 7887, 10565, 10566, 8197, 9340
6953, 791, 801, 800, 6324, 5544, 803, 5545, 10130, 10467, 10031
6954, 800, 790, 791, 6324, 5542, 793, 5545, 10031, 10428, 10130
6955, 3136, 6268, 3285, 6450, 9508, 6994, 4775, 10393, 6995, 6793
6956, 165, 610, 1089, 6306, 4933, 10567, 7389, 9157, 10568, 7599
6957, 3213, 2964, 3214, 6363, 3732, 3974, 3973, 7738, 10023, 7543
6958, 1369, 5833, 6370, 6376, 10493, 10180, 10531, 10543, 10544, 6812
6959, 5691, 3099, 3269, 6304, 10010, 3769, 8732, 8734, 9753, 8733
6960, 882, 3258, 872, 6367, 9704, 10569, 918, 9706, 9601, 10570
6961, 5971, 5976, 3104, 571, 6045, 6869, 7170, 6044, 6040, 3843
6962, 1155, 6319, 1158, 6469, 8000, 9605, 2782, 9979, 8648, 8666
6963, 1080, 6267, 6436, 6490, 10222, 9957, 10270, 10354, 8584, 9399
6964, 2973, 2971, 6274, 6472, 4007, 6936, 6604, 7219, 9025, 7221
6965, 721, 6270, 731, 6365, 10322, 10123, 5474, 10571, 8789, 10122
6966, 746, 736, 735, 6260, 5489, 738, 5490, 10529, 7821, 7928
6967, 751, 760, 750, 6355, 5505, 5502, 753, 9810, 10572, 10335
6968, 751, 761, 760, 6355, 5504, 763, 5505, 9810, 10573, 10572
6969, 3331, 3375, 3149, 6312, 4301, 3888, 4694, 7851, 9563, 8146
6970, 680, 690, 6430, 6446, 5012, 10051, 10439, 10441, 10574, 10442
6971, 1015, 6287, 1013, 6487, 6635, 8357, 2117, 8344, 6847, 8358
6972, 3080, 3177, 5036, 6371, 3628, 10575, 9906, 7962, 7673, 9907
6973, 1075, 1162, 1164, 6343, 2422, 2426, 2425, 8866, 7327, 8376
6974, 5261, 3174, 5285, 6374, 10576, 10267, 5378, 10577, 9746, 8819
6975, 1014, 1013, 1015, 6287, 2112, 2117, 2116, 7938, 8357, 6635
6976, 2990, 2988, 2989, 6287, 4091, 4086, 4092, 7696, 7674, 9267
6977, 611, 6307, 6306, 6419, 10578, 8892, 10579, 10580, 10301, 8513
6978, 720, 6270, 721, 6365, 10581, 10322, 723, 10537, 8789, 10571
6979, 1242, 5064, 5054, 6398, 10364, 5117, 10323, 10108, 10107, 10325
6980, 3254, 5287, 5263, 6453, 10306, 5408, 9224, 10307, 10308, 10257
6981, 3282, 6366, 6319, 6439, 8842, 7112, 8841, 10582, 8157, 9546
6982, 3168, 3073, 3328, 6466, 4513, 4512, 4511, 9085, 8048, 9664
6983, 5714, 5697, 534, 3146, 5772, 5770, 5765, 10583, 8851, 3781
6984, 1005, 1006, 1004, 6290, 2072, 2071, 2066, 8821, 6655, 7336
6985, 2981, 2980, 2979, 6290, 4046, 4042, 4047, 9403, 7185, 8023
6986, 1061, 1063, 1244, 6288, 2352, 2355, 2354, 7658, 9361, 8862
6987, 3038, 3036, 3219, 6288, 4328, 4330, 4329, 9351, 8744, 10425
6988, 1069, 6243, 1127, 6303, 10422, 10042, 2394, 9263, 10089, 9734
6989, 3044, 3102, 6243, 6303, 4370, 10039, 10087, 8601, 9733, 10089
6990, 3131, 3130, 3071, 6263, 4503, 4502, 4504, 7308, 8596, 9322
6991, 1096, 1155, 1156, 6263, 2526, 2529, 2528, 8638, 8002, 8780
6992, 3192, 5055, 2954, 6442, 10584, 10585, 3643, 10586, 10588, 10587
6993, 3344, 550, 3059, 5838, 3802, 3806, 3808, 7148, 5899, 7853
6994, 5839, 333, 1084, 1369, 5873, 1832, 8718, 10492, 1826, 1833
6995, 816, 826, 3063, 6304, 5569, 7385, 10589, 10590, 9219, 7659
6996, 2951, 5267, 5265, 488, 9904, 5399, 10271, 3734, 5395, 5397
6997, 1417, 1142, 1176, 6323, 2737, 2510, 2738, 9529, 8994, 8993
6998, 3392, 3151, 3117, 6323, 4712, 4486, 4713, 9527, 8996, 7321
6999, 3328, 3136, 3313, 6466, 4776, 4155, 4777, 9664, 9310, 9308
7000, 625, 635, 6329, 6424, 4957, 10560, 10591, 10592, 10562, 10563
7001, 3077, 6273, 3340, 6459, 7862, 8688, 3951, 8643, 7026, 9395
7002, 1080, 1379, 1082, 6267, 2452, 2451, 2450, 10222, 9019, 7020
7003, 3354, 3055, 3057, 6267, 4426, 4424, 4427, 8583, 10220, 9215
7004, 625, 6424, 6329, 6482, 10592, 10563, 10591, 10593, 8579, 10594
7005, 991, 1177, 1372, 6489, 2008, 2010, 1903, 10564, 8244, 10595
7006, 3181, 872, 3258, 6367, 10596, 10569, 3602, 9639, 10570, 9601
7007, 1065, 991, 6112, 6416, 1896, 10279, 10597, 10412, 10280, 10281
7008, 631, 641, 6306, 6307, 4964, 9881, 10598, 10599, 9847, 8892
7009, 3070, 6360, 3129, 6462, 9112, 9324, 4497, 9332, 8197, 10566
7010, 2983, 2982, 2981, 6392, 4056, 4052, 4057, 8501, 8791, 9404
7011, 1094, 1320, 1159, 6356, 2519, 2521, 2518, 8279, 8314, 8319
7012, 889, 870, 126, 6482, 909, 907, 899, 9989, 10302, 10407
7013, 3057, 3056, 3058, 6389, 4425, 4430, 4429, 9450, 10491, 9693
7014, 3197, 3195, 3216, 6344, 4863, 4865, 4864, 8864, 9612, 7995
7015, 1222, 1241, 1220, 6344, 2890, 2889, 2887, 8018, 7090, 8019
7016, 3341, 3133, 3282, 6319, 4758, 4768, 4362, 8537, 9565, 8841
7017, 1158, 1366, 1306, 6319, 2783, 2388, 2794, 9605, 8280, 7842
7018, 5853, 6370, 5833, 6376, 8516, 10180, 5959, 10230, 6812, 10544
7019, 1195, 6286, 1390, 6409, 10076, 10350, 1720, 10235, 10188, 10374
7020, 6115, 874, 877, 6127, 6690, 952, 9857, 6216, 9877, 9858
7021, 3365, 6286, 3170, 6409, 9590, 10061, 3694, 10600, 10188, 10186
7022, 5049, 5072, 1192, 6250, 5139, 10053, 9367, 7860, 8049, 9368
7023, 5035, 5053, 5046, 6345, 5135, 5220, 5219, 6505, 7516, 7869
7024, 1194, 1389, 6280, 6469, 2169, 8531, 9013, 9839, 8664, 9120
7025, 6107, 888, 6129, 871, 10311, 9920, 6218, 10601, 904, 9919
7026, 2982, 6295, 2994, 6483, 8790, 7285, 4063, 8907, 6654, 8426
7027, 2955, 5041, 5056, 6373, 9327, 5178, 10117, 8151, 9269, 8203
7028, 133, 3181, 3047, 6414, 3600, 3605, 3604, 10602, 9640, 10195
7029, 2986, 3006, 3208, 6294, 4083, 4085, 4074, 8910, 8896, 6837
7030, 1011, 1233, 1031, 6294, 2098, 2110, 2109, 7278, 8067, 7275
7031, 3094, 3069, 3032, 6427, 4307, 4207, 4308, 7598, 7943, 10241
7032, 785, 776, 775, 6393, 5530, 778, 5527, 9394, 10494, 10036
7033, 3158, 3159, 3310, 6401, 4641, 4818, 4409, 9691, 9702, 9075
7034, 3276, 3337, 3103, 6252, 4657, 3577, 4655, 9866, 9316, 9504
7035, 1301, 1128, 1362, 6252, 2681, 1602, 2682, 8440, 8889, 10057
7036, 2984, 2994, 2982, 6295, 4064, 4063, 4061, 8066, 7285, 8790
7037, 1009, 1007, 1019, 6295, 2087, 2089, 2088, 6821, 6524, 8886
7038, 1356, 6377, 6312, 6460, 10603, 8480, 10362, 10546, 9715, 7479
7039, 1381, 1170, 1178, 6353, 2826, 2430, 2566, 8268, 10091, 7866
7040, 1270, 1277, 1243, 6293, 2627, 2150, 2926, 10226, 8496, 8168
7041, 3252, 3245, 3218, 6293, 4603, 4902, 4125, 7104, 9249, 8445
7042, 1060, 1061, 1029, 6362, 2199, 2198, 2196, 9541, 7621, 7620
7043, 3225, 6292, 2970, 6472, 8725, 10604, 4003, 8920, 8611, 10205
7044, 3241, 6352, 3054, 6446, 9471, 10027, 4421, 9235, 9347, 10391
7045, 1207, 1018, 1023, 6347, 2137, 2143, 2145, 8662, 7456, 9328
7046, 2998, 2993, 3182, 6347, 4119, 4111, 4120, 9433, 9261, 9286
7047, 5066, 5037, 5060, 6397, 5229, 5227, 5151, 9501, 8752, 7281
7048, 660, 670, 6404, 6410, 4992, 9357, 10329, 10465, 10304, 8849
7049, 5261, 3174, 6374, 6417, 10576, 9746, 10577, 10605, 9391, 9516
7050, 6113, 6111, 1174, 373, 6159, 10082, 9814, 6155, 6157, 1912
7051, 785, 795, 6304, 6305, 5537, 10606, 9820, 9819, 10607, 7694
7052, 1080, 1074, 1103, 6436, 2363, 2420, 2419, 10270, 8965, 9396
7053, 3289, 3247, 6329, 6346, 4824, 9688, 10608, 9059, 9958, 8174
7054, 5040, 6354, 3192, 6391, 10368, 10609, 10610, 10411, 9016, 10522
7055, 801, 6324, 811, 6390, 10467, 9833, 5554, 10468, 8301, 10611
7056, 3027, 3044, 3028, 6291, 4283, 4282, 4149, 8089, 8600, 9290
7057, 5852, 5839, 6275, 6376, 5957, 7546, 7150, 7752, 10353, 7751
7058, 3206, 3205, 2997, 6403, 4136, 4090, 4137, 9304, 10410, 8753
7059, 1084, 5839, 1369, 6376, 8718, 10492, 1833, 10352, 10353, 10543
7060, 1199, 1104, 5256, 6417, 1736, 10511, 10385, 10103, 8283, 10386
7061, 3160, 3101, 3247, 6346, 4644, 4646, 4645, 9984, 7448, 9958
7062, 2963, 3188, 3172, 6339, 3964, 3969, 3667, 9554, 7519, 9036
7063, 2965, 3221, 494, 5266, 3753, 3752, 3748, 9003, 10047, 5413
7064, 1258, 1092, 1143, 6357, 2240, 2507, 2509, 9566, 9150, 8814
7065, 3067, 3233, 3118, 6357, 4215, 4484, 4483, 9522, 8737, 8785
7066, 1412, 6107, 888, 1303, 10612, 10311, 10613, 1644, 10615, 10614
7067, 3390, 6329, 5835, 6471, 9689, 10320, 10319, 10616, 10617, 10244
7068, 5031, 6352, 6430, 6446, 8840, 7467, 8933, 10527, 9347, 10442
7069, 989, 6363, 1260, 6413, 9876, 9772, 1997, 10416, 9845, 9863
7070, 1065, 6112, 370, 6416, 10597, 6148, 1897, 10412, 10281, 10618
7071, 984, 1064, 1117, 6336, 1810, 1968, 1967, 7226, 7102, 8693
7072, 2959, 3092, 3039, 6336, 3943, 3942, 3786, 7184, 7960, 6923
7073, 6112, 6269, 991, 6489, 10278, 10277, 10279, 10619, 8199, 10564
7074, 3307, 3111, 3151, 6351, 4689, 4691, 4690, 9623, 9251, 9880
7075, 1176, 1136, 1332, 6351, 2714, 2716, 2715, 9879, 9428, 9963
7076, 1308, 1008, 1010, 6298, 2093, 2091, 2094, 9229, 7118, 7406
7077, 3284, 2985, 2983, 6298, 4068, 4067, 4069, 7654, 9026, 8365
7078, 3028, 6291, 3044, 6431, 9290, 8600, 4282, 10162, 10259, 10620
7079, 1181, 1180, 1334, 6365, 2650, 2440, 2834, 9944, 8788, 9130
7080, 3236, 3215, 6358, 6438, 4591, 9173, 8704, 9873, 9744, 8289
7081, 755, 6260, 745, 6393, 10283, 10621, 5497, 10282, 9490, 8356
7082, 6290, 6392, 2981, 6483, 6527, 9404, 9403, 6653, 6694, 10486
7083, 3331, 3030, 3375, 6312, 4300, 3883, 4301, 7851, 7051, 9563
7084, 5581, 5600, 5689, 5711, 5663, 10140, 10151, 10028, 9973, 5794
7085, 3292, 3029, 3136, 6369, 4292, 4153, 4293, 10294, 8471, 9307
7086, 5982, 6324, 5966, 6390, 8297, 10542, 6068, 8300, 8301, 10519
7087, 3056, 3055, 3038, 6421, 4339, 4338, 4340, 10221, 10145, 9823
7088, 3183, 3297, 3315, 6368, 3961, 4841, 4840, 9306, 8479, 9425
7089, 5966, 6248, 6324, 6441, 9406, 10030, 10542, 9407, 8286, 10378
7090, 5582, 5972, 5598, 5992, 10092, 10183, 5659, 8634, 6098, 10403
7091, 5042, 5065, 988, 6464, 5129, 10044, 10370, 9185, 10401, 9458
7092, 5585, 5978, 5589, 5991, 10622, 9911, 5618, 10538, 6096, 9912
7093, 3275, 2958, 3254, 6453, 3939, 3744, 3940, 8228, 10309, 10307
7094, 1309, 1197, 1121, 6345, 2641, 1695, 2642, 9698, 7517, 6503
7095, 3194, 3192, 6354, 6391, 4852, 10609, 10404, 10297, 10522, 9016
7096, 1302, 5598, 1410, 5972, 9575, 10623, 1702, 10184, 10183, 10624
7097, 1133, 1167, 1132, 6266, 2698, 2697, 2692, 6807, 7609, 7670
7098, 3393, 3176, 6283, 6464, 3970, 7988, 9275, 10625, 7989, 7990
7099, 1213, 988, 1197, 6339, 1991, 1692, 1994, 7508, 9457, 7514
7100, 6304, 6305, 815, 6422, 7694, 10626, 10627, 8567, 10348, 10628
7101, 6130, 6131, 6106, 6269, 6215, 6214, 6211, 7893, 9903, 7894
7102, 883, 133, 3047, 6414, 919, 3604, 10194, 10196, 10602, 10195
7103, 5282, 977, 5254, 6413, 10558, 10437, 5333, 10417, 10436, 9633
7104, 3065, 851, 5845, 6348, 10363, 5865, 9852, 9853, 9970, 8690
7105, 2952, 3186, 3383, 6334, 3907, 3910, 3909, 8140, 7702, 7643
7106, 2957, 2967, 5974, 573, 3853, 6855, 7834, 3847, 3854, 6046
7107, 5698, 5710, 6304, 6422, 5809, 7690, 9548, 9883, 10347, 8567
7108, 356, 982, 992, 5970, 1871, 1879, 1878, 6022, 7840, 6850
7109, 3140, 5980, 5968, 574, 9429, 6054, 7048, 3858, 6053, 6049
7110, 5261, 480, 3174, 6417, 5373, 3710, 10576, 10605, 10629, 9391
7111, 1200, 1203, 1250, 6359, 2195, 2040, 2861, 9461, 8328, 8369
7112, 5034, 1214, 5054, 6398, 10144, 10324, 5120, 9995, 9093, 10325
7113, 5834, 886, 870, 5849, 10118, 908, 10165, 5947, 10245, 10167
7114, 5981, 5992, 5982, 6390, 6097, 6073, 6069, 9577, 8617, 8300
7115, 5586, 5588, 1392, 5702, 5633, 9899, 10630, 10631, 9901, 9902
7116, 3138, 3256, 3050, 6343, 4402, 4336, 4397, 8036, 7503, 8868
7117, 1281, 1163, 1075, 6343, 2427, 2424, 2361, 7500, 9671, 8866
7118, 1356, 1174, 6312, 6377, 2720, 9817, 10362, 10603, 9962, 8480
7119, 3342, 3184, 3346, 6437, 4780, 4707, 4453, 8306, 8304, 10632
7120, 3139, 3297, 6326, 6457, 4784, 8477, 7964, 10633, 10634, 9095
7121, 2964, 3207, 3235, 6363, 3729, 3972, 3971, 10023, 10024, 9844
7122, 1370, 6272, 5969, 6448, 9927, 9052, 9926, 10635, 8416, 10636
7123, 3249, 3211, 3209, 6302, 4894, 4891, 4895, 7262, 6695, 8224
7124, 1236, 1274, 1234, 6302, 2920, 2919, 2916, 9065, 7260, 6886
7125, 1304, 886, 1411, 5834, 10112, 10637, 1619, 10119, 10118, 10638
7126, 3210, 3246, 3255, 6301, 4898, 4595, 4893, 9411, 8431, 8338
7127, 1235, 1280, 1271, 6301, 2917, 2620, 2923, 7304, 7060, 8455
7128, 3142, 3108, 6266, 6477, 4672, 9293, 7613, 8212, 9717, 7125
7129, 5035, 5046, 5057, 6345, 5219, 5190, 5221, 6505, 7869, 6704
7130, 1418, 988, 1169, 6339, 1992, 1989, 1993, 8928, 9457, 6727
7131, 1211, 1408, 6334, 6458, 1934, 9551, 10639, 10640, 10641, 7704
7132, 3133, 3282, 6319, 6439, 4768, 8841, 9565, 9675, 10582, 9546
7133, 552, 3101, 3158, 5832, 3814, 3817, 3816, 5905, 8602, 9686
7134, 3079, 3174, 480, 6417, 3711, 3710, 3706, 9195, 9391, 10629
7135, 1332, 6351, 1341, 6371, 9963, 10062, 2578, 9668, 9488, 10064
7136, 1279, 1285, 273, 5283, 1766, 1762, 1764, 8762, 10642, 5349
7137, 5273, 5271, 5277, 6394, 5435, 5453, 5420, 10008, 9939, 10367
7138, 1096, 6263, 1156, 6474, 8638, 8780, 2528, 8112, 8639, 8781
7139, 3131, 6263, 3071, 6473, 7308, 9322, 4504, 8410, 8052, 9113
7140, 1365, 1269, 1102, 6273, 2499, 2555, 1976, 7204, 9929, 8292
7141, 5283, 5263, 5259, 6453, 5443, 5458, 5353, 10256, 10257, 9915
7142, 3164, 3117, 3118, 6297, 4710, 4482, 4711, 9655, 7528, 8815
7143, 1143, 1142, 1189, 6297, 2508, 2736, 2735, 8812, 8923, 9135
7144, 1182, 1315, 6406, 6407, 2840, 10292, 10291, 10127, 10644, 10643
7145, 3192, 6354, 5040, 6442, 10609, 10368, 10610, 10586, 7233, 10369
7146, 3162, 6282, 3292, 6477, 8997, 10293, 4294, 9401, 6788, 10394
7147, 710, 711, 720, 6270, 713, 5251, 5248, 8242, 8485, 10581
7148, 6125, 6117, 6306, 6419, 6169, 9826, 9827, 10540, 9865, 8513
7149, 3194, 6391, 6354, 6399, 10297, 9016, 10404, 10298, 6723, 8959
7150, 1177, 991, 1135, 6269, 2008, 2006, 2009, 8243, 10277, 7488
7151, 3173, 5266, 2965, 493, 9002, 9003, 3750, 3745, 5412, 3749
7152, 5600, 1305, 1409, 5689, 10141, 1727, 10645, 10140, 10142, 10646
7153, 1279, 1300, 1140, 6349, 1964, 2674, 2731, 7867, 7921, 7085
7154, 3254, 3115, 3275, 6349, 4706, 4648, 3940, 8449, 8404, 8227
7155, 1184, 1183, 1335, 6364, 2667, 2435, 2843, 9982, 9109, 7472
7156, 731, 741, 6365, 6396, 5484, 10528, 10122, 10124, 9942, 9813
7157, 2987, 6314, 3205, 6434, 8341, 10409, 4089, 8792, 8267, 10647
7158, 2980, 6290, 2981, 6483, 7185, 9403, 4046, 9179, 6653, 10486
7159, 741, 6396, 3321, 6440, 9942, 8670, 9941, 10648, 10157, 10158
7160, 3024, 3273, 63, 6463, 3430, 3429, 3425, 10249, 9848, 10649
7161, 274, 983, 1279, 5283, 1767, 1769, 1765, 5348, 8761, 8762
7162, 6243, 6331, 6308, 6431, 10134, 8217, 10040, 10650, 9272, 9468
7163, 3042, 5980, 575, 5986, 7844, 6052, 3857, 10651, 6055, 6003
7164, 6115, 877, 874, 1391, 9857, 952, 6690, 9965, 9966, 10095
7165, 1155, 1366, 1158, 6319, 2775, 2783, 2782, 8000, 8280, 9605
7166, 3130, 3133, 3341, 6319, 4756, 4758, 4751, 8595, 9565, 8537
7167, 3007, 3402, 3332, 6444, 4188, 4190, 3995, 9244, 10341, 8682
7168, 3346, 3184, 3116, 6437, 4707, 4709, 4708, 10632, 8304, 8883
7169, 1147, 6250, 1385, 6452, 7563, 9376, 2755, 9056, 8050, 9377
7170, 3360, 6250, 3122, 6451, 9374, 7561, 4730, 9375, 7527, 9057
7171, 1092, 1258, 1037, 6357, 2240, 2237, 2238, 9150, 9566, 8192
7172, 3067, 3012, 3233, 6357, 4214, 4211, 4215, 9522, 8189, 8737
7173, 3172, 3277, 3096, 6345, 4617, 4616, 3670, 9037, 9732, 6764
7174, 5707, 5703, 3170, 6409, 5755, 10652, 10060, 10187, 10398, 10186
7175, 3085, 3115, 3224, 6308, 4567, 4569, 4566, 9493, 8401, 9787
7176, 1140, 1110, 1249, 6308, 2593, 2590, 2594, 7083, 8747, 7649
7177, 5973, 1165, 357, 5979, 9711, 1884, 6025, 6029, 9431, 6027
7178, 1287, 1223, 1226, 6400, 2897, 2902, 2904, 9607, 8627, 9369
7179, 1211, 977, 1408, 6458, 1933, 1935, 1934, 10640, 10438, 10641
7180, 3105, 3106, 6265, 6488, 4509, 10400, 6981, 8686, 9509, 8423
7181, 875, 5840, 878, 5854, 9949, 10006, 937, 9964, 5961, 10007
7182, 705, 6321, 706, 6364, 10653, 10654, 708, 10553, 7471, 10655
7183, 3213, 487, 2964, 5286, 3731, 3727, 3732, 10656, 5392, 10021
7184, 5702, 5586, 5588, 5712, 10631, 5633, 9901, 5796, 10657, 10015
7185, 5038, 190, 1229, 978, 5109, 1670, 9728, 9729, 1672, 1674
7186, 3196, 3198, 3199, 6311, 4866, 4869, 4868, 9454, 8942, 8524
7187, 1221, 1224, 1223, 6311, 2894, 2893, 2892, 7267, 7269, 8210
7188, 6288, 6421, 6388, 6484, 9822, 9194, 7712, 7496, 9539, 7714
7189, 735, 745, 746, 6260, 5487, 748, 5490, 7928, 10621, 10529
7190, 696, 706, 6321, 6364, 5029, 10654, 10470, 10469, 10655, 7471
7191, 6130, 6112, 6131, 6269, 6240, 6228, 6215, 7893, 10278, 9903
7192, 5055, 3369, 2954, 6442, 10658, 3640, 10585, 10588, 9302, 10587
7193, 1194, 1338, 1353, 6412, 2167, 2802, 2860, 8253, 10317, 8254
7194, 3272, 6307, 6463, 6480, 10659, 9850, 10191, 10660, 10446, 10661
7195, 5599, 3385, 5967, 3278, 10662, 10663, 10273, 10110, 3677, 10274
7196, 889, 3386, 5829, 3280, 10664, 10665, 10236, 10237, 3594, 10238
7197, 5043, 5067, 3204, 6391, 5169, 10520, 10541, 10321, 10523, 10424
7198, 3012, 3067, 3033, 6386, 4214, 4213, 4197, 9947, 9678, 9149
7199, 6129, 6107, 880, 6127, 6218, 10666, 10667, 6220, 6217, 10668
7200, 3250, 3122, 3167, 6250, 4358, 4729, 4614, 6761, 7561, 9260
7201, 3215, 2951, 3213, 6333, 3902, 3735, 3903, 9172, 9905, 7737
7202, 1240, 1238, 976, 6333, 1927, 1760, 1928, 7951, 7070, 9253
7203, 3289, 6346, 6329, 6447, 9059, 8174, 10608, 8626, 9060, 10669
7204, 1406, 15, 1405, 670, 1463, 1465, 1467, 9355, 672, 9356
7205, 1382, 1145, 1188, 6256, 2750, 2748, 2438, 8954, 7420, 9741
7206, 3163, 3120, 3357, 6256, 4724, 4725, 4413, 9373, 7443, 7641
7207, 3223, 3229, 6285, 6484, 4110, 10549, 7161, 8311, 10670, 7497
7208, 1147, 1275, 1192, 6250, 2382, 2640, 2754, 7563, 6756, 9368
7209, 715, 716, 706, 6321, 718, 5245, 5246, 7578, 8999, 10654
7210, 711, 721, 6270, 6396, 5250, 10322, 8485, 8488, 10216, 8490
7211, 1136, 1135, 1065, 6416, 2372, 2007, 2373, 9854, 8469, 10412
7212, 1011, 6294, 1031, 6487, 7278, 7275, 2109, 7603, 7729, 9248
7213, 1195, 5596, 1392, 6409, 10671, 10672, 1721, 10235, 10373, 10673
7214, 5850, 6329, 6257, 6482, 9680, 8172, 9679, 10038, 10594, 8580
7215, 5694, 1263, 316, 5696, 8717, 1800, 5738, 5742, 8621, 5740
7216, 1242, 192, 1214, 5054, 1676, 1678, 1680, 10323, 5115, 10324
7217, 696, 686, 6364, 6401, 5019, 10548, 10469, 10233, 9998, 9740
7218, 1035, 1369, 6370, 6376, 1830, 10531, 10179, 10526, 10543, 6812
7219, 105, 3021, 3324, 6447, 3555, 3560, 3559, 10674, 8624, 10675
7220, 1292, 6467, 6305, 6481, 10198, 10676, 10677, 10678, 10679, 10457
7221, 3163, 5277, 3221, 6394, 10466, 10366, 3756, 10009, 10367, 10048
7222, 3391, 3098, 5984, 6324, 3831, 10680, 10681, 10332, 10333, 10682
7223, 1379, 6267, 1080, 6490, 9019, 10222, 2452, 9021, 8584, 10354
7224, 3146, 5714, 5697, 3145, 10583, 5772, 8851, 3780, 9841, 9626
7225, 646, 6329, 6257, 6346, 10683, 8172, 10684, 10517, 8174, 8130
7226, 3281, 3384, 5693, 5597, 3702, 10685, 10264, 9956, 10686, 10265
7227, 706, 716, 3310, 6401, 5245, 9217, 10262, 10263, 9218, 9075
7228, 755, 746, 745, 6260, 5500, 748, 5497, 10283, 10529, 10621
7229, 755, 756, 746, 6260, 758, 5499, 5500, 10283, 10479, 10529
7230, 880, 884, 6116, 6127, 930, 6841, 10687, 10668, 9878, 6234
7231, 1051, 1035, 985, 6370, 1972, 1829, 1973, 6874, 10179, 7223
7232, 1216, 1242, 1214, 6398, 2869, 1680, 2867, 9444, 10108, 9093
7233, 880, 6110, 6129, 6127, 10688, 6236, 10667, 10668, 6233, 6220
7234, 5853, 5843, 5833, 6370, 5958, 5872, 5959, 8516, 8296, 10180
7235, 845, 5709, 1361, 6408, 5721, 8520, 10689, 7426, 8521, 8522
7236, 846, 3336, 5708, 6408, 10690, 10691, 5727, 7423, 9587, 9795
7237, 3090, 6331, 3045, 6431, 10068, 8739, 4372, 9467, 9272, 9273
7238, 1276, 1118, 1083, 6310, 2468, 2457, 2466, 6863, 9049, 7686
7239, 3251, 3058, 3093, 6310, 4442, 4431, 4443, 6568, 9692, 8435
7240, 781, 791, 6248, 6355, 5534, 10382, 10692, 10693, 10129, 10383
7241, 706, 3020, 3310, 716, 10261, 3536, 10262, 5245, 10694, 9217
7242, 5830, 335, 5836, 6468, 5877, 5879, 5881, 10360, 10695, 8273
7243, 5978, 352, 233, 5589, 6012, 1705, 10696, 9911, 10331, 5613
7244, 3320, 686, 6401, 6476, 9996, 9998, 8899, 10250, 10697, 10252
7245, 3350, 3088, 3087, 6300, 4574, 4571, 4575, 6491, 7510, 6918
7246, 1375, 1112, 1113, 6300, 2599, 2595, 2600, 6783, 6916, 9549
7247, 720, 1334, 1039, 710, 10535, 1482, 10536, 5248, 8240, 10698
7248, 1182, 1273, 1123, 6248, 2654, 2653, 2651, 10344, 9610, 8060
7249, 1059, 1085, 1060, 6395, 2343, 2342, 2197, 9415, 9674, 9542
7250, 1073, 1205, 235, 5592, 1713, 1709, 1711, 10699, 8412, 5619
7251, 5702, 5706, 1195, 6409, 5730, 10075, 10700, 10701, 10234, 10235
7252, 3192, 3193, 6354, 6442, 3917, 7094, 10609, 10586, 7234, 7233
7253, 6125, 1299, 1125, 6306, 9908, 1922, 9842, 9827, 9909, 10014
7254, 3055, 6267, 3354, 6486, 10220, 8583, 4426, 10146, 8604, 8094
7255, 1111, 1311, 1113, 6381, 2598, 2597, 2596, 7664, 9030, 9550
7256, 358, 1067, 5985, 5979, 1881, 10702, 5996, 6028, 7881, 6030
7257, 1286, 1091, 1342, 6456, 2502, 2500, 2503, 8968, 10703, 10101
7258, 681, 6410, 3023, 6446, 9784, 7688, 9782, 10502, 10432, 10430
7259, 1205, 6272, 1370, 6448, 8414, 9927, 2862, 8415, 8416, 10635
7260, 5276, 5263, 5255, 6418, 5405, 5441, 5442, 9129, 9225, 7575
7261, 1314, 6257, 1185, 6429, 10495, 10481, 2849, 10433, 10704, 10435
7262, 1069, 6291, 1052, 6432, 10499, 8087, 2307, 10705, 9851, 10706
7263, 3129, 6360, 3291, 6415, 9324, 9106, 4753, 10565, 7887, 10147
7264, 490, 3254, 5276, 3260, 3740, 9128, 5401, 3736, 3741, 9127
7265, 5043, 5045, 5064, 6398, 5172, 5239, 5233, 8835, 9727, 10107
7266, 1053, 1052, 6291, 6432, 2173, 8087, 7113, 9044, 10706, 9851
7267, 5266, 5277, 5257, 6394, 5417, 5451, 5450, 9780, 10367, 9871
7268, 6116, 6110, 880, 6127, 6192, 10688, 10687, 6234, 6233, 10668
7269, 3116, 3184, 3348, 6253, 4709, 3946, 4210, 8860, 7589, 7850
7270, 1141, 1373, 1209, 6253, 2235, 1971, 2732, 7552, 7831, 9023
7271, 3093, 3056, 3219, 6421, 4432, 4341, 4433, 9538, 10221, 9631
7272, 3237, 3076, 3075, 6342, 4521, 4517, 4522, 7931, 8800, 8057
7273, 1100, 1101, 1262, 6342, 2541, 2547, 2546, 7399, 8804, 8452
7274, 5969, 6272, 5987, 6448, 9052, 8827, 6083, 10636, 8416, 8554
7275, 3293, 3013, 3321, 6440, 4217, 3468, 4216, 10156, 10707, 10158
7276, 3295, 6296, 3097, 6437, 8684, 7634, 4622, 8934, 8637, 9198
7277, 1322, 6326, 1430, 6454, 9382, 9646, 1988, 9383, 8712, 10426
7278, 1217, 5062, 189, 1229, 8917, 5106, 1667, 1671, 9620, 1669
7279, 5979, 5980, 5993, 6335, 6065, 6077, 6100, 7352, 7363, 7780
7280, 405, 2954, 3192, 5055, 3638, 3643, 3642, 5159, 10585, 10584
7281, 5253, 5271, 5273, 6256, 5433, 5435, 5434, 7381, 9937, 9482
7282, 6105, 6126, 6118, 6419, 6204, 6196, 6210, 10299, 10300, 10443
7283, 850, 5826, 851, 6348, 5918, 5917, 853, 8759, 8678, 9970
7284, 3205, 2987, 2997, 6314, 4089, 4078, 4090, 10409, 8341, 7315
7285, 1230, 1022, 1012, 6314, 2115, 2104, 2113, 8315, 8333, 7018
7286, 651, 661, 660, 6410, 4984, 663, 4985, 9652, 10452, 10465
7287, 660, 650, 651, 6410, 4982, 653, 4985, 10465, 8847, 9652
7288, 5581, 5711, 5693, 5597, 10028, 5817, 10152, 5664, 10078, 10265
7289, 3048, 5594, 452, 3180, 7075, 5644, 3687, 3688, 10708, 3683
7290, 5060, 5036, 3177, 6371, 5148, 10575, 7672, 7405, 9907, 7673
7291, 3129, 6415, 3152, 6462, 10565, 10709, 4500, 10566, 9340, 10710
7292, 3279, 887, 3387, 6110, 10711, 10712, 3619, 10713, 10381, 10714
7293, 1021, 1018, 1020, 6475, 2141, 2128, 2142, 9239, 9205, 8741
7294, 6331, 6431, 6243, 6432, 9272, 10650, 10134, 8458, 9859, 10242
7295, 3338, 6350, 6457, 6486, 10318, 8395, 10715, 10716, 8495, 10255
7296, 3007, 2970, 6292, 6470, 3994, 10604, 9980, 9246, 10185, 9418
7297, 5992, 5582, 5967, 5599, 8634, 10094, 6072, 10071, 5660, 10273
7298, 3378, 93, 756, 3379, 3517, 759, 9478, 3522, 3521, 9477
7299, 3152, 3110, 6269, 6415, 3983, 7533, 10717, 10709, 8274, 7879
7300, 1297, 1425, 1268, 6306, 2281, 2942, 2941, 6954, 8363, 10455
7301, 878, 148, 338, 5840, 932, 1622, 10384, 10006, 10718, 5888
7302, 889, 5829, 870, 5849, 10236, 10166, 909, 9988, 5936, 10167
7303, 1393, 1424, 1168, 6318, 2823, 2818, 2821, 8459, 7967, 6877
7304, 3399, 3368, 3143, 6318, 4798, 4797, 4792, 7969, 9592, 9603
7305, 3334, 691, 3023, 6446, 10719, 10720, 3448, 10459, 10721, 10430
7306, 1144, 1384, 1418, 6283, 2745, 2747, 2744, 6590, 7454, 8929
7307, 1274, 1100, 1262, 6342, 2548, 2546, 2549, 7261, 7399, 8452
7308, 3075, 3249, 3237, 6342, 4524, 4523, 4522, 8057, 7263, 7931
7309, 572, 3335, 5974, 2957, 3848, 8388, 6047, 3846, 3849, 7834
7310, 6267, 6486, 6436, 6490, 8604, 8967, 9957, 8584, 8097, 9399
7311, 1211, 1340, 6458, 6490, 2562, 10074, 10640, 10722, 10243, 7727
7312, 6108, 6111, 6128, 6317, 6221, 6225, 6224, 7583, 8772, 6914
7313, 996, 1071, 994, 6375, 2024, 2023, 2021, 8674, 8122, 8565
7314, 5058, 187, 1394, 979, 5100, 1661, 7709, 8559, 1663, 1665
7315, 982, 355, 1360, 5970, 1872, 1874, 1873, 7840, 6021, 8640
7316, 1139, 6111, 1196, 374, 9860, 8771, 1916, 1909, 6158, 1915
7317, 621, 6306, 611, 6307, 10723, 10579, 4944, 10724, 8892, 10578
7318, 3214, 3236, 3215, 6358, 4527, 4591, 4900, 7541, 8704, 9173
7319, 1239, 1240, 1261, 6358, 2925, 2616, 2553, 7395, 9174, 7370
7320, 5278, 5267, 5265, 6333, 5468, 5399, 5469, 9133, 8137, 10272
7321, 720, 721, 731, 6365, 723, 5474, 5475, 10537, 10571, 10122
7322, 720, 731, 730, 6365, 5475, 733, 5472, 10537, 10122, 10477
7323, 1091, 6402, 1342, 6456, 10069, 9896, 2500, 10703, 10478, 10101
7324, 3119, 3393, 3359, 6283, 4719, 4722, 4721, 6595, 9275, 6789
7325, 2953, 3220, 3222, 6327, 3912, 3916, 3915, 8833, 8081, 9629
7326, 1245, 978, 1247, 6327, 1938, 1939, 1941, 6720, 9061, 7774
7327, 3274, 3100, 3243, 6307, 3898, 4638, 4640, 9283, 8983, 9981
7328, 3033, 3009, 3012, 6289, 4196, 4191, 4197, 9083, 7992, 8187
7329, 1037, 1034, 1058, 6289, 2217, 2222, 2221, 8191, 6879, 8505
7330, 1225, 1227, 1228, 6316, 2905, 2911, 2910, 8008, 7891, 9242
7331, 3202, 3200, 3203, 6316, 4881, 4886, 4885, 9299, 9583, 7580
7332, 3217, 2953, 5045, 408, 3652, 9726, 9725, 3651, 3647, 5170
7333, 6244, 6456, 6402, 6461, 9426, 10478, 6643, 6758, 10532, 6760
7334, 811, 6324, 821, 6390, 9833, 9720, 5564, 10611, 8301, 10258
7335, 3280, 3386, 5829, 554, 3594, 10665, 10238, 3826, 3824, 5911
7336, 6125, 6105, 6117, 6419, 6202, 6208, 6169, 10540, 10299, 9865
7337, 776, 766, 6393, 6411, 5519, 10725, 10494, 10726, 10357, 10285
7338, 1272, 6257, 1314, 6429, 9983, 10495, 2848, 10727, 10704, 10433
7339, 6112, 6120, 370, 6416, 6150, 6146, 6148, 10281, 9890, 10618
7340, 5590, 5977, 5593, 5991, 10728, 9617, 5640, 10729, 6070, 9616
7341, 1084, 1321, 6275, 6376, 2472, 9079, 8719, 10352, 9080, 7751
7342, 705, 706, 695, 6364, 708, 5030, 5027, 10553, 10655, 10484
7343, 696, 695, 706, 6364, 698, 5030, 5029, 10469, 10484, 10655
7344, 413, 3172, 5046, 2963, 3666, 9035, 5185, 3662, 3667, 9553
7345, 5965, 6451, 6250, 6452, 8484, 7527, 6746, 8481, 10547, 8050
7346, 1124, 1294, 1265, 6305, 1793, 2660, 2659, 9435, 7787, 10534
7347, 5048, 6382, 1374, 6397, 10454, 9564, 10453, 10730, 9802, 9800
7348, 3091, 3255, 3246, 6425, 4593, 4595, 4376, 9544, 8589, 8884
7349, 3202, 3314, 3191, 6405, 4851, 4846, 4850, 9300, 8830, 10387
7350, 1171, 317, 5696, 5692, 1805, 5741, 8721, 8767, 5743, 5745
7351, 5977, 5593, 3257, 569, 9617, 10052, 9408, 6038, 10731, 3680
7352, 5595, 3170, 3367, 6409, 10732, 3696, 10733, 10399, 10186, 10734
7353, 5262, 6363, 5258, 6413, 10059, 10498, 5454, 10080, 9845, 10525
7354, 6132, 590, 3149, 6108, 6179, 3886, 8144, 6186, 6185, 7924
7355, 3272, 3125, 3274, 6480, 4467, 4740, 4739, 10660, 10554, 10445
7356, 1292, 1294, 1152, 6481, 2771, 2770, 2488, 10678, 10458, 10555
7357, 3267, 3240, 3401, 6304, 4908, 4909, 4242, 7038, 10485, 8470
7358, 1297, 1299, 1150, 6306, 2765, 2764, 2492, 6954, 9909, 7600
7359, 3403, 2954, 3369, 6442, 3920, 3640, 3921, 9188, 10587, 9302
7360, 3133, 3132, 3364, 6439, 4757, 4765, 4764, 9675, 9545, 9654
7361, 5584, 5587, 5594, 6286, 5679, 5675, 5649, 10461, 8619, 7079
7362, 3263, 5835, 3280, 6471, 10735, 10239, 3825, 10736, 10244, 10254
7363, 3155, 6441, 6270, 6451, 10389, 8287, 9534, 9625, 10737, 7014
7364, 1136, 1341, 6351, 6416, 2374, 10062, 9428, 9854, 10326, 7815
7365, 5967, 5977, 5590, 5991, 6039, 10728, 10738, 6071, 6070, 10729
7366, 815, 6304, 805, 6305, 10627, 10739, 5557, 10626, 7694, 10740
7367, 1341, 1414, 1173, 6416, 2376, 1893, 2830, 10326, 9888, 9889
7368, 3282, 3182, 3002, 6366, 4165, 4115, 4163, 8842, 9285, 8909
7369, 1389, 1023, 1194, 6280, 2168, 2166, 2169, 8531, 9170, 9013
7370, 2998, 3364, 3169, 6280, 4144, 4143, 4142, 7557, 9653, 9571
7371, 5262, 5286, 5258, 6363, 5393, 5455, 5454, 10059, 10025, 10498
7372, 3156, 6396, 3155, 6441, 10533, 9535, 4624, 10741, 10390, 10389
7373, 331, 5844, 1365, 5843, 5856, 7200, 1824, 5867, 5869, 9069
7374, 3001, 6338, 2992, 6434, 9343, 7981, 4098, 9402, 7041, 8816
7375, 720, 711, 721, 6270, 5251, 5250, 723, 10581, 8485, 10322
7376, 3206, 3262, 3197, 6332, 4138, 4872, 4874, 9303, 7897, 8463
7377, 1222, 1287, 1231, 6332, 2896, 2164, 2898, 8951, 9606, 7698
7378, 3364, 6280, 2998, 6439, 9653, 7557, 4144, 9654, 8533, 10096
7379, 635, 6257, 636, 6329, 10561, 10742, 638, 10560, 8172, 10743
7380, 3311, 3370, 3290, 6440, 4922, 4817, 4228, 10744, 10746, 10745
7381, 1052, 1054, 1025, 6423, 2177, 2176, 2171, 8437, 8958, 8938
7382, 3221, 494, 5266, 5277, 3752, 5413, 10047, 10366, 5415, 5417
7383, 1216, 1247, 1242, 6398, 2874, 1940, 2869, 9444, 9443, 10108
7384, 5260, 264, 5280, 6374, 5318, 5314, 5319, 10512, 10747, 10223
7385, 5694, 5705, 5691, 6260, 5806, 5805, 5804, 8396, 7755, 9051
7386, 3126, 3248, 6324, 6455, 4742, 10334, 6901, 7440, 10351, 7439
7387, 491, 5287, 3254, 2958, 5406, 10306, 3739, 3743, 10305, 3744
7388, 746, 736, 6260, 6411, 5489, 7821, 10529, 9637, 7823, 7824
7389, 3224, 3115, 3260, 6418, 4569, 4705, 3906, 9788, 8450, 9090
7390, 3097, 3295, 3226, 6296, 4622, 4621, 4620, 7634, 8684, 10120
7391, 1122, 1251, 1320, 6296, 2644, 2647, 2646, 9803, 7895, 8636
7392, 5591, 5703, 5595, 3367, 10748, 10396, 5655, 10749, 10750, 10733
7393, 3236, 3091, 3090, 6438, 4588, 4375, 4589, 9873, 10266, 9470
7394, 3298, 3339, 3102, 6303, 4652, 4651, 4371, 8418, 7763, 9733
7395, 1323, 1127, 1364, 6303, 2396, 2675, 2677, 9264, 9734, 6771
7396, 881, 150, 1206, 1072, 938, 1626, 9759, 9760, 1628, 1630
7397, 5854, 5841, 879, 882, 5938, 10751, 10752, 10246, 9705, 915
7398, 3360, 3167, 3122, 6250, 4418, 4729, 4730, 9374, 9260, 7561
7399, 5703, 5712, 5591, 5595, 5819, 10753, 10748, 10396, 10395, 5655
7400, 3147, 3154, 3054, 6352, 4419, 3622, 4420, 9385, 7804, 10027
7401, 5290, 5281, 1208, 6454, 5327, 9682, 10754, 10755, 10011, 10012
7402, 6402, 6456, 6254, 6461, 10478, 8473, 7604, 6760, 10532, 7606
7403, 3267, 3127, 3269, 6304, 4463, 4746, 4745, 7038, 7660, 8733
7404, 2993, 2998, 2996, 6420, 4119, 4118, 4117, 9262, 9048, 9047
7405, 5845, 3340, 5842, 548, 8689, 8706, 5894, 5861, 3798, 5893
7406, 2996, 2999, 2995, 6420, 4127, 4126, 4116, 9047, 8407, 9297
7407, 5703, 5591, 5712, 5693, 10748, 10753, 5819, 5758, 10756, 5818
7408, 1232, 268, 5282, 977, 1749, 5332, 10413, 1751, 1747, 10558
7409, 1192, 1385, 1147, 6250, 2443, 2755, 2754, 9368, 9376, 7563
7410, 3165, 3166, 3403, 6309, 4716, 4830, 4829, 9422, 8179, 9187
7411, 1191, 1190, 1428, 6309, 2742, 2855, 2854, 9163, 8735, 7354
7412, 3241, 861, 112, 6124, 9234, 864, 3590, 10757, 6143, 6140
7413, 1061, 1060, 1062, 6362, 2199, 2348, 2347, 7621, 9541, 8337
7414, 879, 5841, 5854, 5829, 10751, 5938, 10752, 10758, 5915, 5939
7415, 641, 3395, 651, 6410, 9168, 10211, 4974, 9169, 6547, 9652
7416, 5586, 5595, 5712, 6409, 5677, 10395, 10657, 10759, 10399, 10397
7417, 5291, 5258, 5267, 6363, 5339, 5456, 5457, 7072, 10498, 8138
7418, 1021, 6412, 1338, 6475, 10330, 10317, 2157, 9239, 7167, 10514
7419, 1216, 1215, 1339, 6330, 2868, 2871, 2870, 9118, 7594, 8385
7420, 3314, 3190, 3191, 6330, 4845, 4842, 4846, 7242, 6833, 9076
7421, 630, 641, 640, 6306, 4965, 643, 4962, 10760, 9881, 9882
7422, 3278, 3385, 5967, 568, 3677, 10663, 10274, 3836, 3834, 6035
7423, 6305, 6393, 785, 6467, 9437, 9394, 9819, 10676, 10170, 10171
7424, 1046, 6306, 630, 6478, 6955, 10760, 10761, 9123, 9124, 10762
7425, 696, 6321, 706, 6401, 10470, 10654, 5029, 10233, 7450, 10263
7426, 3182, 6366, 3282, 6439, 9285, 8842, 4165, 9287, 8157, 10582
7427, 3290, 3157, 3248, 6355, 4814, 4628, 4815, 10763, 10488, 10375
7428, 1335, 1183, 1077, 6468, 2435, 2434, 1563, 7475, 9110, 8221
7429, 264, 1199, 5280, 6374, 1735, 10224, 5314, 10747, 10102, 10223
7430, 6337, 3049, 6457, 6486, 10209, 10764, 8394, 8493, 10210, 10255
7431, 711, 3309, 721, 6396, 8487, 10214, 5250, 8488, 8489, 10216
7432, 5056, 2955, 3189, 410, 10117, 3658, 8202, 5174, 3657, 3653
7433, 1210, 5281, 5288, 6458, 9681, 5326, 10765, 10159, 10160, 10766
7434, 6263, 6473, 6245, 6474, 8052, 6946, 8051, 8639, 10767, 7190
7435, 1067, 1147, 5985, 5979, 1887, 7593, 10702, 7881, 7564, 6030
7436, 1339, 1113, 1228, 6381, 2606, 2604, 2607, 8387, 9550, 9243
7437, 5596, 1195, 1390, 6409, 10671, 1720, 10371, 10373, 10235, 10374
7438, 3068, 3363, 3033, 6386, 4316, 4313, 4314, 8571, 8327, 9149
7439, 406, 3192, 3204, 5067, 3641, 3646, 3645, 5164, 10521, 10520
7440, 1076, 1178, 1170, 6353, 1730, 2430, 2429, 8064, 7866, 10091
7441, 1105, 5047, 1202, 6371, 10768, 6803, 1653, 7656, 6965, 6966
7442, 3320, 3294, 3019, 6476, 4244, 4245, 3548, 10250, 10251, 10769
7443, 715, 706, 705, 6321, 5246, 708, 5243, 7578, 10654, 10653
7444, 3091, 3045, 3090, 6331, 4374, 4372, 4375, 9543, 8739, 10068
7445, 1070, 1116, 1115, 6331, 2400, 2399, 2398, 9830, 8073, 8218
7446, 1198, 983, 275, 5259, 1772, 1768, 1770, 9914, 9913, 5351
7447, 3285, 3072, 3106, 6450, 4507, 4508, 4510, 6793, 6794, 9294
7448, 2966, 3152, 3110, 6269, 3984, 3983, 3982, 9241, 10717, 7533
7449, 2970, 6292, 6470, 6472, 10604, 9418, 10185, 10205, 8611, 9252
7450, 796, 786, 785, 6304, 5539, 788, 5540, 10770, 10135, 9820
7451, 5846, 5840, 1283, 6367, 5891, 10771, 10772, 10176, 9950, 10773
7452, 6270, 6441, 856, 6451, 8287, 10490, 10489, 7014, 10737, 10506
7453, 5693, 3384, 3281, 531, 10685, 3702, 10264, 5756, 3761, 3764
7454, 11, 1298, 1046, 6478, 1453, 1455, 1451, 10774, 9743, 9123
7455, 5982, 3265, 3391, 6324, 9305, 3833, 10775, 8297, 6900, 10332
7456, 6262, 6245, 6473, 6474, 8027, 6946, 6972, 6897, 7190, 10767
7457, 1197, 1309, 1213, 6345, 2641, 2815, 1994, 7517, 9698, 7265
7458, 3056, 3038, 3219, 6421, 4340, 4329, 4341, 10221, 9823, 9631
7459, 3248, 6355, 3098, 6441, 10375, 10487, 4629, 10376, 10377, 10556
7460, 1097, 1035, 1051, 6370, 2226, 1972, 2227, 8750, 10179, 6874
7461, 3030, 2956, 589, 6114, 3881, 3875, 3882, 7177, 7383, 6181
7462, 5260, 987, 264, 6374, 10776, 1737, 5318, 10512, 10507, 10747
7463, 3268, 89, 3018, 6479, 3509, 3505, 3510, 9765, 10777, 9220
7464, 3106, 3108, 3292, 6450, 4667, 4670, 4669, 9294, 9295, 10295
7465, 5275, 484, 2952, 5264, 5385, 3722, 8141, 5387, 5383, 9999
7466, 5980, 3042, 3122, 5986, 7844, 3861, 7560, 6055, 10651, 7597
7467, 5282, 269, 1232, 989, 5331, 1750, 10413, 10414, 1752, 1754
7468, 796, 6304, 3018, 6479, 10770, 7037, 10778, 10779, 9222, 9220
7469, 3365, 5584, 6286, 6409, 10460, 10461, 9590, 10600, 10780, 10188
7470, 1411, 337, 1304, 5834, 1849, 1850, 1619, 10638, 5885, 10119
7471, 3370, 3293, 3157, 6440, 4219, 4811, 4816, 10746, 10156, 10781
7472, 1399, 1342, 1129, 6402, 2687, 2501, 2685, 7678, 9896, 8541
7473, 3248, 6355, 6324, 6455, 10375, 10128, 10334, 10351, 10132, 7439
7474, 487, 3213, 5267, 5286, 3731, 8461, 5394, 5392, 10656, 5396
7475, 625, 6329, 615, 6482, 10591, 10782, 4947, 10593, 10594, 10783
7476, 3122, 3042, 575, 5986, 3861, 3857, 3862, 7597, 10651, 6003
7477, 884, 6116, 3366, 880, 6841, 9040, 9041, 930, 10687, 10784
7478, 3308, 3201, 3234, 6328, 4884, 4889, 4178, 7144, 9943, 9280
7479, 1259, 1226, 1333, 6328, 2913, 2908, 2204, 7521, 8649, 8119
7480, 3152, 6269, 2966, 6462, 10717, 9241, 3984, 10710, 8196, 9791
7481, 1015, 1013, 1237, 6487, 2117, 2119, 2118, 8344, 8358, 8669
7482, 1319, 1345, 1047, 6485, 2285, 1573, 2284, 10471, 10472, 10785
7483, 3192, 5067, 5040, 6391, 10521, 5166, 10610, 10522, 10523, 10411
7484, 1207, 1017, 1018, 6347, 2136, 2126, 2137, 8662, 7979, 7456
7485, 3182, 2993, 2992, 6347, 4111, 4102, 4112, 9286, 9261, 7983
7486, 264, 987, 1199, 6374, 1737, 1739, 1735, 10747, 10507, 10102
7487, 665, 655, 6257, 6346, 4987, 10786, 10203, 10202, 10787, 8130
7488, 882, 5841, 555, 3258, 9705, 5914, 10788, 9704, 9599, 3597
7489, 706, 6321, 716, 6401, 10654, 8999, 5245, 10263, 7450, 9218
7490, 1126, 1185, 1272, 6257, 2668, 2671, 2670, 9209, 10481, 9983
7491, 1356, 1137, 6377, 6460, 2719, 9388, 10603, 10546, 10218, 9715
7492, 5046, 5039, 413, 2963, 5187, 5183, 5185, 9553, 9750, 3662
7493, 3005, 3227, 3286, 6320, 4050, 4177, 4176, 8353, 9349, 7403
7494, 1252, 1030, 1311, 6320, 2075, 2202, 2201, 7953, 7137, 9029
7495, 3248, 3391, 3126, 6324, 4630, 4743, 4742, 10334, 10332, 6901
7496, 1069, 1323, 1052, 6423, 2311, 2310, 2307, 9266, 9265, 8437
7497, 3389, 6124, 6119, 3148, 10789, 6172, 8131, 3868, 8990, 8989
7498, 3277, 3172, 3188, 6345, 4617, 3969, 4788, 9732, 9037, 7520
7499, 981, 6109, 1055, 372, 7003, 6559, 1907, 1899, 6152, 1906
7500, 5852, 5833, 5839, 6376, 5956, 5875, 5957, 7752, 10544, 10353
7501, 711, 721, 3309, 3014, 5250, 10214, 8487, 10790, 10215, 3456
7502, 5588, 1409, 313, 5689, 10791, 1726, 10496, 9900, 10646, 5731
7503, 3345, 5976, 5977, 570, 9231, 6042, 8551, 3838, 6041, 6037
7504, 1410, 351, 1302, 5972, 1859, 1860, 1702, 10624, 6009, 10184
7505, 665, 666, 656, 6346, 668, 4989, 4990, 10202, 10408, 10792
7506, 665, 656, 655, 6346, 4990, 658, 4987, 10202, 10792, 10787
7507, 1156, 1155, 1157, 6469, 2529, 2780, 2779, 10097, 9979, 10288
7508, 1048, 715, 705, 1335, 10793, 5243, 10551, 1562, 7577, 10552
7509, 855, 856, 5965, 6451, 858, 6057, 6056, 10505, 10506, 8484
7510, 6123, 1173, 1414, 6120, 8985, 1893, 10794, 6147, 8986, 9887
7511, 770, 6248, 760, 6355, 10795, 10796, 5512, 10797, 10383, 10572
7512, 3312, 3371, 3289, 6476, 4921, 4826, 4256, 10798, 10800, 10799
7513, 3242, 3302, 6410, 6446, 4912, 10286, 10515, 10801, 10431, 10432
7514, 5063, 1214, 5034, 6373, 10463, 10144, 5123, 9178, 9091, 9994
7515, 352, 1410, 5589, 5972, 1707, 10802, 10331, 6010, 10624, 9910
7516, 3306, 3174, 3079, 6417, 4543, 3711, 4544, 9032, 9391, 9195
7517, 877, 6107, 1412, 375, 9856, 10612, 10803, 10530, 6163, 1643
7518, 1411, 338, 5834, 878, 1624, 5886, 10638, 10804, 10384, 10005
7519, 110, 851, 3103, 5847, 854, 9503, 3575, 5863, 5866, 9502
7520, 1128, 58, 5846, 850, 1601, 5858, 9506, 8757, 852, 5860
7521, 3171, 3114, 591, 6108, 3890, 3885, 3891, 8633, 7582, 6184
7522, 646, 636, 6257, 6329, 4969, 10742, 10684, 10683, 10743, 8172
7523, 1296, 1272, 1314, 6429, 2761, 2848, 2294, 10419, 10727, 10433
7524, 1415, 1272, 1149, 6424, 2672, 2760, 2762, 8577, 10077, 10045
7525, 1067, 5985, 1147, 358, 10702, 7593, 1887, 1881, 5996, 1886
7526, 986, 1417, 1324, 6397, 1979, 1983, 1982, 8843, 10066, 7181
7527, 1412, 6107, 1303, 376, 10612, 10615, 1644, 1917, 6164, 1921
7528, 775, 1419, 785, 6393, 10034, 9393, 5527, 10036, 6742, 9394
7529, 5285, 481, 2962, 3174, 5376, 3713, 8818, 10267, 3709, 3714
7530, 3157, 6396, 3156, 6441, 10805, 10533, 4626, 10806, 10390, 10741
7531, 1349, 1049, 53, 6429, 1585, 1581, 1583, 10420, 10421, 10807
7532, 67, 671, 3381, 3380, 674, 9614, 3437, 3441, 9613, 3442
7533, 233, 5585, 5978, 5589, 5617, 10622, 10696, 5613, 5618, 9911
7534, 2982, 2994, 3218, 6483, 4063, 4065, 4054, 8907, 8426, 8776
7535, 5261, 6374, 5280, 6417, 10577, 10223, 5448, 10605, 9516, 10225
7536, 3219, 3245, 3093, 6484, 4601, 4600, 4433, 9632, 9250, 8796
7537, 5587, 5584, 5596, 6286, 5679, 5678, 5627, 8619, 10461, 10372
7538, 1206, 1301, 1362, 6367, 2407, 2682, 2863, 9761, 9099, 10175
7539, 1095, 1372, 1177, 6489, 1956, 2010, 2525, 8766, 10595, 8244
7540, 3173, 5279, 5266, 493, 7410, 5414, 9002, 3745, 5410, 5412
7541, 1145, 334, 5830, 1397, 1836, 5876, 9536, 1838, 1835, 10358
7542, 1250, 995, 1032, 6292, 2029, 2018, 2030, 8368, 9142, 6843
7543, 3225, 3007, 2970, 6292, 4005, 3994, 4003, 8725, 9980, 10604
7544, 551, 3372, 3120, 5837, 3809, 3813, 3812, 5902, 9039, 9038
7545, 1161, 1353, 1338, 6412, 2801, 2802, 2180, 9108, 8254, 10317
7546, 3185, 2952, 484, 5264, 3723, 3722, 3718, 10020, 9999, 5383
7547, 3346, 3116, 3295, 6437, 4708, 4494, 4623, 10632, 8883, 8934
7548, 984, 318, 1064, 5695, 1809, 1811, 1810, 7224, 5746, 9017
7549, 370, 991, 6112, 1065, 1895, 10279, 6148, 1897, 1896, 10597
7550, 5596, 6286, 5584, 6409, 10372, 10461, 5678, 10373, 10188, 10780
7551, 615, 6329, 616, 6482, 10782, 10808, 618, 10783, 10594, 10809
7552, 5037, 184, 1202, 986, 5095, 1652, 8751, 9724, 1654, 1656
7553, 1153, 1379, 1211, 6490, 2463, 2564, 2772, 9020, 9021, 10722
7554, 1409, 1305, 314, 5689, 1727, 1790, 1786, 10646, 10142, 5732
7555, 3069, 3116, 3011, 6427, 4209, 4208, 4206, 7943, 8861, 8653
7556, 3371, 3294, 3160, 6476, 4247, 4820, 4825, 10800, 10251, 10810
7557, 1330, 1120, 1342, 6456, 2636, 2635, 2637, 9427, 9140, 10101
7558, 691, 690, 680, 6446, 693, 5012, 5015, 10721, 10574, 10441
7559, 680, 681, 691, 6446, 683, 5014, 5015, 10441, 10502, 10721
7560, 3155, 856, 6441, 6451, 10811, 10490, 10389, 9625, 10506, 10737
7561, 6262, 6473, 6263, 6474, 6972, 8052, 10289, 6897, 10767, 8639
7562, 3217, 5045, 5056, 409, 9725, 5175, 9621, 3650, 5171, 5173
7563, 5265, 6333, 2951, 6418, 10272, 9905, 10271, 10812, 9256, 10447
7564, 1182, 6365, 1318, 6407, 10346, 8702, 2835, 10127, 10813, 10126
7565, 5254, 5282, 268, 977, 5333, 5332, 5328, 10437, 10558, 1747
7566, 855, 6451, 5965, 6452, 10505, 8484, 6056, 8104, 10547, 8481
7567, 1329, 1390, 1195, 6286, 2416, 1720, 2722, 8115, 10350, 10076
7568, 3365, 3304, 3170, 6286, 4391, 4698, 3694, 9590, 8116, 10061
7569, 5595, 3367, 5703, 6409, 10733, 10750, 10396, 10399, 10734, 10398
7570, 5846, 1283, 1362, 6367, 10772, 1853, 10056, 10176, 10773, 10175
7571, 1153, 1211, 6334, 6490, 2772, 10639, 8977, 9020, 10722, 7725
7572, 6254, 6443, 6246, 6465, 7484, 7175, 7793, 7839, 8829, 6521
7573, 2963, 3393, 3144, 6464, 3968, 3967, 3966, 9945, 10625, 10814
7574, 5260, 987, 6374, 6454, 10776, 10507, 10512, 10513, 10508, 8713
7575, 5064, 5038, 5043, 6391, 5114, 5232, 5233, 9148, 9730, 10321
7576, 671, 670, 661, 6410, 673, 4995, 4994, 9615, 10304, 10452
7577, 660, 661, 670, 6410, 663, 4995, 4992, 10465, 10452, 10304
7578, 5840, 878, 148, 875, 10006, 932, 10718, 9949, 937, 936
7579, 5255, 273, 1285, 5283, 5345, 1762, 7573, 5350, 5349, 10642
7580, 271, 976, 1238, 5278, 1758, 1760, 1756, 5342, 10054, 9132
7581, 611, 6306, 610, 6419, 10579, 10568, 613, 10580, 8513, 10815
7582, 790, 780, 781, 6248, 5532, 783, 5535, 10427, 10816, 10692
7583, 1321, 1146, 1084, 6275, 2471, 2470, 2472, 9079, 9277, 8719
7584, 3296, 3059, 3121, 6275, 4446, 4444, 4447, 8949, 7854, 9279
7585, 3387, 593, 3279, 6110, 3892, 3895, 3619, 10714, 6190, 10713
7586, 5981, 5983, 1416, 6390, 6008, 9608, 10817, 9577, 10043, 9747
7587, 791, 6355, 781, 6455, 10129, 10693, 5534, 10131, 10132, 10818
7588, 2963, 3144, 6339, 6464, 3966, 6729, 9554, 9945, 10814, 8931
7589, 1208, 5281, 266, 1210, 9682, 5325, 1741, 1745, 9681, 1743
7590, 3050, 3137, 6343, 6457, 4399, 7329, 8868, 10310, 10819, 9096
7591, 3272, 3274, 6307, 6480, 4739, 9283, 10659, 10660, 10445, 10446
7592, 5274, 480, 5261, 6417, 5371, 5373, 5375, 9009, 10629, 10605
7593, 3139, 3338, 3297, 6457, 4403, 4783, 4784, 10633, 10715, 10634
7594, 5052, 5032, 5049, 6250, 5207, 5206, 5208, 9259, 8184, 7860
7595, 873, 876, 883, 6414, 968, 964, 924, 9972, 9836, 10196
7596, 6355, 6396, 3157, 6441, 9811, 10805, 10488, 10377, 10390, 10806
7597, 3389, 3040, 6119, 587, 3873, 8362, 8131, 3865, 3871, 6170
7598, 5830, 1397, 335, 6468, 10358, 1834, 5877, 10360, 10361, 10695
7599, 1128, 1090, 58, 850, 1600, 1597, 1601, 8757, 8756, 852
7600, 3103, 851, 110, 3065, 9503, 854, 3575, 3576, 10363, 3571
7601, 1232, 989, 1260, 6413, 1754, 1997, 1996, 10415, 10416, 9863
7602, 630, 631, 641, 6306, 633, 4964, 4965, 10760, 10598, 9881
7603, 801, 811, 810, 6390, 5554, 813, 5555, 10468, 10611, 10820
7604, 801, 810, 800, 6390, 5555, 5552, 803, 10468, 10820, 10033
7605, 3057, 3074, 3128, 6389, 4434, 4437, 4436, 9450, 7768, 8373
7606, 1130, 1132, 1321, 6376, 2688, 2691, 2690, 9326, 8538, 9080
7607, 3146, 534, 5714, 3145, 3781, 5765, 10583, 3780, 3774, 9841
7608, 41, 1404, 1403, 755, 1545, 1547, 1543, 757, 7907, 7908
7609, 1260, 989, 1239, 6363, 1997, 1998, 2000, 9772, 9876, 7397
7610, 1282, 352, 233, 5978, 1706, 1705, 1703, 10821, 6012, 10696
7611, 1346, 23, 1038, 750, 1489, 1491, 1493, 10822, 752, 10823
7612, 1292, 6305, 1294, 6481, 10677, 7787, 2771, 10678, 10457, 10458
7613, 3108, 3162, 3292, 6477, 4679, 4294, 4670, 9717, 9401, 10394
7614, 720, 1334, 710, 6365, 10535, 8240, 5248, 10537, 9130, 9131
7615, 370, 6120, 1414, 6416, 6146, 9887, 1889, 10618, 9890, 9888
7616, 1311, 1333, 1228, 6381, 2205, 2912, 2605, 9030, 8121, 9243
7617, 6408, 6456, 6244, 6461, 9141, 9426, 6752, 9417, 10532, 6758
7618, 5978, 5991, 5585, 6448, 6096, 10538, 10622, 10824, 9619, 10539
7619, 6247, 6456, 6408, 6461, 7301, 9141, 8523, 7006, 10532, 9417
7620, 3036, 3229, 3219, 6426, 4175, 4331, 4330, 9930, 10550, 10504
7621, 5040, 5055, 3192, 6442, 5163, 10584, 10610, 10369, 10588, 10586
7622, 5289, 5278, 5265, 6333, 5343, 5469, 5445, 9932, 9133, 10272
7623, 715, 6321, 705, 6364, 7578, 10653, 5243, 7579, 7471, 10553
7624, 631, 6306, 621, 6307, 10598, 10723, 4954, 10599, 8892, 10724
7625, 872, 6367, 3181, 6414, 10570, 9639, 10596, 10825, 9101, 9640
7626, 980, 1384, 1215, 6373, 1947, 1951, 1950, 8962, 7455, 7595
7627, 5984, 6324, 3098, 6441, 10682, 10333, 10680, 10826, 10378, 10556
7628, 625, 615, 6424, 6482, 4947, 10827, 10592, 10593, 10783, 8579
7629, 2962, 3183, 482, 5268, 3717, 3716, 3712, 10017, 10016, 5379
7630, 1348, 1040, 27, 6406, 1505, 1501, 1503, 8550, 10829, 10828
7631, 5832, 5850, 5835, 6329, 5952, 5951, 5909, 8173, 9680, 10320
7632, 3229, 3219, 6426, 6484, 4331, 10504, 10550, 10670, 9632, 7601
7633, 3167, 5057, 5052, 415, 9257, 5193, 9258, 3672, 5189, 5191
7634, 5593, 5977, 5590, 569, 9617, 10728, 5640, 10731, 6038, 10830
7635, 1263, 1076, 1170, 6353, 2431, 2429, 1802, 8623, 8064, 10091
7636, 3079, 480, 5274, 6417, 3706, 5371, 9993, 9195, 10629, 9009
7637, 785, 795, 796, 6304, 5537, 798, 5540, 9820, 10606, 10770
7638, 3035, 3004, 3036, 6426, 4172, 4174, 4173, 10275, 9043, 9930
7639, 1124, 1265, 1264, 6393, 2659, 2658, 2657, 9436, 9628, 10065
7640, 1396, 1185, 1319, 6485, 2851, 2844, 2286, 10831, 10832, 10471
7641, 495, 3163, 5273, 5277, 3755, 9481, 5418, 5416, 10466, 5420
7642, 5289, 6333, 5265, 6418, 9932, 10272, 5445, 9799, 9256, 10812
7643, 485, 2952, 3207, 5275, 3721, 3726, 3725, 5386, 8141, 9452
7644, 3296, 3259, 3107, 6488, 4676, 4675, 4665, 8809, 8251, 9662
7645, 5043, 5045, 2953, 408, 5172, 9726, 8834, 5168, 5170, 3647
7646, 1183, 335, 1397, 6468, 1842, 1834, 1843, 9110, 10695, 10361
7647, 5285, 2962, 482, 5268, 8818, 3712, 5377, 5381, 10017, 5379
7648, 269, 5282, 5258, 989, 5331, 5336, 5335, 1752, 10414, 10497
7649, 1283, 5840, 875, 6367, 10771, 9949, 10833, 10773, 9950, 9951
7650, 5059, 5047, 1105, 6371, 5093, 10768, 8948, 7415, 6965, 7656
7651, 6122, 6114, 6113, 6312, 6241, 6231, 6237, 8147, 7179, 7759
7652, 881, 1206, 1283, 6367, 9759, 1627, 10834, 9762, 9761, 10773
7653, 978, 5038, 190, 5064, 9729, 5109, 1672, 9147, 5114, 5113
7654, 3104, 3066, 5971, 571, 3844, 7576, 7170, 3843, 3841, 6044
7655, 986, 185, 1374, 6397, 1655, 1657, 1659, 8843, 10835, 9800
7656, 1062, 1075, 1074, 6337, 2360, 2359, 2358, 8336, 8865, 8492
7657, 3050, 3037, 3049, 6337, 4334, 4332, 4335, 8867, 7639, 10209
7658, 370, 1414, 1065, 6416, 1889, 1898, 1897, 10618, 9888, 10412
7659, 1053, 1069, 1052, 6432, 2308, 2307, 2173, 9044, 10705, 10706
7660, 979, 5062, 188, 1217, 8974, 5107, 1664, 1668, 8917, 1666
7661, 5280, 1199, 263, 5256, 10224, 1734, 5315, 5316, 10385, 5311
7662, 1153, 1260, 1099, 6361, 2545, 2544, 2461, 8976, 9771, 7236
7663, 3128, 3074, 3235, 6361, 4437, 4518, 4520, 8349, 7766, 8769
7664, 3355, 3179, 3068, 6313, 4489, 4490, 4487, 7627, 9721, 8570
7665, 1204, 1380, 1093, 6313, 2515, 2513, 2514, 7876, 7629, 7772
7666, 5047, 184, 1202, 5037, 5091, 1652, 6803, 5096, 5095, 8751
7667, 820, 1086, 810, 6390, 10098, 10836, 5562, 10100, 8615, 10820
7668, 805, 6304, 795, 6305, 10739, 10606, 5547, 10740, 7694, 10607
7669, 3157, 3293, 6396, 6440, 4811, 8671, 10805, 10781, 10156, 10157
7670, 3098, 6355, 3157, 6441, 10487, 10488, 4627, 10556, 10377, 10806
7671, 5841, 879, 882, 555, 10751, 915, 9705, 5914, 10837, 10788
7672, 3000, 3029, 3027, 6369, 4152, 4151, 4147, 9162, 8471, 8090
7673, 5063, 1214, 193, 5034, 10463, 1679, 5122, 5123, 10144, 5118
7674, 3194, 3196, 3220, 6399, 4858, 4861, 4860, 10298, 9455, 8083
7675, 6421, 6436, 6267, 6486, 9718, 9957, 6993, 9864, 8967, 8604
7676, 1338, 1025, 1161, 6412, 2160, 2178, 2180, 10317, 9107, 9108
7677, 3049, 3050, 6337, 6457, 4335, 8867, 10209, 10764, 10310, 8394
7678, 5055, 5044, 3369, 6442, 5160, 10402, 10658, 10588, 9838, 9302
7679, 1202, 1105, 183, 5047, 1653, 1649, 1651, 6803, 10768, 5092
7680, 3194, 3220, 3204, 6391, 4860, 3913, 4854, 10297, 8714, 10424
7681, 5840, 5846, 5827, 6367, 5891, 5922, 5928, 9950, 10176, 9582
7682, 720, 710, 6270, 6365, 5248, 8242, 10581, 10537, 9131, 8789
7683, 6131, 6269, 6112, 6489, 9903, 10278, 6228, 9874, 8199, 10619
7684, 816, 6304, 815, 6422, 10590, 10627, 818, 10838, 8567, 10628
7685, 6121, 3347, 588, 6106, 9483, 3876, 6177, 6178, 9484, 6173
7686, 3170, 454, 5595, 3367, 3695, 5650, 10732, 3696, 3693, 10733
7687, 5590, 5977, 5967, 569, 10728, 6039, 10738, 10830, 6038, 6034
7688, 5982, 5966, 5981, 6390, 6068, 6067, 6069, 8300, 10519, 9577
7689, 5831, 1288, 337, 1304, 10197, 1844, 5883, 10114, 1851, 1850
7690, 1005, 1003, 1248, 6380, 2067, 2069, 2068, 8822, 8016, 8871
7691, 3028, 3232, 2999, 6385, 4150, 4129, 4148, 9291, 9289, 8055
7692, 3263, 554, 3280, 5835, 3820, 3826, 3825, 10735, 5907, 10239
7693, 111, 3155, 856, 6441, 3582, 10811, 859, 10839, 10389, 10490
7694, 3194, 3204, 3192, 6391, 4854, 3646, 4852, 10297, 10424, 10522
7695, 3247, 3390, 3124, 6329, 4647, 4737, 4736, 9688, 9689, 10840
7696, 5982, 3278, 568, 3265, 9661, 3836, 6031, 9305, 3835, 3830
7697, 3061, 811, 801, 6455, 9834, 5554, 10083, 7438, 9835, 10085
7698, 148, 1283, 338, 5840, 1620, 1623, 1622, 10718, 10771, 5888
7699, 2965, 3399, 3259, 6322, 3976, 3980, 3979, 9005, 7970, 8249
7700, 1424, 990, 1284, 6322, 2002, 2003, 2005, 7968, 9389, 7618
7701, 1351, 610, 620, 6306, 10841, 4942, 9578, 6953, 10568, 9580
7702, 278, 5271, 1188, 1246, 5364, 9938, 1779, 1777, 10037, 1781
7703, 6329, 6424, 6257, 6482, 10563, 8576, 8172, 10594, 8579, 8580
7704, 3210, 3209, 3006, 6383, 4183, 4182, 4184, 9412, 8226, 8897
7705, 1182, 1395, 1315, 6407, 2842, 2841, 2840, 10127, 10125, 10644
7706, 1313, 1071, 6299, 6435, 2404, 8598, 7965, 7966, 8124, 7067
7707, 5829, 879, 5841, 555, 10758, 10751, 5915, 5910, 10837, 5914
7708, 1026, 1017, 1027, 6338, 2124, 2139, 2138, 7039, 7977, 7556
7709, 2992, 3001, 3002, 6338, 4098, 4114, 4113, 7981, 9343, 8908
7710, 5062, 5038, 189, 1229, 5111, 5110, 5106, 9620, 9728, 1669
7711, 573, 2967, 5968, 3382, 3854, 8290, 6050, 3851, 3855, 8696
7712, 820, 821, 830, 6390, 823, 5575, 5572, 10100, 10258, 9204
7713, 831, 830, 821, 6390, 833, 5575, 5574, 8299, 9204, 10258
7714, 1000, 998, 999, 6378, 2041, 2036, 2042, 8875, 7899, 8774
7715, 5703, 5591, 5693, 530, 10748, 10756, 5758, 5753, 10842, 5757
7716, 3196, 3195, 3197, 6399, 4859, 4863, 4862, 9455, 10315, 8466
7717, 1341, 1173, 1383, 6261, 2830, 2828, 2579, 10063, 8988, 6986
7718, 3316, 3358, 3148, 6261, 4554, 4804, 4805, 8397, 6906, 8991
7719, 1139, 1174, 6111, 373, 1911, 10082, 9860, 1910, 1912, 6157
7720, 3044, 6291, 6243, 6431, 8600, 10088, 10087, 10620, 10259, 10650
7721, 3021, 104, 3312, 646, 3556, 3552, 3557, 10516, 649, 10843
7722, 1182, 1273, 6248, 6406, 2654, 9610, 10344, 10291, 10163, 10545
7723, 2985, 2986, 2984, 6387, 4072, 4071, 4066, 9027, 8911, 8079
7724, 5707, 5688, 5703, 6409, 5787, 5792, 5755, 10187, 10192, 10398
7725, 1302, 351, 1290, 5981, 1860, 1854, 1861, 9574, 6007, 9818
7726, 3234, 2981, 3005, 6392, 4059, 4048, 4060, 9281, 9404, 8354
7727, 1218, 1217, 1219, 6354, 1943, 2878, 2877, 8028, 8916, 9015
7728, 3192, 3193, 3194, 6354, 3917, 4853, 4852, 10609, 7094, 10404
7729, 3225, 3007, 6292, 6444, 4005, 9980, 8725, 9892, 9244, 7332
7730, 1290, 5981, 1416, 6390, 9818, 10817, 1858, 9533, 9577, 9747
7731, 816, 3325, 806, 6304, 10844, 9642, 5559, 10590, 7036, 9643
7732, 3225, 2970, 2972, 6472, 4003, 4001, 4004, 8920, 10205, 9714
7733, 1035, 1130, 1369, 6376, 2228, 2230, 1830, 10526, 9326, 10543
7734, 1153, 1211, 1408, 6334, 2772, 1934, 2773, 8977, 10639, 9551
7735, 3186, 3128, 3383, 6334, 4747, 4748, 3910, 7702, 8348, 7643
7736, 574, 3140, 5980, 3042, 3858, 9429, 6053, 3856, 3859, 7844
7737, 625, 616, 615, 6329, 4950, 618, 4947, 10591, 10808, 10782
7738, 626, 616, 625, 6329, 4949, 4950, 628, 10845, 10808, 10591
7739, 1233, 1019, 1236, 6384, 2100, 2147, 2146, 8075, 8887, 9066
7740, 1268, 6404, 6306, 6478, 10449, 8845, 10455, 10846, 10847, 9124
7741, 1195, 237, 1392, 5596, 1719, 1717, 1721, 10671, 5625, 10672
7742, 1290, 1416, 1151, 6390, 1858, 2768, 2583, 9533, 9747, 8613
7743, 626, 625, 635, 6329, 628, 4957, 4960, 10845, 10591, 10560
7744, 635, 636, 626, 6329, 638, 4959, 4960, 10560, 10743, 10845
7745, 3003, 2977, 2991, 6379, 4038, 4036, 4039, 9211, 8716, 7976
7746, 3129, 3291, 3152, 6415, 4753, 4752, 4500, 10565, 10147, 10709
7747, 548, 3340, 5842, 2960, 3798, 8706, 5893, 3796, 3799, 9757
7748, 592, 6116, 6110, 880, 6187, 6192, 6191, 10848, 10687, 10688
7749, 195, 988, 1201, 5042, 1687, 1689, 1685, 5124, 10370, 9226
7750, 3338, 3078, 6350, 6486, 4396, 8975, 10318, 10716, 8093, 8495
7751, 3045, 3028, 3044, 6431, 4287, 4282, 4288, 9273, 10162, 10620
7752, 3294, 6401, 3160, 6476, 8898, 9985, 4820, 10251, 10252, 10810
7753, 319, 1373, 1036, 5700, 1815, 1817, 1814, 5749, 8213, 6979
7754, 5258, 5286, 5267, 6363, 5455, 5396, 5456, 10498, 10025, 8138
7755, 481, 5285, 5261, 3174, 5376, 5378, 5374, 3709, 10267, 10576
7756, 680, 1405, 670, 6404, 9523, 9356, 5002, 9525, 6629, 9357
7757, 1033, 1050, 1253, 6325, 2218, 2220, 2184, 7295, 8025, 7045
7758, 3228, 3025, 3008, 6325, 4195, 4194, 4158, 9568, 7255, 7293
7759, 3348, 3011, 5701, 536, 3792, 8652, 8208, 3791, 3788, 5777
7760, 407, 2953, 5043, 3204, 3648, 8834, 5167, 3644, 3649, 10541
7761, 3040, 587, 2966, 6106, 3871, 3869, 3872, 7358, 6174, 9240
7762, 1299, 1268, 1125, 6306, 2665, 2664, 1922, 9909, 10455, 10014
7763, 479, 5274, 5272, 3153, 5370, 5372, 5368, 3703, 9008, 6572
7764, 3338, 6457, 3049, 6486, 10715, 10764, 4393, 10716, 10255, 10210
7765, 5254, 5275, 5262, 6413, 5437, 5390, 5436, 9633, 8142, 10080
7766, 1269, 1090, 1137, 6460, 2497, 2495, 2498, 9511, 8107, 10218
7767, 5982, 3391, 5984, 6324, 10775, 10681, 6033, 8297, 10332, 10682
7768, 314, 1305, 1291, 5699, 1790, 1789, 1788, 5734, 10143, 10849
7769, 1372, 371, 6112, 6489, 1902, 6149, 10850, 10595, 10851, 10619
7770, 790, 781, 791, 6248, 5535, 5534, 793, 10427, 10692, 10382
7771, 5259, 275, 1198, 5269, 5351, 1770, 9914, 5356, 5355, 7718
7772, 1365, 985, 331, 5843, 1823, 1822, 1824, 9069, 8294, 5867
7773, 1186, 1199, 1430, 6374, 2852, 1984, 2807, 9097, 10102, 9647
7774, 5034, 1214, 192, 5054, 10144, 1678, 5119, 5120, 10324, 5115
7775, 489, 2951, 3260, 6418, 3733, 3738, 3737, 10852, 10447, 9090
7776, 1145, 1382, 1397, 6468, 2750, 2751, 1838, 10359, 8956, 10361
7777, 533, 5691, 5714, 3238, 5762, 5767, 5766, 3776, 9451, 8182
7778, 3322, 3356, 3146, 6315, 4547, 4801, 4802, 7313, 7333, 8853
7779, 5591, 5703, 3367, 530, 10748, 10750, 10749, 10842, 5753, 3699
7780, 761, 770, 760, 6355, 5515, 5512, 763, 10573, 10797, 10572
7781, 771, 770, 761, 6355, 773, 5515, 5514, 10853, 10797, 10573
7782, 5058, 5044, 5033, 6442, 5213, 5212, 5105, 7710, 9838, 9770
7783, 5033, 5040, 5062, 6442, 5209, 5211, 5108, 9770, 10369, 8918
7784, 5966, 856, 855, 6441, 6058, 858, 6059, 9407, 10490, 8285
7785, 5046, 3096, 3172, 414, 10342, 3670, 9035, 5186, 3669, 3665
7786, 3272, 6307, 3243, 6463, 10659, 9981, 4916, 10191, 9850, 10190
7787, 1407, 1352, 1165, 6435, 2015, 2812, 1885, 9474, 8960, 9712
7788, 3242, 3241, 3302, 6446, 4637, 4422, 4912, 10801, 9235, 10431
7789, 3004, 2991, 3229, 6426, 4107, 4109, 4108, 9043, 8261, 10550
7790, 872, 3181, 133, 6414, 10596, 3600, 917, 10825, 9640, 10602
7791, 5283, 274, 983, 5259, 5348, 1767, 8761, 5353, 5352, 9913
7792, 5700, 5687, 5701, 6427, 5788, 5790, 5789, 6940, 6706, 8654
7793, 1376, 1278, 1102, 6372, 2559, 2558, 2556, 8372, 9570, 9410
7794, 2989, 2987, 3205, 6434, 4087, 4089, 4088, 9268, 8792, 10647
7795, 3290, 6355, 3248, 6455, 10763, 10375, 4815, 10854, 10132, 10351
7796, 3205, 6403, 3228, 6434, 10410, 9569, 4160, 10647, 6711, 9690
7797, 5696, 5697, 5705, 6353, 5813, 5824, 5820, 8622, 8855, 7757
7798, 3289, 3160, 3247, 6346, 4823, 4645, 4824, 9059, 9984, 9958
7799, 1200, 1122, 1059, 6395, 2346, 2345, 2193, 9460, 9804, 9415
7800, 1067, 357, 1165, 5979, 1882, 1884, 1883, 7881, 6027, 9431
7801, 3205, 6314, 6403, 6434, 10409, 8599, 10410, 10647, 8267, 6711
7802, 336, 5831, 5836, 1415, 5882, 5884, 5880, 1846, 9072, 9365
7803, 6132, 3375, 589, 6114, 9562, 3879, 6180, 6183, 9785, 6181
7804, 756, 3379, 746, 6411, 9477, 9636, 5499, 9479, 6799, 9637
7805, 3099, 3240, 3269, 6304, 4633, 4635, 3769, 9753, 10485, 8733
7806, 373, 1174, 6113, 1400, 1912, 9814, 6155, 1904, 1913, 9815
7807, 1381, 1347, 1171, 6315, 2572, 2827, 2825, 7032, 7314, 8722
7808, 3155, 3053, 3360, 6451, 4415, 4417, 4416, 9625, 7015, 9375
7809, 1385, 1078, 1180, 6452, 2441, 2439, 2442, 9377, 7538, 8755
7810, 3204, 5043, 407, 5067, 10541, 5167, 3644, 10520, 5169, 5165
7811, 3022, 651, 65, 3395, 10212, 654, 3435, 3436, 10211, 3431
7812, 1041, 1419, 39, 775, 1541, 1537, 1539, 10035, 10034, 777
7813, 3397, 3125, 3264, 6480, 4738, 4560, 3899, 10138, 10554, 9776
7814, 1291, 1152, 1421, 6481, 2582, 2769, 1796, 9559, 10555, 10456
7815, 6304, 6411, 3240, 6479, 9756, 10462, 10485, 9222, 10856, 10855
7816, 3288, 3187, 3046, 6299, 4379, 4378, 4380, 7832, 6580, 6776
7817, 980, 1215, 1214, 6373, 1950, 1949, 1683, 8962, 7595, 9091
7818, 3152, 6415, 6269, 6462, 10709, 7879, 10717, 10710, 9340, 8196
7819, 1212, 1313, 1071, 6299, 2405, 2404, 2402, 6585, 7965, 8598
7820, 3206, 3216, 3228, 6403, 4873, 4272, 4890, 9304, 7996, 9569
7821, 1292, 1265, 6305, 6467, 2933, 10534, 10677, 10198, 10199, 10676
7822, 3080, 3307, 3177, 6371, 4551, 4550, 3628, 7962, 9456, 7673
7823, 5703, 3367, 3170, 6409, 10750, 3696, 10652, 10398, 10734, 10186
7824, 1392, 5702, 1195, 6409, 9902, 10700, 1721, 10673, 10701, 10235
7825, 1392, 238, 313, 5588, 1718, 1724, 1725, 9899, 5632, 10496
7826, 5826, 5845, 851, 6348, 5923, 5865, 5917, 8678, 8690, 9970
7827, 1281, 1367, 1163, 6428, 2476, 2805, 2427, 9644, 9676, 9672
7828, 1407, 356, 992, 5973, 1877, 1878, 1880, 9472, 6024, 8262
7829, 3254, 5276, 5263, 490, 9128, 5405, 9224, 3740, 5401, 5403
7830, 715, 705, 1335, 6364, 5243, 10552, 7577, 7579, 10553, 7472
7831, 3163, 495, 3221, 5277, 3755, 3751, 3756, 10466, 5416, 10366
7832, 1164, 1430, 1322, 6326, 2806, 1988, 2808, 7963, 9646, 9382
7833, 3405, 3139, 3297, 6326, 4782, 4784, 3963, 8794, 7964, 8477
7834, 5585, 1282, 233, 5978, 10857, 1703, 5617, 10622, 10821, 10696
7835, 1414, 369, 1173, 6123, 1890, 1891, 1893, 10794, 6134, 8985
7836, 10, 1046, 1351, 620, 1450, 1452, 1448, 622, 9579, 9578
7837, 3325, 88, 806, 3018, 3502, 809, 9642, 3507, 3506, 9641
7838, 3344, 3296, 3105, 6488, 4448, 4666, 4205, 8808, 8809, 8686
7839, 6124, 3389, 586, 3148, 10789, 3864, 6139, 8990, 3868, 3867
7840, 5586, 1392, 5596, 6409, 10630, 10672, 5630, 10759, 10673, 10373
7841, 3305, 3317, 3095, 6461, 4611, 4610, 4612, 9416, 7434, 9421
7842, 3023, 681, 68, 3380, 9782, 684, 3444, 3445, 9783, 3440
7843, 3021, 3271, 3324, 6447, 4254, 4255, 3560, 8624, 8625, 10675
7844, 741, 751, 750, 6365, 5494, 753, 5495, 10528, 9809, 10336
7845, 750, 740, 741, 6365, 5492, 743, 5495, 10336, 10314, 10528
7846, 883, 872, 133, 6414, 921, 917, 919, 10196, 10825, 10602
7847, 691, 681, 3023, 6446, 5014, 9782, 10720, 10721, 10502, 10430
7848, 3154, 399, 5050, 3080, 3620, 5141, 7803, 3625, 3624, 7880
7849, 3163, 496, 5294, 3052, 3754, 5305, 9372, 3757, 3535, 7250
7850, 5271, 278, 5257, 1246, 5364, 5360, 5365, 10037, 1777, 9868
7851, 676, 685, 686, 6364, 5010, 688, 5009, 9738, 10339, 10548
7852, 675, 685, 676, 6364, 5007, 5010, 678, 10208, 10339, 9738
7853, 3167, 3096, 5057, 415, 3673, 6781, 9257, 3672, 3668, 5189
7854, 5702, 5688, 5706, 6409, 5791, 5785, 5730, 10701, 10192, 10234
7855, 1042, 1404, 42, 745, 1550, 1546, 1548, 7999, 7997, 747
7856, 5832, 553, 3390, 5835, 5904, 3822, 10161, 5909, 5908, 10319
7857, 5830, 5836, 5851, 6468, 5881, 5942, 5941, 10360, 8273, 9933
7858, 5047, 1105, 183, 5059, 10768, 1649, 5092, 5093, 8948, 5088
7859, 3192, 2954, 3193, 6442, 3643, 3918, 3917, 10586, 10587, 7234
7860, 610, 621, 620, 6306, 4945, 623, 4942, 10568, 10723, 9580
7861, 621, 610, 611, 6306, 4945, 613, 4944, 10723, 10568, 10579
7862, 3370, 3157, 3290, 6355, 4816, 4814, 4817, 10858, 10488, 10763
7863, 1067, 1166, 1275, 6335, 2384, 2386, 2383, 7882, 9159, 6779
7864, 399, 5036, 5050, 3080, 5143, 5145, 5141, 3624, 9906, 7880
7865, 1118, 1244, 1081, 6388, 2458, 2366, 2456, 9050, 8863, 9193
7866, 1174, 1175, 1139, 6377, 2718, 2726, 1911, 9962, 8973, 10067
7867, 5698, 3281, 3266, 531, 9952, 3765, 9953, 5760, 3764, 3762
7868, 6116, 592, 3366, 880, 6187, 3616, 9040, 10687, 10848, 10784
7869, 2954, 404, 3369, 5055, 3639, 3635, 3640, 10585, 5158, 10658
7870, 5040, 405, 3192, 5055, 5161, 3642, 10610, 5163, 5159, 10584
7871, 1345, 6364, 685, 6485, 8778, 10339, 10338, 10472, 10473, 10859
7872, 2964, 3235, 3214, 6363, 3971, 3975, 3974, 10023, 9844, 7543
7873, 879, 5854, 878, 5829, 10752, 10007, 955, 10758, 5939, 10444
7874, 3338, 3078, 3315, 6350, 4396, 4536, 4540, 10318, 8975, 9424
7875, 1103, 1363, 1340, 6350, 2421, 2565, 2563, 9475, 8390, 9893
7876, 1372, 6112, 991, 6489, 10850, 10279, 1903, 10595, 10619, 10564
7877, 5046, 5057, 3096, 414, 5190, 6781, 10342, 5186, 5188, 3669
7878, 3085, 3090, 3045, 6431, 4373, 4372, 4367, 9494, 9467, 9273
7879, 3287, 3216, 3195, 6344, 4275, 4865, 4857, 8077, 7995, 9612
7880, 1312, 1220, 1241, 6344, 2882, 2889, 2299, 9491, 8019, 7090
7881, 805, 816, 806, 6304, 5560, 5559, 808, 10739, 10590, 9643
7882, 816, 805, 815, 6304, 5560, 5557, 818, 10590, 10739, 10627
7883, 5591, 5588, 5712, 5693, 5667, 10015, 10753, 10756, 10448, 5818
7884, 1296, 6424, 1272, 6429, 10860, 10077, 2761, 10419, 10861, 10727
7885, 590, 3114, 3149, 6108, 3884, 3887, 3886, 6185, 7582, 7924
7886, 1101, 1099, 1260, 6361, 2542, 2544, 2543, 8805, 7236, 9771
7887, 3074, 3076, 3235, 6361, 4516, 4519, 4518, 7766, 8801, 8769
7888, 988, 1213, 1169, 6339, 1991, 1990, 1989, 9457, 7508, 6727
7889, 3070, 3347, 2956, 6462, 3931, 3877, 3929, 9332, 9486, 9153
7890, 3144, 3188, 2963, 6339, 3965, 3964, 3966, 6729, 7519, 9554
7891, 1194, 1157, 1389, 6469, 2792, 2789, 2169, 9839, 10288, 8664
7892, 1322, 1208, 1340, 6454, 1987, 2864, 2866, 9383, 10012, 9894
7893, 3375, 3030, 589, 6114, 3883, 3882, 3879, 9785, 7177, 6181
7894, 671, 3380, 681, 6410, 9613, 9783, 5004, 9615, 6984, 9784
7895, 5294, 496, 3163, 5273, 5305, 3754, 9372, 5421, 5419, 9481
7896, 3022, 66, 661, 3381, 3434, 664, 10451, 3439, 3438, 10450
7897, 1044, 14, 1406, 660, 1460, 1462, 1464, 10327, 662, 10328
7898, 775, 766, 765, 6393, 5520, 768, 5517, 10036, 10725, 9961
7899, 775, 776, 766, 6393, 778, 5519, 5520, 10036, 10494, 10725
7900, 6113, 1400, 1055, 372, 9815, 1908, 7758, 6154, 1905, 1906
7901, 781, 780, 770, 6248, 783, 5522, 5525, 10692, 10816, 10795
7902, 766, 92, 3378, 3016, 769, 3518, 10355, 10356, 3514, 3519
7903, 1403, 1041, 40, 765, 1544, 1540, 1542, 9960, 9959, 767
7904, 3273, 64, 641, 3395, 3428, 644, 9167, 3433, 3432, 9168
7905, 38, 1419, 1293, 785, 1536, 1538, 1534, 787, 9393, 9392
7906, 3077, 3340, 2960, 6459, 3951, 3799, 3949, 8643, 9395, 9758
7907, 5590, 5589, 5967, 5991, 5669, 10464, 10738, 10729, 9912, 6071
7908, 2955, 5056, 5041, 410, 10117, 5178, 9327, 3657, 5174, 5176
7909, 6248, 6355, 6324, 6441, 10383, 10128, 10030, 8286, 10377, 10378
7910, 3205, 3228, 3001, 6434, 4160, 4159, 4100, 10647, 9690, 9402
7911, 3042, 3250, 3141, 6335, 4357, 4361, 4360, 7845, 6785, 9665
7912, 5712, 5702, 5586, 6409, 5796, 10631, 10657, 10397, 10701, 10759
7913, 2956, 589, 6114, 6121, 3875, 6181, 7383, 8534, 6176, 6182
7914, 5967, 5582, 5589, 5590, 10094, 5668, 10464, 10738, 5670, 5669
7915, 879, 878, 870, 5829, 955, 954, 956, 10758, 10444, 10166
7916, 3254, 5263, 5287, 491, 9224, 5408, 10306, 3739, 5404, 5406
7917, 880, 6107, 877, 6127, 10666, 9856, 959, 10668, 6217, 9858
7918, 153, 877, 375, 1391, 951, 10530, 1641, 1635, 9966, 1642
7919, 3241, 3147, 3054, 6352, 3591, 4420, 4421, 9471, 9385, 10027
7920, 3320, 100, 3319, 686, 3544, 3540, 3545, 9996, 689, 9997
7921, 1344, 685, 48, 1345, 10337, 687, 1566, 1570, 10338, 1568
7922, 3318, 74, 741, 3321, 3460, 744, 9940, 3465, 3464, 9941
7923, 1346, 1343, 22, 740, 1490, 1486, 1488, 10313, 10312, 742
7924, 5591, 5581, 5588, 5693, 5666, 5665, 5667, 10756, 10152, 10448
7925, 3044, 3102, 3085, 6431, 4370, 4369, 4368, 10620, 10862, 9494
7926, 3060, 3342, 3346, 6437, 4451, 4453, 4450, 9196, 8306, 10632
7927, 1199, 1104, 263, 5256, 1736, 1732, 1734, 10385, 10511, 5311
7928, 886, 125, 870, 6482, 897, 906, 908, 10116, 9735, 10302
7929, 3323, 79, 3015, 6455, 3479, 3475, 3480, 8984, 10864, 10863
7930, 5840, 148, 1283, 875, 10718, 1620, 10771, 9949, 936, 10833
7931, 3173, 5279, 2958, 6453, 7410, 10865, 3747, 8420, 8421, 10309
7932, 1129, 354, 5969, 6402, 1869, 6016, 9053, 8541, 10866, 9054
7933, 1218, 1312, 1191, 6445, 2859, 2858, 2857, 8030, 9492, 9164
7934, 276, 5269, 5284, 990, 5354, 5359, 5358, 1773, 9512, 9763
7935, 665, 6364, 6257, 6485, 10204, 9001, 10203, 10867, 10473, 10868
7936, 1124, 1263, 316, 5694, 1801, 1800, 1791, 9434, 8717, 5738
7937, 3207, 2964, 486, 5286, 3729, 3728, 3724, 10022, 10021, 5391
7938, 1166, 1067, 1165, 6335, 2384, 1883, 2385, 9159, 7882, 9432
7939, 334, 5839, 1084, 1145, 5874, 8718, 1831, 1836, 7416, 1837
7940, 3059, 551, 3120, 5838, 3807, 3812, 3811, 7853, 5898, 7441
7941, 3229, 6426, 6285, 6484, 10550, 7461, 10549, 10670, 7601, 7497
7942, 1323, 1187, 1054, 6423, 2321, 2319, 2309, 9265, 9439, 8958
7943, 645, 646, 636, 6257, 648, 4969, 4970, 10869, 10684, 10742
7944, 636, 635, 645, 6257, 638, 4967, 4970, 10742, 10561, 10869
7945, 1362, 58, 5846, 1128, 1598, 5858, 10056, 1602, 1601, 9506
7946, 3337, 110, 3103, 5847, 3574, 3575, 3577, 9314, 5863, 9502
7947, 5972, 5598, 5589, 5582, 10183, 5615, 9910, 10092, 5659, 5668
7948, 1268, 1378, 1267, 6404, 2939, 2938, 2663, 10449, 10870, 10003
7949, 3247, 6329, 3124, 6447, 9688, 10840, 4736, 10509, 10669, 10510
7950, 5270, 5274, 5256, 6417, 5449, 5447, 5313, 7187, 9009, 10386
7951, 2990, 2993, 2995, 6420, 4101, 4104, 4103, 7697, 9262, 9297
7952, 1328, 1327, 1267, 6404, 2276, 2937, 2940, 6628, 8926, 10003
7953, 3299, 3151, 3392, 6323, 4807, 4712, 3958, 6552, 8996, 9527
7954, 1417, 1176, 1324, 6323, 2738, 2831, 1983, 9529, 8993, 7180
7955, 182, 1179, 5051, 5059, 1646, 6610, 5085, 5089, 7414, 5090
7956, 880, 874, 884, 6127, 969, 966, 930, 10668, 9877, 9878
7957, 1103, 6350, 1340, 6490, 9475, 9893, 2563, 9398, 7726, 10243
7958, 5060, 401, 2961, 3177, 5147, 3630, 7558, 7672, 3626, 3631
7959, 5276, 489, 3260, 6418, 5400, 3737, 9127, 9129, 10852, 9090
7960, 1136, 1065, 1341, 6416, 2373, 2375, 2374, 9854, 10412, 10326
7961, 5834, 870, 886, 878, 10165, 908, 10118, 10005, 954, 934
7962, 5689, 5588, 5600, 5581, 9900, 5634, 10140, 10151, 5665, 5663
7963, 3240, 3239, 3352, 6411, 4634, 4906, 4905, 10462, 10269, 10871
7964, 700, 6430, 690, 6446, 10872, 10051, 5022, 10873, 10442, 10574
7965, 5703, 5707, 3170, 529, 5755, 10060, 10652, 5754, 5722, 3760
7966, 3259, 3121, 3221, 6394, 4728, 4727, 3978, 9588, 9855, 10048
7967, 5269, 276, 1198, 990, 5354, 1771, 7718, 9512, 1773, 1775
7968, 3301, 3239, 3300, 6411, 4907, 4904, 4234, 6800, 10269, 7822
7969, 5068, 5041, 411, 3176, 5181, 5177, 5179, 9935, 9270, 3660
7970, 755, 1403, 765, 6393, 7908, 9960, 5507, 10282, 8265, 9961
7971, 1104, 1178, 262, 5270, 1733, 1729, 1731, 9496, 7865, 5308
7972, 5262, 485, 3207, 5275, 5388, 3725, 10058, 5390, 5386, 9452
7973, 6123, 1414, 369, 6120, 10794, 1890, 6134, 6147, 9887, 6145
7974, 1162, 1075, 1163, 6343, 2422, 2424, 2423, 7327, 8866, 9671
7975, 3137, 3138, 3050, 6343, 4398, 4397, 4399, 7329, 8036, 8868
7976, 5257, 5277, 5271, 6394, 5451, 5453, 5365, 9871, 10367, 9939
7977, 1374, 5058, 186, 1394, 9701, 5101, 1658, 1662, 7709, 1660
7978, 876, 6367, 872, 6414, 10168, 10570, 963, 9836, 9101, 10825
7979, 3042, 3141, 3140, 6335, 4360, 4359, 3859, 7845, 9665, 7781
7980, 3347, 3152, 2966, 6462, 3985, 3984, 3878, 9486, 10710, 9791
7981, 6250, 6451, 6270, 6452, 7527, 7014, 7525, 8050, 10547, 7539
7982, 3061, 801, 80, 3323, 10083, 804, 3482, 3483, 10084, 3478
7983, 1086, 1348, 28, 800, 1508, 1504, 1506, 10105, 10104, 802
7984, 318, 1413, 1064, 5692, 1803, 1812, 1811, 5744, 7523, 7099
7985, 187, 5058, 5033, 979, 5100, 5105, 5104, 1663, 8559, 9769
7986, 3389, 6119, 6124, 586, 8131, 6172, 10789, 3864, 6171, 6139
7987, 3103, 3065, 3112, 6348, 3576, 4471, 4470, 9745, 9853, 8699
7988, 3163, 3221, 3121, 6394, 3756, 4727, 4723, 10009, 10048, 9855
7989, 888, 6107, 877, 871, 10311, 9856, 953, 904, 10601, 957
7990, 1239, 1261, 1101, 6358, 2553, 2552, 2551, 7395, 7370, 8803
7991, 3236, 3214, 3076, 6358, 4527, 4526, 4528, 8704, 7541, 8799
7992, 406, 3192, 5067, 5040, 3641, 10521, 5164, 5162, 10610, 5166
7993, 1396, 6429, 1185, 6485, 10434, 10435, 2851, 10831, 10874, 10832
7994, 5706, 1195, 312, 5702, 10075, 1784, 5717, 5730, 10700, 5728
7995, 830, 1107, 820, 6390, 9992, 10099, 5572, 9204, 8614, 10100
7996, 2955, 411, 5041, 3176, 3656, 5177, 9327, 3661, 3660, 9270
7997, 5262, 3207, 486, 5286, 10058, 3724, 5389, 5393, 10022, 5391
7998, 1232, 1408, 977, 6413, 1936, 1935, 1751, 10415, 9552, 10436
7999, 6112, 6130, 6120, 6416, 6240, 6239, 6150, 10281, 7360, 9890
8000, 403, 3349, 3369, 6382, 3632, 3637, 3636, 10875, 9885, 9301
8001, 611, 6307, 6419, 6480, 10578, 10301, 10580, 10876, 10446, 10877
8002, 5971, 3066, 3335, 572, 7576, 3850, 8194, 6043, 3842, 3848
8003, 3002, 3009, 3282, 6366, 4161, 4164, 4163, 8909, 7993, 8842
8004, 3074, 3058, 3075, 6389, 4435, 4440, 4439, 7768, 9693, 8245
8005, 6248, 6365, 1182, 6407, 10345, 10346, 10344, 10878, 10813, 10127
8006, 1185, 6364, 1319, 6485, 10474, 8777, 2844, 10832, 10473, 10471
8007, 479, 3079, 5274, 3153, 3707, 9993, 5370, 3703, 3708, 9008
8008, 5256, 1104, 262, 5270, 10511, 1731, 5312, 5313, 9496, 5308
8009, 1378, 1044, 1328, 6404, 2270, 2269, 2271, 10870, 10154, 6628
8010, 3020, 97, 3310, 716, 3533, 3537, 3536, 10694, 719, 9217
8011, 5595, 5584, 3170, 6409, 5652, 10879, 10732, 10399, 10780, 10186
8012, 978, 191, 1242, 5064, 1673, 1675, 1677, 9147, 5112, 10364
8013, 1179, 182, 1105, 5059, 1646, 1648, 1650, 7414, 5089, 8948
8014, 19, 1039, 1334, 710, 1477, 1482, 1481, 712, 10698, 8240
8015, 3257, 3345, 5977, 570, 3840, 8551, 9408, 3837, 3838, 6037
8016, 5034, 5045, 5056, 6398, 5217, 5175, 5215, 9995, 9727, 8204
8017, 5256, 5261, 5280, 6417, 5446, 5448, 5316, 10386, 10605, 10225
8018, 3301, 3016, 3352, 6411, 4231, 4230, 4229, 6800, 10174, 10871
8019, 3068, 3067, 3117, 6386, 4315, 4481, 4480, 8571, 9678, 7324
8020, 1398, 5985, 1147, 6452, 10880, 7593, 1888, 10881, 8482, 9056
8021, 3373, 3122, 5986, 6451, 3863, 7597, 10882, 10883, 9057, 8483
8022, 856, 3155, 111, 6451, 10811, 3582, 859, 10506, 9625, 10884
8023, 1105, 1332, 1341, 6371, 2575, 2578, 2577, 7656, 9668, 10064
8024, 879, 875, 5854, 882, 970, 9964, 10752, 915, 962, 10246
8025, 5048, 1374, 185, 6397, 10453, 1657, 5098, 10730, 9800, 10835
8026, 881, 872, 876, 6367, 961, 963, 943, 9762, 10570, 10168
8027, 1372, 981, 371, 6489, 1901, 1900, 1902, 10595, 9312, 10851
8028, 194, 1201, 980, 5063, 1684, 1686, 1682, 5121, 9176, 9175
8029, 6251, 6430, 6352, 6446, 9442, 7467, 9345, 9237, 10442, 9347
8030, 1268, 6306, 1425, 6478, 10455, 8363, 2942, 10846, 9124, 9122
8031, 5712, 5586, 5591, 5595, 10657, 5681, 10753, 10395, 5677, 5655
8032, 5968, 3382, 3140, 574, 8696, 3860, 7048, 6049, 3852, 3858
8033, 5287, 2958, 5279, 6453, 10305, 10865, 5411, 10308, 10309, 8421
8034, 3098, 3155, 111, 6441, 3583, 3582, 3578, 10556, 10389, 10839
8035, 3292, 3136, 3285, 6450, 4293, 4775, 4671, 10295, 10393, 6793
8036, 198, 1192, 1121, 5049, 1696, 1698, 1694, 5137, 9367, 7859
8037, 492, 3173, 5279, 2958, 3746, 7410, 5409, 3742, 3747, 10865
8038, 188, 5033, 5062, 979, 5103, 5108, 5107, 1664, 9769, 8974
8039, 731, 741, 740, 6365, 5484, 743, 5485, 10122, 10528, 10314
8040, 740, 730, 731, 6365, 5482, 733, 5485, 10314, 10477, 10122
8041, 5593, 5585, 5590, 5991, 5673, 5680, 5640, 9616, 10538, 10729
8042, 5594, 5583, 452, 3180, 5646, 5642, 5644, 10708, 10173, 3683
8043, 1322, 1430, 987, 6454, 1988, 1985, 1986, 9383, 10426, 10508
8044, 3007, 2968, 2970, 6470, 3993, 3991, 3994, 9246, 9447, 10185
8045, 353, 5978, 1282, 6448, 6013, 10821, 1862, 10885, 10824, 10886
8046, 988, 195, 5065, 5042, 1687, 5128, 10044, 10370, 5124, 5129
8047, 1211, 1340, 1210, 6458, 2562, 2865, 1932, 10640, 10074, 10159
8048, 695, 686, 685, 6364, 5020, 688, 5017, 10484, 10548, 10339
8049, 696, 686, 695, 6364, 5019, 5020, 698, 10469, 10548, 10484
8050, 820, 810, 811, 6390, 5562, 813, 5565, 10100, 10820, 10611
8051, 811, 821, 820, 6390, 5564, 823, 5565, 10611, 10258, 10100
8052, 319, 984, 1373, 5695, 1808, 1816, 1815, 5747, 7224, 7829
8053, 3202, 3222, 3199, 6405, 4848, 4882, 4880, 9300, 9630, 8574
8054, 5588, 1392, 238, 5586, 9899, 1718, 5632, 5633, 10630, 5628
8055, 3332, 3335, 2957, 6443, 3936, 3849, 3934, 8680, 8195, 8935
8056, 3015, 78, 3311, 6455, 3476, 3472, 3477, 10863, 10888, 10887
8057, 1073, 235, 5587, 5592, 1711, 5623, 8873, 10699, 5619, 5624
8058, 3261, 3317, 3066, 6461, 4477, 4476, 4478, 8504, 7434, 7303
8059, 3401, 6304, 3240, 6479, 8470, 10485, 4909, 9221, 9222, 10855
8060, 57, 1361, 1138, 845, 1593, 1595, 1592, 847, 10689, 7425
8061, 3113, 109, 846, 3336, 3566, 849, 7421, 3570, 3569, 10690
8062, 5062, 5040, 5038, 6391, 5211, 5230, 5111, 9519, 10411, 9730
8063, 3060, 3346, 3097, 6437, 4450, 4449, 4320, 9196, 10632, 9198
8064, 5053, 197, 1197, 5035, 5130, 1691, 7513, 5135, 5134, 10248
8065, 5969, 5987, 5978, 6448, 6083, 6082, 6017, 10636, 8554, 10824
8066, 6243, 6291, 1069, 6432, 10088, 10499, 10422, 10242, 9851, 10705
8067, 6109, 371, 981, 6489, 6151, 1900, 7003, 9311, 10851, 9312
8068, 3303, 3242, 3302, 6410, 4915, 4912, 4262, 6985, 10515, 10286
8069, 403, 5061, 3349, 6382, 5153, 10148, 3632, 10875, 10149, 9885
8070, 3171, 3366, 135, 884, 3611, 3610, 3612, 7711, 9041, 925
8071, 1351, 1089, 9, 610, 1449, 1445, 1447, 10841, 10567, 612
8072, 3063, 87, 816, 3325, 3499, 819, 10589, 3504, 3503, 10844
8073, 1378, 6404, 1268, 6478, 10870, 10449, 2939, 10889, 10847, 10846
8074, 1332, 1136, 1341, 6351, 2716, 2374, 2578, 9963, 9428, 10062
8075, 3316, 3111, 3307, 6351, 4350, 4689, 4552, 9208, 9251, 9623
8076, 3243, 3242, 3353, 6410, 4639, 4914, 4913, 8572, 10515, 6545
8077, 1045, 1405, 16, 680, 1470, 1466, 1468, 9524, 9523, 682
8078, 1283, 875, 881, 6367, 10833, 940, 10834, 10773, 9951, 9762
8079, 1180, 59, 1398, 6452, 1608, 1605, 1609, 8755, 10890, 10881
8080, 3373, 111, 3155, 6451, 3581, 3582, 3584, 10883, 10884, 9625
8081, 355, 1091, 1360, 5975, 1866, 1875, 1874, 6019, 9924, 8606
8082, 1084, 1369, 1321, 6376, 1833, 2473, 2472, 10352, 10543, 9080
8083, 3014, 731, 721, 6396, 10182, 5474, 10215, 7024, 10124, 10216
8084, 1296, 1349, 6424, 6429, 2295, 10891, 10860, 10419, 10420, 10861
8085, 354, 5975, 5969, 6402, 6018, 6020, 6016, 10866, 10070, 9054
8086, 3179, 3291, 3363, 6415, 4808, 4366, 4491, 9722, 10147, 8708
8087, 1206, 1283, 149, 881, 1627, 1621, 1625, 9759, 10834, 939
8088, 450, 3257, 5593, 569, 3679, 10052, 5638, 3681, 3680, 10731
8089, 1278, 1423, 1102, 6372, 2560, 2306, 2558, 9570, 8528, 9410
8090, 1407, 1165, 357, 5973, 1885, 1884, 1876, 9472, 9711, 6025
8091, 3346, 3295, 3097, 6437, 4623, 4622, 4449, 10632, 8934, 9198
8092, 1196, 874, 152, 1391, 6689, 948, 1636, 1637, 10095, 1634
8093, 3017, 746, 94, 3379, 9635, 749, 3524, 3525, 9636, 3520
8094, 492, 5279, 5287, 2958, 5409, 5411, 5407, 3742, 10865, 10305
8095, 3240, 6411, 3352, 6479, 10462, 10871, 4905, 10855, 10856, 10892
8096, 3151, 3355, 3068, 6313, 4488, 4487, 4485, 8995, 7627, 8570
8097, 1176, 1093, 1380, 6313, 2511, 2513, 2512, 8992, 7772, 7629
8098, 191, 1242, 5064, 5054, 1675, 10364, 5112, 5116, 10323, 5117
8099, 1308, 1022, 1287, 6400, 2105, 2163, 2165, 9230, 8603, 9607
8100, 5265, 2951, 489, 6418, 10271, 3733, 5398, 10812, 10447, 10852
8101, 1412, 153, 877, 375, 1639, 951, 10803, 1643, 1641, 10530
8102, 1409, 313, 238, 5588, 1726, 1724, 1722, 10791, 10496, 5632
8103, 3070, 3031, 3071, 6473, 3930, 4303, 4302, 9114, 6970, 9113
8104, 1095, 1096, 1056, 6474, 2328, 2327, 1954, 8114, 8112, 6896
8105, 1295, 1040, 1348, 6406, 2249, 1505, 2252, 7681, 10829, 8550
8106, 3373, 856, 111, 6451, 10893, 859, 3581, 10883, 10506, 10884
8107, 59, 855, 1398, 6452, 857, 10894, 1605, 10890, 8104, 10881
8108, 2973, 2972, 2971, 6472, 4006, 4002, 4007, 7219, 9714, 9025
8109, 1148, 1376, 1269, 6460, 2757, 2557, 2759, 9378, 8765, 9511
8110, 2989, 3001, 2992, 6434, 4099, 4098, 4097, 9268, 9402, 8816
8111, 6112, 1372, 991, 371, 10850, 1903, 10279, 6149, 1902, 1894
8112, 3032, 537, 5708, 6427, 3794, 5725, 10895, 10241, 10896, 9796
8113, 352, 1410, 233, 5589, 1707, 1701, 1705, 10331, 10802, 5613
8114, 338, 1411, 148, 878, 1624, 1618, 1622, 10384, 10804, 932
8115, 6291, 6303, 6243, 6423, 8424, 10089, 10088, 8258, 8419, 10423
8116, 3347, 2966, 588, 6106, 3878, 3870, 3876, 9484, 9240, 6173
8117, 3020, 696, 706, 6401, 10232, 5029, 10261, 7121, 10233, 10263
8118, 881, 876, 150, 1072, 943, 942, 938, 9760, 9334, 1628
8119, 631, 630, 620, 6306, 633, 4952, 4955, 10598, 10760, 9580
8120, 620, 621, 631, 6306, 623, 4954, 4955, 9580, 10723, 10598
8121, 5691, 533, 3099, 3238, 5762, 3767, 10010, 9451, 3776, 3775
8122, 1367, 1371, 1209, 6428, 2478, 2734, 2804, 9676, 9677, 9024
8123, 277, 5284, 5257, 990, 5357, 5362, 5361, 1774, 9763, 9978
8124, 3365, 3170, 5584, 6409, 3694, 10879, 10460, 10600, 10186, 10780
8125, 1371, 1085, 1122, 6395, 2474, 2344, 2475, 9673, 9674, 9804
8126, 534, 5697, 3388, 3146, 5770, 9786, 3778, 3781, 8851, 3782
8127, 1090, 5844, 58, 850, 7201, 5855, 1597, 8756, 5859, 852
8128, 3334, 3054, 701, 6446, 3451, 10897, 10898, 10459, 10391, 10899
8129, 885, 874, 152, 1196, 949, 948, 944, 7706, 6689, 1636
8130, 1046, 620, 630, 6306, 9579, 4952, 10761, 6955, 9580, 10760
8131, 1149, 1272, 1296, 6424, 2760, 2761, 2486, 10045, 10077, 10860
8132, 1069, 1110, 1127, 6243, 2392, 2395, 2394, 10422, 10133, 10042
8133, 806, 796, 795, 6304, 5549, 798, 5550, 9643, 10770, 10606
8134, 795, 805, 806, 6304, 5547, 808, 5550, 10606, 10739, 9643
8135, 3183, 3185, 483, 6368, 3720, 3719, 3715, 9306, 9518, 10900
8136, 6112, 371, 6109, 6489, 6149, 6151, 6153, 10619, 10851, 9311
8137, 3077, 3026, 3398, 6459, 3950, 4279, 4281, 8643, 9088, 8334
8138, 3353, 3303, 3022, 6410, 4257, 4259, 4258, 6545, 6985, 8162
8139, 3311, 6440, 3290, 6455, 10744, 10745, 4228, 10887, 10901, 10854
8140, 6120, 6130, 6119, 6416, 6239, 6212, 6206, 9890, 7360, 8134
8141, 1079, 1359, 700, 6430, 1476, 10902, 10903, 8378, 8631, 10872
8142, 5049, 1121, 198, 5035, 7859, 1694, 5137, 5138, 6500, 5133
8143, 3098, 3157, 3156, 6441, 4627, 4626, 4625, 10556, 10806, 10741
8144, 1258, 1312, 1050, 6445, 2301, 2300, 2236, 9567, 9492, 8026
8145, 1165, 1166, 6335, 6435, 2385, 9159, 9432, 9712, 9160, 7066
8146, 5581, 841, 840, 6422, 5661, 843, 5662, 10029, 9650, 9557
8147, 3272, 3274, 3243, 6307, 4739, 4640, 4916, 10659, 9283, 9981
8148, 1040, 1336, 26, 6407, 1502, 1498, 1500, 10904, 10906, 10905
8149, 1157, 1155, 1158, 6469, 2780, 2782, 2781, 10288, 9979, 8666
8150, 877, 153, 874, 1391, 951, 947, 952, 9966, 1635, 10095
8151, 3091, 3236, 3237, 6425, 4588, 4529, 4592, 9544, 8705, 7932
8152, 796, 806, 3018, 6304, 5549, 9641, 10778, 10770, 9643, 7037
8153, 59, 1123, 5983, 855, 1604, 8058, 5994, 857, 8059, 5998
8154, 3230, 3031, 3123, 6473, 4305, 4297, 4306, 7446, 6970, 7154
8155, 1255, 1148, 1056, 6474, 2331, 2323, 2329, 8901, 7054, 6896
8156, 3063, 826, 86, 3330, 7385, 829, 3500, 3501, 7386, 3496
8157, 1354, 165, 8, 1089, 7388, 167, 1437, 1446, 7389, 1444
8158, 555, 131, 882, 3258, 3598, 913, 10788, 3597, 3596, 9704
8159, 1285, 976, 272, 5289, 1763, 1759, 1761, 9798, 9797, 5340
8160, 5282, 5262, 5258, 6413, 5438, 5454, 5336, 10417, 10080, 10525
8161, 3319, 99, 3020, 696, 3541, 3539, 3542, 10231, 699, 10232
8162, 1344, 47, 695, 1048, 1565, 697, 10483, 1567, 1564, 10482
8163, 1265, 1294, 1292, 6305, 2660, 2771, 2933, 10534, 7787, 10677
8164, 1326, 755, 745, 6393, 7906, 5497, 7998, 8152, 10282, 8356
8165, 1264, 1265, 1377, 6393, 2658, 2931, 2930, 10065, 9628, 6744
8166, 3065, 851, 110, 5845, 10363, 854, 3571, 9852, 5865, 5862
8167, 3094, 3095, 3261, 6461, 4309, 4606, 4605, 7005, 9421, 8504
8168, 1188, 279, 1077, 5293, 1780, 1559, 1782, 9792, 5300, 9102
8169, 1039, 21, 1343, 730, 1484, 1485, 1487, 10475, 732, 10476
8170, 3014, 73, 731, 3318, 3459, 734, 10182, 3462, 3461, 10181
8171, 111, 856, 5984, 6441, 859, 6004, 6001, 10839, 10490, 10826
8172, 5583, 451, 3180, 3257, 5641, 3684, 10173, 10388, 3678, 3685
8173, 5061, 6382, 5048, 6397, 10149, 10454, 5241, 10150, 9802, 10730
8174, 3181, 872, 132, 3258, 10596, 916, 3601, 3602, 10569, 3595
8175, 815, 6422, 6305, 6481, 10628, 10348, 10626, 10907, 9561, 10457
8176, 6375, 6470, 6292, 6472, 7919, 9418, 8720, 8351, 9252, 8611
8177, 1430, 1199, 987, 6374, 1984, 1739, 1985, 9647, 10102, 10507
8178, 3177, 5036, 400, 3080, 10575, 5144, 3627, 3628, 9906, 3623
8179, 3309, 71, 711, 3014, 3457, 714, 8487, 3456, 3453, 10790
8180, 1211, 6458, 6334, 6490, 10640, 7704, 10639, 10722, 7727, 7725
8181, 1048, 45, 715, 1335, 1557, 717, 10793, 1562, 1561, 7577
8182, 3065, 3244, 3112, 6348, 4473, 4472, 4471, 9853, 8839, 8699
8183, 5708, 537, 5701, 6427, 5725, 5776, 5779, 9796, 10896, 8654
8184, 185, 986, 5037, 6397, 1655, 9724, 5094, 10835, 8843, 8752
8185, 1096, 1156, 1255, 6474, 2528, 2530, 2330, 8112, 8781, 8901
8186, 3230, 3131, 3071, 6473, 4505, 4504, 4304, 7446, 8410, 9113
8187, 1086, 30, 1107, 820, 1509, 1510, 1512, 10098, 822, 10099
8188, 3061, 82, 821, 3082, 3484, 824, 10908, 3487, 3486, 9719
8189, 691, 701, 700, 6446, 5024, 703, 5025, 10721, 10899, 10873
8190, 700, 690, 691, 6446, 5022, 693, 5025, 10873, 10574, 10721
8191, 5586, 1392, 237, 5596, 10630, 1717, 5629, 5630, 10672, 5625
8192, 5981, 5966, 5983, 6390, 6067, 6061, 6008, 9577, 10519, 10043
8193, 872, 882, 132, 3258, 918, 914, 916, 10569, 9704, 3595
8194, 2982, 2980, 2981, 6483, 4051, 4046, 4052, 8907, 9179, 10486
8195, 3370, 6355, 3290, 6440, 10858, 10763, 4817, 10746, 10909, 10745
8196, 1246, 277, 5257, 990, 1776, 5361, 9868, 1778, 1774, 9978
8197, 646, 645, 655, 6257, 648, 4977, 4980, 10684, 10869, 10786
8198, 315, 1294, 1124, 5694, 1794, 1793, 1792, 5737, 7785, 9434
8199, 1171, 317, 1170, 5696, 1805, 1798, 1806, 8721, 5741, 10090
8200, 3055, 3049, 3038, 6486, 4337, 4333, 4338, 10146, 10210, 9405
8201, 2959, 3348, 5690, 536, 3790, 7848, 7183, 3784, 3791, 5773
8202, 1283, 1206, 1362, 6367, 1627, 2863, 1853, 10773, 9761, 10175
8203, 5586, 5702, 1392, 6409, 10631, 9902, 10630, 10759, 10701, 10673
8204, 6257, 6364, 1185, 6485, 9001, 10474, 10481, 10868, 10473, 10832
8205, 1044, 660, 6404, 6478, 10327, 10329, 10154, 10910, 10911, 10847
8206, 3124, 6329, 3390, 6471, 10840, 9689, 4737, 10912, 10617, 10616
8207, 3390, 5835, 3263, 6471, 10319, 10735, 3823, 10616, 10244, 10736
8208, 454, 5595, 5584, 3170, 5650, 5652, 5648, 3695, 10732, 10879
8209, 113, 871, 114, 6419, 903, 902, 116, 9696, 9923, 10913
8210, 1360, 1357, 982, 6465, 1961, 1960, 1873, 8607, 8668, 9155
8211, 5984, 5966, 6324, 6441, 6063, 10542, 10682, 10826, 9407, 10378
8212, 1182, 6406, 6248, 6407, 10291, 10545, 10344, 10127, 10643, 10878
8213, 611, 6463, 6307, 6480, 10914, 9850, 10578, 10876, 10661, 10446
8214, 3260, 2951, 3224, 6418, 3738, 3904, 3906, 9090, 10447, 9788
8215, 1121, 1197, 197, 5035, 1695, 1691, 1693, 6500, 10248, 5134
8216, 5259, 5279, 5269, 6453, 5461, 5460, 5356, 9915, 8421, 8587
8217, 5259, 5263, 5287, 6453, 5458, 5408, 5459, 9915, 10257, 10308
8218, 112, 861, 3241, 3100, 864, 9234, 3590, 3588, 9380, 3589
8219, 60, 1125, 1266, 860, 1612, 1615, 1614, 862, 9828, 9338
8220, 1110, 6243, 1069, 6432, 10133, 10422, 2392, 9831, 10242, 10705
8221, 873, 3171, 135, 884, 6735, 3612, 923, 927, 7711, 925
8222, 1359, 5070, 1079, 700, 10915, 8377, 1476, 10902, 5075, 10903
8223, 1011, 1031, 1013, 6487, 2109, 2108, 2107, 7603, 9248, 8358
8224, 3182, 3364, 2998, 6439, 4145, 4144, 4120, 9287, 9654, 10096
8225, 726, 5295, 3051, 3333, 5304, 7682, 7567, 9752, 10916, 3531
8226, 987, 5290, 1208, 6454, 10917, 10754, 1742, 10508, 10755, 10012
8227, 815, 6305, 6467, 6481, 10626, 10676, 10918, 10907, 10457, 10679
8228, 3147, 3241, 112, 6124, 3591, 3590, 3585, 9227, 10757, 6140
8229, 450, 5593, 5590, 569, 5638, 5640, 5636, 3681, 10731, 10830
8230, 882, 879, 131, 555, 915, 911, 913, 10788, 10837, 3598
8231, 5281, 6368, 5264, 6458, 9683, 10557, 5467, 10160, 7733, 10000
8232, 3016, 6411, 766, 6479, 10174, 10357, 10356, 10919, 10856, 10920
8233, 880, 877, 874, 6127, 959, 952, 969, 10668, 9858, 9877
8234, 5850, 5835, 6329, 6482, 5951, 10320, 9680, 10038, 10480, 10594
8235, 1286, 1120, 1119, 6456, 2630, 2335, 2631, 8968, 9140, 7299
8236, 3289, 3371, 3160, 6346, 4826, 4825, 4823, 9059, 10921, 9984
8237, 5835, 6471, 6329, 6482, 10244, 10617, 10320, 10480, 9991, 10594
8238, 111, 5984, 3098, 6441, 6001, 10680, 3578, 10839, 10826, 10556
8239, 882, 872, 875, 6367, 918, 960, 962, 9706, 10570, 9951
8240, 3011, 5701, 537, 6427, 8652, 5776, 3789, 8653, 8654, 10896
8241, 3183, 483, 5268, 6368, 3715, 5380, 10016, 9306, 10900, 10524
8242, 3050, 3139, 3137, 6457, 4401, 4400, 4399, 10310, 10633, 10819
8243, 125, 1109, 605, 6424, 9660, 10922, 4928, 10276, 9708, 10923
8244, 3011, 537, 3032, 6427, 3789, 3794, 3793, 8653, 10896, 10241
8245, 5687, 846, 5708, 6408, 5781, 5727, 5786, 9298, 7423, 9795
8246, 845, 5687, 5709, 6408, 5780, 5784, 5721, 7426, 9298, 8521
8247, 451, 5583, 5593, 3257, 5641, 5643, 5639, 3678, 10388, 10052
8248, 5276, 5265, 489, 6418, 5402, 5398, 5400, 9129, 10812, 10852
8249, 5066, 401, 2961, 5060, 5149, 3630, 9500, 5151, 5147, 7558
8250, 3368, 2958, 3275, 6453, 3938, 3939, 3941, 9593, 10309, 8228
8251, 701, 5071, 5031, 6446, 5081, 5198, 5196, 10899, 10392, 10527
8252, 5064, 5045, 5054, 6398, 5239, 5218, 5117, 10107, 9727, 10325
8253, 5278, 271, 976, 5289, 5342, 1758, 10054, 5343, 5341, 9797
8254, 750, 1346, 740, 6365, 10822, 10313, 5492, 10336, 8703, 10314
8255, 1095, 981, 1372, 6489, 1955, 1901, 1956, 8766, 9312, 10595
8256, 3085, 6243, 6308, 6431, 10559, 10040, 9493, 9494, 10650, 9468
8257, 1272, 6424, 6257, 6429, 10077, 8576, 9983, 10727, 10861, 10704
8258, 1427, 1357, 1160, 6465, 2215, 2799, 2795, 6519, 8668, 8149
8259, 5290, 5281, 266, 1208, 5327, 5325, 5320, 10754, 9682, 1741
8260, 3261, 3335, 3135, 6443, 4479, 4773, 4609, 8503, 8195, 8159
8261, 2969, 2968, 2967, 6470, 3986, 3933, 3987, 7918, 9447, 7909
8262, 1378, 1044, 6404, 6478, 2270, 10154, 10870, 10889, 10910, 10847
8263, 5268, 6368, 5281, 6454, 10524, 9683, 5466, 10018, 8953, 10011
8264, 3099, 532, 5691, 3269, 3766, 5763, 10010, 3769, 3768, 8732
8265, 720, 730, 1039, 6365, 5472, 10475, 10536, 10537, 10477, 7346
8266, 3152, 3179, 3110, 6415, 4688, 4687, 3983, 10709, 9722, 8274
8267, 5712, 5586, 5588, 5591, 10657, 5633, 10015, 10753, 5681, 5667
8268, 878, 875, 5854, 879, 937, 9964, 10007, 955, 970, 10752
8269, 695, 1048, 705, 6364, 10482, 10551, 5027, 10484, 7344, 10553
8270, 317, 1171, 1413, 5692, 1805, 1807, 1804, 5743, 8767, 7523
8271, 1201, 194, 5042, 5063, 1684, 5125, 9226, 9176, 5121, 5126
8272, 3223, 3245, 3229, 6484, 4901, 4903, 4110, 8311, 9250, 10670
8273, 5590, 5585, 5589, 5991, 5680, 5618, 5669, 10729, 10538, 9912
8274, 5829, 5854, 5834, 5849, 5939, 5960, 10164, 5936, 5940, 5947
8275, 5291, 271, 1238, 5278, 5337, 1756, 7071, 5344, 5342, 9132
8276, 5689, 5711, 5712, 5693, 5794, 5798, 5797, 10153, 5817, 5818
8277, 1035, 1369, 332, 5833, 1830, 1827, 1828, 10177, 10493, 5870
8278, 3352, 6411, 3016, 6479, 10871, 10174, 4230, 10892, 10856, 10919
8279, 3044, 6243, 3102, 6431, 10087, 10039, 4370, 10620, 10650, 10862
8280, 5271, 279, 1188, 5293, 5363, 1780, 9938, 5366, 5300, 9792
8281, 1293, 37, 795, 6467, 1533, 797, 10924, 10169, 10503, 10925
8282, 3321, 3013, 75, 6440, 3468, 3467, 3463, 10158, 10707, 10926
8283, 1398, 855, 5985, 6452, 10894, 5999, 10880, 10881, 8104, 8482
8284, 856, 3373, 5986, 6451, 10893, 10882, 6005, 10506, 10883, 8483
8285, 5591, 5693, 530, 3384, 10756, 5757, 10842, 10927, 10685, 3701
8286, 6110, 3387, 592, 880, 10714, 3618, 6191, 10688, 10928, 10848
8287, 6257, 1185, 6429, 6485, 10481, 10435, 10704, 10868, 10832, 10874
8288, 5285, 5268, 5260, 6454, 5381, 5464, 5463, 8820, 10018, 10513
8289, 5281, 5264, 5288, 6458, 5467, 5440, 5326, 10160, 10000, 10766
8290, 5967, 5590, 569, 3385, 10738, 10830, 6034, 10663, 10929, 3682
8291, 555, 5829, 879, 3386, 5910, 10758, 10837, 3599, 10665, 10930
8292, 1149, 1087, 1109, 6424, 2483, 1590, 2484, 10045, 10931, 9708
8293, 631, 3273, 641, 6463, 10932, 9167, 4964, 10933, 9848, 9849
8294, 3021, 636, 646, 6447, 10934, 4969, 10516, 8624, 10935, 10518
8295, 1170, 316, 1263, 5696, 1799, 1800, 1802, 10090, 5740, 8621
8296, 5290, 987, 5260, 6454, 10917, 10776, 5322, 10755, 10508, 10513
8297, 5264, 483, 3185, 6368, 5382, 3719, 10020, 10557, 10900, 9518
8298, 1210, 5288, 267, 6458, 10765, 5323, 1744, 10159, 10766, 10936
8299, 795, 785, 1293, 6467, 5537, 9392, 10924, 10925, 10171, 10169
8300, 3135, 3332, 3402, 6443, 4774, 4190, 4771, 8159, 8680, 10340
8301, 1210, 267, 977, 6458, 1744, 1746, 1748, 10159, 10936, 10438
8302, 1356, 1137, 1174, 6377, 2719, 2717, 2720, 10603, 9388, 9962
8303, 1412, 6107, 877, 888, 10612, 9856, 10803, 10613, 10311, 953
8304, 1313, 1352, 1071, 6435, 2406, 2025, 2404, 7966, 8960, 8124
8305, 3326, 61, 3064, 6463, 3423, 3419, 3424, 10937, 10939, 10938
8306, 5972, 5992, 5967, 5991, 6098, 6072, 10093, 6095, 6074, 6071
8307, 1408, 1232, 1260, 6413, 1936, 1996, 2774, 9552, 10415, 9863
8308, 1088, 35, 1350, 6467, 1525, 1527, 1529, 10940, 10942, 10941
8309, 5836, 1126, 336, 1415, 8271, 1839, 5880, 9365, 1847, 1846
8310, 1314, 1396, 1337, 6429, 2850, 2946, 2296, 10433, 10434, 10943
8311, 741, 731, 3318, 6396, 5484, 10181, 9940, 9942, 10124, 7022
8312, 1349, 54, 1087, 6424, 1584, 1586, 1588, 10891, 10944, 10931
8313, 790, 780, 6248, 6406, 5532, 10816, 10427, 10945, 10946, 10545
8314, 402, 3349, 5061, 5066, 3633, 10148, 5152, 5150, 10429, 5154
8315, 1341, 1065, 1414, 6416, 2375, 1898, 2376, 10326, 10412, 9888
8316, 3102, 6243, 3085, 6431, 10039, 10559, 4369, 10862, 10650, 9494
8317, 5585, 1282, 5978, 6448, 10857, 10821, 10622, 10539, 10886, 10824
8318, 478, 3153, 5295, 3051, 3704, 8316, 5303, 3529, 3705, 7682
8319, 5589, 1410, 5598, 5972, 10802, 10623, 5615, 9910, 10624, 10183
8320, 404, 3369, 5055, 5044, 3635, 10658, 5158, 5156, 10402, 5160
8321, 1181, 1334, 1386, 6365, 2834, 2246, 2838, 9944, 9130, 7347
8322, 5600, 1409, 5588, 5689, 10645, 10791, 5634, 10140, 10646, 9900
8323, 1349, 635, 6424, 6429, 10947, 10562, 10891, 10420, 10948, 10861
8324, 1349, 1087, 1296, 6424, 1588, 2485, 2295, 10891, 10931, 10860
8325, 1172, 1266, 1079, 6430, 1616, 2446, 2444, 9201, 9339, 8378
8326, 886, 1411, 5834, 878, 10637, 10638, 10118, 934, 10804, 10005
8327, 181, 5070, 1179, 1079, 5073, 7464, 1645, 1475, 8377, 1647
8328, 1387, 1184, 1335, 6364, 2847, 2843, 2289, 7345, 9982, 7472
8329, 881, 1283, 149, 875, 10834, 1621, 939, 940, 10833, 935
8330, 5254, 5264, 5275, 6458, 5439, 5387, 5437, 9634, 10000, 8322
8331, 791, 801, 6324, 6455, 5544, 10467, 10130, 10131, 10085, 7439
8332, 986, 1374, 1189, 6397, 1659, 1978, 1977, 8843, 9800, 9801
8333, 5272, 478, 3153, 5295, 5367, 3704, 6572, 5369, 5303, 8316
8334, 3136, 3029, 3000, 6369, 4153, 4152, 4154, 9307, 8471, 9162
8335, 3173, 2958, 3368, 6453, 3747, 3938, 3937, 8420, 10309, 9593
8336, 3171, 135, 3404, 873, 3612, 3606, 3613, 6735, 923, 9971
8337, 5975, 5990, 5969, 6402, 6081, 6080, 6020, 10070, 7173, 9054
8338, 1406, 660, 670, 6404, 10328, 4992, 9355, 6630, 10329, 9357
8339, 1195, 1392, 312, 5702, 1721, 1783, 1784, 10700, 9902, 5728
8340, 1238, 989, 270, 5291, 1757, 1753, 1755, 7071, 9875, 5338
8341, 5828, 3010, 3344, 549, 8514, 3805, 8045, 5896, 3804, 3801
8342, 3311, 77, 3376, 6440, 3473, 3469, 3474, 10744, 10950, 10949
8343, 3215, 3090, 3224, 6438, 4590, 4565, 3905, 9744, 9470, 9789
8344, 101, 3320, 3019, 6476, 3543, 3548, 3547, 10951, 10250, 10769
8345, 5060, 5047, 5036, 6371, 5225, 5223, 5148, 7405, 6965, 9907
8346, 5053, 1197, 196, 5065, 7513, 1690, 5131, 5132, 8963, 5127
8347, 696, 3319, 686, 6401, 10231, 9997, 5019, 10233, 7122, 9998
8348, 1179, 5070, 181, 5051, 7464, 5073, 1645, 6610, 5087, 5086
8349, 1196, 152, 885, 1429, 1636, 944, 7706, 1638, 1632, 8904
8350, 11, 1046, 630, 6478, 1451, 10761, 632, 10774, 9123, 10762
8351, 3349, 402, 2961, 5066, 3633, 3629, 3634, 10429, 5150, 9500
8352, 751, 741, 3321, 6440, 5494, 9941, 10952, 10953, 10648, 10158
8353, 796, 3018, 89, 6479, 10778, 3505, 799, 10779, 9220, 10777
8354, 811, 6324, 801, 6455, 9833, 10467, 5554, 9835, 7439, 10085
8355, 3053, 3167, 5069, 416, 3674, 9700, 7010, 3455, 3671, 5082
8356, 3320, 676, 686, 6476, 10954, 5009, 9996, 10250, 10955, 10697
8357, 186, 5048, 5058, 1374, 5097, 5102, 5101, 1658, 10453, 9701
8358, 690, 700, 1359, 6430, 5022, 10902, 10050, 10051, 10872, 8631
8359, 353, 1282, 1370, 6448, 1862, 1865, 1864, 10885, 10886, 10635
8360, 529, 3170, 5703, 3367, 3760, 10652, 5754, 3758, 3696, 10750
8361, 3157, 6396, 6355, 6440, 10805, 9811, 10488, 10781, 10157, 10909
8362, 1001, 1000, 999, 6378, 2046, 2042, 2047, 8850, 8875, 8774
8363, 665, 675, 6364, 6485, 4997, 10208, 10204, 10867, 10956, 10473
8364, 994, 995, 996, 6375, 2016, 2022, 2021, 8565, 9143, 8674
8365, 3369, 5044, 403, 6382, 10402, 5155, 3636, 9301, 9837, 10875
8366, 987, 5290, 265, 1208, 10917, 5321, 1738, 1742, 10754, 1740
8367, 766, 3378, 756, 6411, 10355, 9478, 5509, 10357, 6798, 9479
8368, 1379, 1080, 1103, 6490, 2452, 2419, 2453, 9021, 10354, 9398
8369, 1318, 1182, 1181, 6365, 2835, 2652, 2836, 8702, 10346, 9944
8370, 3078, 3055, 3354, 6486, 4395, 4426, 4428, 8093, 10146, 8094
8371, 3403, 3193, 2954, 6442, 3919, 3918, 3920, 9188, 7234, 10587
8372, 1314, 1049, 1296, 6429, 2293, 2292, 2294, 10433, 10421, 10419
8373, 1137, 1175, 1174, 6377, 2678, 2718, 2717, 9388, 8973, 9962
8374, 1080, 1081, 1063, 6436, 2365, 2364, 2362, 10270, 9499, 9363
8375, 1326, 1264, 1377, 6393, 2932, 2930, 2256, 8152, 10065, 6744
8376, 354, 1091, 5975, 6402, 1867, 9924, 6018, 10866, 10069, 10070
8377, 1248, 1243, 1005, 6380, 2080, 2079, 2068, 8871, 8170, 8822
8378, 2977, 3003, 3178, 6379, 4038, 4040, 4025, 8716, 9211, 10013
8379, 5590, 5967, 5582, 5599, 10738, 10094, 5670, 5637, 10273, 5660
8380, 5829, 870, 879, 889, 10166, 956, 10758, 10236, 909, 912
8381, 49, 1047, 1345, 6485, 1571, 1573, 1569, 10957, 10785, 10472
8382, 5693, 5591, 5581, 5597, 10756, 5666, 10152, 10265, 5656, 5664
8383, 3006, 3212, 3210, 6383, 4095, 4185, 4184, 8897, 8163, 9412
8384, 1184, 1319, 1185, 6364, 2845, 2844, 2669, 9982, 8777, 10474
8385, 635, 6257, 6424, 6429, 10561, 8576, 10562, 10948, 10704, 10861
8386, 3047, 3181, 3276, 6414, 3605, 4383, 4382, 10195, 9640, 9867
8387, 1360, 1286, 1160, 6465, 2504, 2634, 2798, 8607, 8969, 8149
8388, 5054, 5045, 5034, 6398, 5218, 5217, 5120, 10325, 9727, 9995
8389, 185, 5037, 5048, 6397, 5094, 5099, 5098, 10835, 8752, 10730
8390, 5288, 266, 5281, 1210, 5324, 5325, 5326, 10765, 1743, 9681
8391, 3068, 3033, 3067, 6386, 4314, 4213, 4315, 8571, 9149, 9678
8392, 3054, 3334, 701, 5071, 3451, 10898, 10897, 10026, 10958, 5081
8393, 3258, 556, 3337, 5847, 3827, 3573, 3828, 9600, 5864, 9314
8394, 1354, 4, 119, 1108, 1436, 121, 7948, 1438, 1432, 7950
8395, 3330, 836, 85, 3081, 7945, 839, 3497, 3498, 7946, 3491
8396, 3047, 3276, 3343, 6414, 4382, 4385, 4384, 10195, 9867, 9465
8397, 5292, 1076, 1358, 725, 9212, 1556, 10959, 5298, 6682, 9928
8398, 3101, 553, 3390, 5832, 3815, 3822, 3821, 8602, 5904, 10161
8399, 3070, 3129, 3152, 6462, 4497, 4500, 4499, 9332, 10566, 10710
8400, 1270, 1244, 1118, 6388, 2625, 2458, 2626, 10227, 8863, 9050
8401, 5290, 5268, 5281, 6454, 5465, 5466, 5327, 10755, 10018, 10011
8402, 5846, 1283, 339, 1362, 10772, 1852, 5857, 10056, 1853, 1599
8403, 2985, 2987, 2986, 6387, 4077, 4076, 4072, 9027, 8342, 8911
8404, 1019, 1277, 1236, 6384, 2149, 2148, 2147, 8887, 8498, 9066
8405, 3232, 3028, 3246, 6385, 4150, 4289, 4291, 9289, 9291, 8432
8406, 5285, 5260, 5261, 6374, 5463, 5462, 5378, 8819, 10512, 10577
8407, 3311, 771, 77, 6440, 10960, 774, 3473, 10744, 10961, 10950
8408, 103, 3377, 3312, 6476, 3549, 3554, 3553, 10962, 10963, 10798
8409, 103, 3312, 656, 6476, 3553, 10964, 659, 10962, 10798, 10965
8410, 166, 611, 165, 6419, 4934, 4935, 168, 10966, 10580, 10109
8411, 165, 611, 610, 6419, 4935, 613, 4933, 10109, 10580, 10815
8412, 6355, 6396, 751, 6440, 9811, 9812, 9810, 10909, 10157, 10953
8413, 5061, 403, 5044, 6382, 5153, 5155, 5157, 10149, 10875, 9837
8414, 1077, 715, 45, 1335, 8220, 717, 1560, 1563, 7577, 1561
8415, 775, 765, 1041, 6393, 5517, 9959, 10035, 10036, 9961, 7218
8416, 3367, 5595, 5591, 455, 10733, 5655, 10749, 3692, 5651, 5653
8417, 1205, 234, 5592, 6448, 1708, 5620, 8412, 8415, 10967, 8417
8418, 6346, 6401, 676, 6476, 7452, 9739, 9736, 10968, 10252, 10955
8419, 63, 3273, 631, 6463, 3429, 10932, 634, 10649, 9848, 10933
8420, 1268, 1299, 1297, 6306, 2665, 2765, 2941, 10455, 9909, 6954
8421, 354, 1129, 1091, 6402, 1869, 1868, 1867, 10866, 8541, 10069
8422, 5254, 5262, 5282, 6413, 5436, 5438, 5333, 9633, 10080, 10417
8423, 661, 3381, 671, 6410, 10450, 9614, 4994, 10452, 6983, 9615
8424, 611, 6419, 166, 6480, 10580, 10966, 4934, 10876, 10877, 10969
8425, 1337, 1402, 51, 6485, 1579, 1575, 1577, 10970, 10972, 10971
8426, 5034, 5056, 5041, 6373, 5215, 5178, 5214, 9994, 8203, 9269
8427, 3227, 2976, 2975, 6449, 4026, 4022, 4027, 9669, 8826, 9055
8428, 1305, 32, 1106, 840, 1519, 1516, 1520, 10086, 842, 9778
8429, 6118, 594, 3397, 6126, 6193, 3900, 9190, 6196, 6142, 9189
8430, 846, 5687, 845, 6408, 5781, 5780, 848, 7423, 9298, 7426
8431, 377, 1422, 6125, 6117, 1924, 9824, 6135, 6167, 9825, 6169
8432, 3267, 3269, 3240, 6304, 4745, 4635, 4908, 7038, 8733, 10485
8433, 5067, 5038, 5040, 6391, 5231, 5230, 5166, 10523, 9730, 10411
8434, 5052, 5069, 3167, 416, 5194, 9700, 9258, 5192, 5082, 3671
8435, 2979, 2976, 3227, 6449, 4034, 4026, 4035, 8317, 8826, 9669
8436, 1158, 1389, 1157, 6469, 2790, 2789, 2781, 8666, 8664, 10288
8437, 13, 1044, 1420, 6478, 1459, 1461, 1457, 10973, 10910, 10974
8438, 3026, 2960, 3010, 6459, 3947, 3803, 3948, 9088, 9758, 8309
8439, 5055, 5033, 5044, 6442, 5210, 5212, 5160, 10588, 9770, 9838
8440, 5040, 5033, 5055, 6442, 5209, 5210, 5163, 10369, 9770, 10588
8441, 5255, 1285, 272, 5289, 7573, 1761, 5346, 5347, 9798, 5340
8442, 883, 876, 872, 6414, 964, 963, 921, 10196, 9836, 10825
8443, 151, 876, 1429, 1072, 941, 9335, 1631, 1629, 9334, 1633
8444, 91, 3394, 3016, 6479, 3511, 3516, 3515, 10975, 10976, 10919
8445, 3156, 3361, 3309, 6396, 4812, 4222, 4809, 10533, 7023, 8489
8446, 1211, 1103, 1340, 6490, 2561, 2563, 2562, 10722, 9398, 10243
8447, 3371, 6346, 3289, 6476, 10921, 9059, 4826, 10800, 10968, 10799
8448, 3156, 3155, 3098, 6441, 4624, 3583, 4625, 10741, 10389, 10556
8449, 1077, 1183, 1382, 6468, 2434, 2437, 2436, 8221, 9110, 8956
8450, 1038, 1401, 1395, 6407, 1496, 2245, 2244, 10500, 10977, 10125
8451, 3226, 3134, 3402, 6444, 4772, 4770, 4189, 10121, 8793, 10341
8452, 134, 3047, 3404, 883, 3603, 3608, 3607, 920, 10194, 10193
8453, 5070, 1079, 700, 6430, 8377, 10903, 5075, 7465, 8378, 10872
8454, 5264, 5268, 483, 6368, 5384, 5380, 5382, 10557, 10524, 10900
8455, 3160, 6401, 6346, 6476, 9985, 7452, 9984, 10810, 10252, 10968
8456, 3062, 3124, 3084, 6471, 4459, 4458, 3565, 10978, 10912, 10979
8457, 1021, 1338, 1023, 6475, 2157, 2156, 2144, 9239, 10514, 9329
8458, 151, 876, 885, 1429, 941, 946, 945, 1631, 9335, 8904
8459, 656, 3312, 646, 6476, 10964, 10843, 4979, 10965, 10798, 10980
8460, 884, 3366, 136, 880, 9041, 3609, 926, 930, 10784, 928
8461, 3274, 3397, 594, 6126, 3901, 3900, 3897, 9282, 9189, 6142
8462, 3142, 3143, 3108, 6477, 4678, 4677, 4672, 8212, 9604, 9717
8463, 5038, 5067, 5043, 6391, 5231, 5169, 5232, 9730, 10523, 10321
8464, 3105, 3107, 3106, 6488, 4664, 4663, 4509, 8686, 9662, 9509
8465, 5841, 556, 3258, 5847, 5913, 3827, 9599, 5916, 5864, 9600
8466, 1398, 59, 5985, 855, 1605, 5997, 10880, 10894, 857, 5999
8467, 3373, 111, 856, 5986, 3581, 859, 10893, 10882, 6002, 6005
8468, 1197, 988, 196, 5065, 1692, 1688, 1690, 8963, 10044, 5127
8469, 3234, 2983, 2981, 6392, 4058, 4057, 4059, 9281, 8501, 9404
8470, 3362, 3310, 3159, 6401, 4250, 4818, 4821, 7120, 9075, 9702
8471, 105, 636, 3021, 6447, 639, 10934, 3555, 10674, 10935, 8624
8472, 455, 5591, 3367, 530, 5653, 10749, 3692, 3700, 10842, 3699
8473, 1189, 1417, 986, 6397, 1980, 1979, 1977, 9801, 10066, 8843
8474, 3015, 3270, 3323, 6455, 4226, 4227, 3480, 10863, 7870, 8984
8475, 675, 1345, 685, 6485, 10981, 10338, 5007, 10956, 10472, 10859
8476, 3349, 3164, 3165, 6382, 3952, 4714, 4828, 9885, 9884, 9423
8477, 6115, 1196, 374, 1391, 6691, 1915, 6160, 9965, 1637, 1914
8478, 3015, 3311, 3290, 6455, 3477, 4228, 4225, 10863, 10887, 10854
8479, 1163, 1209, 1117, 6428, 2624, 1970, 2623, 9672, 9024, 8694
8480, 107, 3062, 108, 6447, 3561, 3564, 527, 10982, 10984, 10983
8481, 3165, 3369, 3349, 6382, 4831, 3637, 4828, 9423, 9301, 9885
8482, 5070, 700, 5031, 6430, 5075, 5195, 5197, 7465, 10872, 8933
8483, 1283, 5846, 339, 5840, 10772, 5857, 1852, 10771, 5891, 5889
8484, 6125, 1299, 1422, 377, 9908, 1926, 9824, 6135, 1923, 1924
8485, 5061, 5048, 5066, 6397, 5241, 5228, 5154, 10150, 10730, 9501
8486, 740, 1343, 730, 6365, 10312, 10476, 5482, 10314, 7348, 10477
8487, 2972, 2970, 2971, 6472, 4001, 3996, 4002, 9714, 10205, 9025
8488, 1311, 1228, 1113, 6381, 2605, 2604, 2597, 9030, 9243, 9550
8489, 3168, 3328, 3169, 6466, 4511, 4835, 4767, 9085, 9664, 9572
8490, 3157, 3293, 3156, 6396, 4811, 4810, 4626, 10805, 8671, 10533
8491, 870, 125, 126, 6482, 906, 128, 907, 10302, 9735, 10407
8492, 261, 1076, 5292, 1178, 1555, 9212, 5296, 1728, 1730, 9968
8493, 112, 861, 3100, 6126, 864, 9380, 3588, 6141, 6144, 8981
8494, 1125, 60, 6125, 860, 1612, 6136, 9842, 9828, 862, 6138
8495, 1079, 1327, 1359, 6430, 2447, 2277, 1476, 8378, 8630, 8631
8496, 567, 5984, 5982, 3391, 6000, 6033, 6032, 3832, 10681, 10775
8497, 3302, 3054, 3334, 6446, 4423, 3451, 4265, 10431, 10391, 10459
8498, 685, 1344, 695, 6364, 10337, 10483, 5017, 10339, 7343, 10484
8499, 3154, 398, 3054, 5071, 3621, 3449, 3622, 10001, 5080, 10026
8500, 3370, 3157, 6355, 6440, 4816, 10488, 10858, 10746, 10781, 10909
8501, 3191, 3222, 3202, 6405, 4849, 4848, 4850, 10387, 9630, 9300
8502, 989, 5258, 270, 5291, 10497, 5334, 1753, 9875, 5339, 5338
8503, 377, 1289, 1422, 6117, 1918, 1925, 1924, 6167, 10111, 9825
8504, 3388, 5704, 5697, 534, 7230, 5771, 9786, 3778, 5769, 5770
8505, 400, 5060, 5036, 3177, 5146, 5148, 5144, 3627, 7672, 10575
8506, 1205, 1282, 234, 6448, 1710, 1704, 1708, 8415, 10886, 10967
8507, 1290, 350, 1416, 5981, 1855, 1856, 1858, 9818, 6006, 10817
8508, 1398, 1147, 1385, 6452, 1888, 2755, 2756, 10881, 9056, 9377
8509, 3373, 3360, 3122, 6451, 4731, 4730, 3863, 10883, 9375, 9057
8510, 6118, 594, 3264, 3397, 6193, 3894, 10137, 9190, 3900, 3899
8511, 3228, 3205, 3206, 6403, 4160, 4136, 4890, 9569, 10410, 9304
8512, 592, 136, 3366, 880, 3617, 3609, 3616, 10848, 928, 10784
8513, 3293, 3370, 3013, 6440, 4219, 4218, 4217, 10156, 10746, 10707
8514, 5982, 3265, 567, 3391, 9305, 3829, 6032, 10775, 3833, 3832
8515, 3201, 3198, 3262, 6433, 4878, 4871, 4879, 10081, 8944, 9597
8516, 5983, 1416, 350, 5981, 9608, 1856, 5995, 6008, 10817, 6006
8517, 875, 872, 881, 6367, 960, 961, 940, 9951, 10570, 9762
8518, 1268, 1425, 1298, 6478, 2942, 2283, 2943, 10846, 9122, 9743
8519, 3321, 75, 751, 6440, 3463, 754, 10952, 10158, 10926, 10953
8520, 3401, 3240, 3268, 6479, 4909, 4911, 4243, 9221, 10855, 9765
8521, 826, 815, 825, 6422, 5570, 5567, 828, 10201, 10628, 10985
8522, 816, 815, 826, 6422, 818, 5570, 5569, 10838, 10628, 10201
8523, 3294, 3159, 3160, 6401, 4819, 4643, 4820, 8898, 9702, 9985
8524, 101, 676, 3320, 6476, 679, 10954, 3543, 10951, 10955, 10250
8525, 3054, 5071, 701, 6446, 10026, 5081, 10897, 10391, 10392, 10899
8526, 3338, 3049, 3078, 6486, 4393, 4394, 4396, 10716, 10210, 8093
8527, 5831, 336, 1288, 1415, 5882, 1845, 10197, 9072, 1846, 1848
8528, 3370, 3311, 3376, 6440, 4922, 3474, 4220, 10746, 10744, 10949
8529, 553, 3263, 3390, 5835, 3819, 3823, 3822, 5908, 10735, 10319
8530, 1192, 199, 1078, 5072, 1697, 1479, 1699, 10053, 5077, 7535
8531, 265, 5260, 5290, 987, 5317, 5322, 5321, 1738, 10776, 10917
8532, 5295, 726, 96, 3333, 5304, 729, 5302, 10916, 9752, 3526
8533, 1359, 18, 5070, 700, 1472, 5074, 10915, 10902, 702, 5075
8534, 5591, 5693, 3384, 5597, 10756, 10685, 10927, 5656, 10265, 10686
8535, 5967, 5590, 3385, 5599, 10738, 10929, 10663, 10273, 5637, 10662
8536, 3386, 5829, 879, 889, 10665, 10758, 10930, 10664, 10236, 912
8537, 1226, 1308, 1287, 6400, 2914, 2165, 2904, 9369, 9230, 9607
8538, 1332, 1105, 1202, 6371, 2575, 1653, 2576, 9668, 7656, 6966
8539, 1040, 26, 27, 6406, 1500, 227, 1501, 10829, 10986, 10828
8540, 5048, 5044, 5058, 6382, 5240, 5213, 5102, 10454, 9837, 8230
8541, 571, 5976, 3104, 3345, 6040, 6869, 3843, 3839, 9231, 3845
8542, 1129, 354, 1370, 5969, 1869, 1863, 1870, 9053, 6016, 9926
8543, 825, 6422, 815, 6481, 10985, 10628, 5567, 10987, 9561, 10907
8544, 5966, 5982, 5984, 6324, 6068, 6033, 6063, 10542, 8297, 10682
8545, 3171, 591, 3366, 6116, 3891, 3889, 3611, 6736, 6188, 9040
8546, 165, 610, 6306, 6419, 4933, 10568, 9157, 10109, 10815, 8513
8547, 2993, 2996, 2995, 6420, 4117, 4116, 4104, 9262, 9047, 9297
8548, 781, 3311, 78, 6455, 10988, 3472, 784, 10818, 10887, 10888
8549, 5708, 5701, 5687, 6427, 5779, 5790, 5786, 9796, 8654, 6706
8550, 887, 3387, 6110, 880, 10712, 10714, 10381, 931, 10928, 10688
8551, 5034, 5041, 5063, 6373, 5214, 5216, 5123, 9994, 9269, 9178
8552, 1396, 1319, 1047, 6485, 2286, 2284, 2287, 10831, 10471, 10785
8553, 5274, 5261, 5256, 6417, 5375, 5446, 5447, 9009, 10605, 10386
8554, 5292, 1358, 44, 725, 10959, 1552, 5297, 5298, 9928, 727
8555, 70, 701, 3334, 5071, 704, 10898, 3446, 5079, 5081, 10958
8556, 651, 3022, 661, 6410, 10212, 10451, 4984, 9652, 8162, 10452
8557, 3062, 6447, 3124, 6471, 10984, 10510, 4459, 10978, 10989, 10912
8558, 3323, 791, 79, 6455, 10990, 794, 3479, 8984, 10131, 10864
8559, 3017, 95, 736, 3333, 3523, 739, 7800, 3528, 3527, 7802
8560, 136, 592, 3387, 880, 3617, 3618, 3615, 928, 10848, 10928
8561, 530, 455, 5591, 3384, 3700, 5653, 10842, 3701, 3698, 10927
8562, 760, 6248, 770, 6407, 10796, 10795, 5512, 10991, 10878, 10992
8563, 1396, 1402, 1337, 6485, 2288, 1579, 2946, 10831, 10972, 10970
8564, 1349, 53, 635, 6429, 1583, 637, 10947, 10420, 10807, 10948
8565, 5590, 450, 569, 3385, 5636, 3681, 10830, 10929, 3675, 3682
8566, 555, 879, 131, 3386, 10837, 911, 3598, 3599, 10930, 3592
8567, 3057, 3058, 3074, 6389, 4429, 4435, 4434, 9450, 9693, 7768
8568, 3225, 3226, 3007, 6444, 4187, 4186, 4005, 9892, 10121, 9244
8569, 5050, 398, 3154, 5071, 5140, 3621, 7803, 5142, 5080, 10001
8570, 3323, 801, 791, 6455, 10084, 5544, 10990, 8984, 10085, 10131
8571, 1348, 27, 790, 6406, 1503, 792, 10993, 8550, 10828, 10945
8572, 1178, 5292, 261, 5270, 9968, 5296, 1728, 7865, 5310, 5309
8573, 3185, 3183, 3315, 6368, 3720, 4840, 4839, 9518, 9306, 9425
8574, 412, 5068, 3176, 6464, 5180, 9935, 3659, 10994, 9936, 7989
8575, 1321, 1369, 1130, 6376, 2473, 2230, 2690, 9080, 10543, 9326
8576, 3371, 3019, 3294, 6476, 4246, 4245, 4247, 10800, 10769, 10251
8577, 1315, 1295, 1273, 6406, 2251, 2767, 2839, 10292, 7681, 10163
8578, 2970, 2968, 2969, 6470, 3991, 3986, 3992, 10185, 9447, 7918
8579, 3083, 3264, 3125, 6480, 4561, 4560, 4562, 9775, 9776, 10554
8580, 1291, 1106, 1152, 6481, 2581, 2580, 2582, 9559, 9779, 10555
8581, 3200, 3198, 3201, 6433, 4876, 4878, 4877, 9645, 8944, 10081
8582, 3237, 3255, 3091, 6425, 4594, 4593, 4592, 7932, 8589, 9544
8583, 800, 1348, 790, 6406, 10104, 10993, 5542, 10106, 8550, 10945
8584, 1074, 1080, 1063, 6436, 2363, 2362, 2357, 8965, 10270, 9363
8585, 5260, 5280, 5261, 6374, 5319, 5448, 5462, 10512, 10223, 10577
8586, 1181, 1386, 1318, 6365, 2838, 2837, 2836, 9944, 7347, 8702
8587, 3347, 588, 2956, 6121, 3876, 3874, 3877, 9483, 6177, 8534
8588, 5584, 454, 3170, 3365, 5648, 3695, 10879, 10460, 3689, 3694
8589, 5712, 5703, 5702, 6409, 5819, 5793, 5796, 10397, 10398, 10701
8590, 1031, 1237, 1013, 6487, 2120, 2119, 2108, 9248, 8669, 8358
8591, 3049, 3338, 3050, 6457, 4393, 4392, 4335, 10764, 10715, 10310
8592, 5059, 5036, 5047, 6371, 5224, 5223, 5093, 7415, 9907, 6965
8593, 3133, 3182, 3282, 6439, 4769, 4165, 4768, 9675, 9287, 10582
8594, 1387, 1319, 1184, 6364, 2846, 2845, 2847, 7345, 8777, 9982
8595, 1040, 26, 6406, 6407, 1500, 10986, 10829, 10904, 10905, 10643
8596, 2982, 3218, 2980, 6483, 4054, 4053, 4051, 8907, 8776, 9179
8597, 987, 1208, 1322, 6454, 1742, 1987, 1986, 10508, 10012, 9383
8598, 701, 691, 3334, 6446, 5024, 10719, 10898, 10899, 10721, 10459
8599, 3278, 831, 83, 3082, 9657, 834, 3489, 3490, 8099, 3485
8600, 1302, 1107, 31, 830, 1515, 1511, 1513, 9918, 9992, 832
8601, 1304, 5, 125, 1109, 1441, 127, 9659, 1443, 1440, 9660
8602, 1040, 1295, 1315, 6406, 2249, 2251, 2250, 10829, 7681, 10292
8603, 13, 650, 1044, 6478, 652, 10995, 1459, 10973, 10996, 10910
8604, 3371, 3160, 6346, 6476, 4825, 9984, 10921, 10800, 10810, 10968
8605, 1122, 1085, 1059, 6395, 2344, 2343, 2345, 9804, 9674, 9415
8606, 91, 3016, 776, 6479, 3515, 10997, 779, 10975, 10919, 10998
8607, 3143, 3339, 3162, 6477, 4795, 4794, 4680, 9604, 9344, 9401
8608, 5072, 1192, 199, 5049, 10053, 1697, 5077, 5139, 9367, 5136
8609, 532, 3266, 5698, 3396, 3763, 9953, 5759, 3771, 3770, 9547
8610, 3371, 3312, 3377, 6476, 4921, 3554, 4248, 10800, 10798, 10963
8611, 1195, 1390, 237, 5596, 1720, 1715, 1719, 10671, 10371, 5625
8612, 615, 616, 606, 6482, 618, 4939, 4940, 10783, 10809, 10999
8613, 606, 605, 615, 6482, 608, 4937, 4940, 10999, 11000, 10783
8614, 1054, 1052, 1323, 6423, 2177, 2310, 2309, 8958, 8437, 9265
8615, 1191, 1312, 1258, 6445, 2858, 2301, 2743, 9164, 9492, 9567
8616, 1129, 1342, 1091, 6402, 2501, 2500, 1868, 8541, 9896, 10069
8617, 1365, 5844, 331, 1090, 7200, 5856, 1824, 1825, 7201, 1596
8618, 750, 760, 1038, 6407, 5502, 11001, 10823, 11002, 10991, 10500
8619, 49, 1345, 675, 6485, 1569, 10981, 677, 10957, 10472, 10956
8620, 78, 3015, 79, 6455, 3476, 3475, 444, 10888, 10863, 10864
8621, 1210, 977, 1211, 6458, 1748, 1933, 1932, 10159, 10438, 10640
8622, 816, 826, 6304, 6422, 5569, 9219, 10590, 10838, 10201, 8567
8623, 3169, 3328, 3313, 6466, 4835, 4777, 4141, 9572, 9664, 9308
8624, 5845, 3065, 3340, 548, 9852, 3800, 8689, 5861, 3572, 3798
8625, 873, 134, 3404, 883, 922, 3607, 9971, 924, 920, 10193
8626, 1038, 760, 24, 6407, 11001, 762, 1492, 10500, 10991, 11003
8627, 1291, 1421, 315, 5699, 1796, 1795, 1787, 10849, 8905, 5735
8628, 1401, 1038, 24, 6407, 1496, 1492, 1494, 10977, 10500, 11003
8629, 3, 3083, 3329, 6480, 3406, 3413, 3412, 11004, 9775, 11005
8630, 1355, 1106, 33, 6481, 1523, 1517, 1521, 11006, 9779, 11007
8631, 3176, 2963, 412, 6464, 3664, 3663, 3659, 7989, 9945, 10994
8632, 3196, 3194, 3195, 6399, 4858, 4855, 4859, 9455, 10298, 10315
8633, 3064, 6463, 61, 6480, 10938, 10939, 3419, 11008, 10661, 11009
8634, 5281, 5268, 5264, 6368, 5466, 5384, 5467, 9683, 10524, 10557
8635, 3036, 3004, 3229, 6426, 4174, 4108, 4175, 9930, 9043, 10550
8636, 3302, 3241, 3054, 6446, 4422, 4421, 4423, 10431, 9235, 10391
8637, 1088, 35, 6467, 6481, 1525, 10942, 10940, 11010, 11011, 10679
8638, 5587, 1390, 236, 1073, 10349, 1714, 5622, 8873, 1716, 1712
8639, 5596, 1390, 236, 5587, 10371, 1714, 5626, 5627, 10349, 5622
8640, 5042, 5039, 5065, 6464, 5234, 5235, 5129, 9185, 9946, 10401
8641, 6109, 6131, 6112, 6489, 6229, 6228, 6153, 9311, 9874, 10619
8642, 3069, 3011, 3032, 6427, 4206, 3793, 4207, 7943, 8653, 10241
8643, 45, 715, 1077, 5293, 717, 8220, 1560, 5299, 5301, 9102
8644, 631, 641, 6307, 6463, 4964, 9847, 10599, 10933, 9849, 9850
8645, 3124, 6447, 6329, 6471, 10510, 10669, 10840, 10912, 10989, 10617
8646, 1045, 17, 1359, 690, 1469, 1471, 1473, 10049, 692, 10050
8647, 43, 1358, 1042, 735, 1551, 1553, 1549, 737, 8320, 8321
8648, 69, 691, 3023, 3334, 694, 10720, 3443, 3447, 10719, 3448
8649, 1356, 1148, 1269, 6460, 2325, 2759, 2721, 10546, 9378, 9511
8650, 795, 6305, 785, 6467, 10607, 9819, 5537, 10925, 10676, 10171
8651, 635, 645, 6257, 6429, 4967, 10869, 10561, 10948, 11012, 10704
8652, 120, 114, 3083, 6480, 868, 9773, 11013, 11014, 9777, 9775
8653, 840, 835, 1106, 6481, 5683, 11015, 9778, 9560, 11016, 9779
8654, 3326, 3064, 3272, 6463, 3424, 4466, 4267, 10937, 10938, 10191
8655, 1021, 1023, 1018, 6475, 2144, 2143, 2141, 9239, 9329, 9205
8656, 1292, 1088, 1350, 6467, 2489, 1529, 2265, 10198, 10940, 10941
8657, 1395, 1336, 1315, 6407, 2947, 2253, 2841, 10125, 10906, 10644
8658, 5708, 846, 109, 3336, 5727, 849, 5724, 10691, 10690, 3569
8659, 1361, 57, 5709, 845, 1593, 5719, 8520, 10689, 847, 5721
8660, 5842, 549, 548, 2960, 5892, 558, 5893, 9757, 3797, 3796
8661, 985, 332, 331, 5843, 1821, 341, 1822, 8294, 5868, 5867
8662, 635, 625, 1349, 6424, 4957, 11017, 10947, 10562, 10592, 10891
8663, 5698, 5711, 5710, 6422, 5816, 5825, 5809, 9883, 9977, 10347
8664, 3106, 3292, 3285, 6450, 4669, 4671, 4510, 9294, 10295, 6793
8665, 5707, 3113, 3170, 529, 7723, 3759, 10060, 5722, 3567, 3760
8666, 412, 2963, 5039, 6464, 3663, 9750, 5182, 10994, 9945, 9946
8667, 109, 846, 5707, 3113, 849, 5726, 5723, 3566, 7421, 7723
8668, 6123, 369, 1173, 1172, 6134, 1891, 8985, 9046, 1610, 1892
8669, 586, 3147, 6124, 3148, 3586, 9227, 6139, 3867, 3866, 8990
8670, 1378, 1328, 1267, 6404, 2271, 2940, 2938, 10870, 6628, 10003
8671, 1138, 1195, 312, 5706, 1785, 1784, 1591, 7808, 10075, 5717
8672, 5699, 5710, 5711, 6422, 5821, 5825, 5795, 9975, 10347, 9977
8673, 320, 319, 1036, 5700, 329, 1814, 1813, 5750, 5749, 6979
8674, 1044, 650, 660, 6478, 10995, 4982, 10327, 10910, 10996, 10911
8675, 3239, 3301, 3352, 6411, 4907, 4229, 4906, 10269, 6800, 10871
8676, 776, 3016, 766, 6479, 10997, 10356, 5519, 10998, 10919, 10920
8677, 605, 125, 6424, 6482, 4928, 10276, 10923, 11000, 9735, 8579
8678, 5706, 57, 1138, 845, 5716, 1592, 7808, 5720, 847, 7425
8679, 3388, 3039, 5704, 535, 3787, 6922, 7230, 3779, 3785, 5768
8680, 3152, 3291, 3179, 6415, 4752, 4808, 4688, 10709, 10147, 9722
8681, 5289, 5265, 5255, 6418, 5445, 5444, 5347, 9799, 10812, 7575
8682, 453, 5594, 3048, 3365, 5645, 7075, 3686, 3690, 9589, 3691
8683, 3054, 70, 3334, 5071, 3450, 3446, 3451, 10026, 5079, 10958
8684, 5260, 5268, 5290, 6454, 5464, 5465, 5322, 10513, 10018, 10755
8685, 5287, 5279, 5259, 6453, 5411, 5461, 5459, 10308, 8421, 9915
8686, 1076, 1358, 44, 5292, 1556, 1552, 1554, 9212, 10959, 5297
8687, 575, 3373, 3122, 5986, 3580, 3863, 3862, 6003, 10882, 7597
8688, 5593, 5583, 5585, 6448, 5643, 5671, 5673, 9618, 9917, 10539
8689, 5986, 5965, 856, 6451, 6062, 6057, 6005, 8483, 8484, 10506
8690, 855, 5965, 5985, 6452, 6056, 6060, 5999, 8104, 8481, 8482
8691, 537, 5701, 3011, 536, 5776, 8652, 3789, 546, 5777, 3788
8692, 1079, 18, 5070, 1359, 1474, 5074, 8377, 1476, 1472, 10915
8693, 3219, 3229, 3245, 6484, 4331, 4903, 4601, 9632, 10670, 9250
8694, 5985, 1398, 1147, 358, 10880, 1888, 7593, 5996, 1606, 1886
8695, 3051, 5295, 96, 3333, 7682, 5302, 3530, 3531, 10916, 3526
8696, 5261, 481, 3174, 480, 5374, 3709, 10576, 5373, 500, 3710
8697, 5048, 5061, 5044, 6382, 5241, 5157, 5240, 10454, 10149, 9837
8698, 3290, 6440, 6355, 6455, 10745, 10909, 10763, 10854, 10901, 10132
8699, 3375, 590, 3149, 6132, 3880, 3886, 3888, 9562, 6179, 8144
8700, 3045, 3044, 3085, 6431, 4288, 4368, 4367, 9273, 10620, 9494
8701, 3145, 533, 5714, 3238, 3773, 5766, 9841, 3777, 3776, 8182
8702, 1049, 1314, 1337, 6429, 2293, 2296, 1582, 10421, 10433, 10943
8703, 665, 6257, 655, 6485, 10203, 10786, 4987, 10867, 10868, 11018
8704, 3205, 3001, 2989, 6434, 4100, 4099, 4088, 10647, 9402, 9268
8705, 1293, 37, 38, 795, 1533, 254, 1534, 10924, 797, 5536
8706, 5688, 5702, 5703, 6409, 5791, 5793, 5792, 10192, 10701, 10398
8707, 575, 574, 5980, 3042, 584, 6053, 6052, 3857, 3856, 7844
8708, 3077, 2960, 3026, 6459, 3949, 3947, 3950, 8643, 9758, 9088
8709, 5288, 5264, 5254, 6458, 5440, 5439, 5330, 10766, 10000, 9634
8710, 1286, 1342, 1120, 6456, 2503, 2635, 2630, 8968, 10101, 9140
8711, 3236, 3090, 3215, 6438, 4589, 4590, 4591, 9873, 9470, 9744
8712, 1296, 1087, 1149, 6424, 2485, 2483, 2486, 10860, 10931, 10045
8713, 3353, 3242, 3303, 6410, 4914, 4915, 4257, 6545, 10515, 6985
8714, 67, 681, 3380, 68, 5003, 9783, 3441, 395, 684, 3440
8715, 1405, 15, 16, 670, 1465, 178, 1466, 9356, 672, 5001
8716, 3312, 104, 103, 656, 3552, 523, 3553, 10964, 4978, 659
8717, 771, 77, 78, 3311, 774, 443, 5523, 10960, 3473, 3472
8718, 1067, 358, 357, 5979, 1881, 367, 1882, 7881, 6028, 6027
8719, 3271, 3124, 3062, 6447, 4460, 4459, 4461, 8625, 10510, 10984
8720, 412, 5039, 5068, 6464, 5182, 5184, 5180, 10994, 9946, 9936
8721, 453, 5584, 5594, 3365, 5647, 5649, 5645, 3690, 10460, 9589
8722, 6129, 6117, 6118, 6419, 6219, 6209, 6235, 9921, 9865, 10443
8723, 120, 6419, 114, 6480, 11019, 10913, 868, 11014, 10877, 9777
8724, 6105, 6118, 6117, 6419, 6210, 6209, 6208, 10299, 10443, 9865
8725, 1288, 336, 5831, 337, 1845, 5882, 10197, 1844, 346, 5883
8726, 554, 3263, 553, 5835, 3820, 3819, 563, 5907, 10735, 5908
8727, 3071, 3031, 3230, 6473, 4303, 4305, 4304, 9113, 6970, 7446
8728, 1096, 1255, 1056, 6474, 2330, 2329, 2327, 8112, 8901, 6896
8729, 10, 11, 1046, 630, 173, 1451, 1450, 4951, 632, 10761
8730, 796, 88, 89, 3018, 5548, 470, 799, 10778, 3506, 3505
8731, 93, 94, 756, 3379, 475, 5498, 759, 3521, 3520, 9477
8732, 1404, 41, 42, 745, 1545, 258, 1546, 7997, 5496, 747
8733, 6257, 6429, 655, 6485, 10704, 11020, 10786, 10868, 10874, 11018
8734, 1110, 1069, 1070, 6432, 2392, 2312, 2393, 9831, 10705, 9832
8735, 5265, 489, 2951, 488, 5398, 3733, 10271, 5397, 508, 3734
8736, 5984, 856, 5966, 6441, 6004, 6058, 6063, 10826, 10490, 9407
8737, 3183, 483, 482, 5268, 3715, 502, 3716, 10016, 5380, 5379
8738, 104, 636, 3021, 105, 4968, 10934, 3556, 524, 639, 3555
8739, 840, 6422, 835, 6481, 9557, 11021, 5683, 9560, 9561, 11016
8740, 3361, 3156, 3293, 6396, 4812, 4810, 4813, 7023, 10533, 8671
8741, 1361, 320, 1057, 5709, 1594, 1818, 1820, 8520, 5718, 6662
8742, 3032, 3336, 5708, 537, 3795, 10691, 10895, 3794, 3568, 5725
8743, 651, 64, 65, 3395, 4973, 392, 654, 10211, 3432, 3431
8744, 38, 39, 1419, 775, 255, 1537, 1536, 5526, 777, 10034
8745, 3265, 568, 5982, 567, 3830, 6031, 9305, 3829, 577, 6032
8746, 1406, 14, 15, 670, 1462, 177, 1463, 9355, 4991, 672
8747, 3280, 889, 126, 6471, 10237, 899, 11022, 10254, 9986, 10406
8748, 350, 1290, 351, 5981, 1855, 1854, 360, 6006, 9818, 6007
8749, 92, 756, 3378, 93, 5508, 9478, 3518, 474, 759, 3517
8750, 3, 120, 3083, 6480, 123, 11013, 3406, 11004, 11014, 9775
8751, 1106, 835, 33, 6481, 11015, 837, 1517, 9779, 11016, 11007
8752, 272, 273, 1285, 5255, 292, 1762, 1761, 5346, 5345, 7573
8753, 488, 3213, 5267, 487, 3730, 8461, 5395, 507, 3731, 5394
8754, 1378, 1420, 1044, 6478, 2273, 1461, 2270, 10889, 10974, 10910
8755, 1349, 625, 54, 6424, 11017, 627, 1584, 10891, 10592, 10944
8756, 3352, 3016, 3394, 6479, 4230, 3516, 4233, 10892, 10919, 10976
8757, 621, 6307, 611, 6463, 10724, 10578, 4944, 11023, 9850, 10914
8758, 805, 815, 6305, 6467, 5557, 10626, 10740, 11024, 10918, 10676
8759, 5592, 234, 5585, 6448, 5620, 5616, 5621, 8417, 10967, 10539
8760, 1327, 1079, 1266, 6430, 2447, 2446, 2448, 8630, 8378, 9339
8761, 1282, 5585, 234, 6448, 10857, 5616, 1704, 10886, 10539, 10967
8762, 3294, 3362, 3159, 6401, 4822, 4821, 4819, 8898, 7120, 9702
8763, 676, 100, 101, 3320, 5008, 520, 679, 10954, 3544, 3543
8764, 675, 49, 48, 1345, 677, 303, 5006, 10981, 1569, 1568
8765, 74, 751, 3321, 75, 5493, 10952, 3464, 440, 754, 3463
8766, 1346, 22, 23, 750, 1488, 223, 1489, 10822, 5491, 752
8767, 1356, 1269, 1137, 6460, 2721, 2498, 2719, 10546, 9511, 10218
8768, 400, 5036, 399, 3080, 5144, 5143, 419, 3623, 9906, 3624
8769, 1397, 334, 5830, 335, 1835, 5876, 10358, 1834, 344, 5877
8770, 552, 3372, 551, 5837, 3810, 3809, 561, 5901, 9039, 5902
8771, 3264, 594, 6118, 593, 3894, 6193, 10137, 3893, 603, 6194
8772, 3324, 3271, 3062, 6447, 4255, 4461, 3563, 10675, 8625, 10984
8773, 5260, 265, 264, 987, 5317, 284, 5318, 10776, 1738, 1737
8774, 641, 63, 3273, 631, 4963, 3429, 9167, 4964, 634, 10932
8775, 63, 641, 3273, 64, 4963, 9167, 3429, 391, 644, 3428
8776, 795, 38, 1293, 785, 5536, 1534, 10924, 5537, 787, 9392
8777, 376, 1289, 377, 6117, 1919, 1918, 386, 6166, 10111, 6167
8778, 5836, 1126, 335, 336, 8271, 1840, 5879, 5880, 1839, 345
8779, 3270, 3290, 3248, 6455, 4224, 4815, 4741, 7870, 10854, 10351
8780, 5254, 268, 267, 977, 5328, 287, 5329, 10437, 1747, 1746
8781, 1038, 23, 24, 750, 1491, 224, 1492, 10823, 752, 5501
8782, 1348, 27, 28, 790, 1503, 228, 1504, 10993, 792, 5541
8783, 791, 79, 80, 3323, 794, 445, 5543, 10990, 3479, 3478
8784, 54, 53, 635, 1349, 308, 637, 4956, 1584, 1583, 10947
8785, 371, 991, 6112, 370, 1894, 10279, 6149, 380, 1895, 6148
8786, 408, 2953, 5043, 407, 3647, 8834, 5168, 427, 3648, 5167
8787, 3124, 3390, 3263, 6471, 4737, 3823, 4564, 10912, 10616, 10736
8788, 270, 269, 5258, 989, 289, 5335, 5334, 1753, 1752, 10497
8789, 2957, 5974, 572, 573, 7834, 6047, 3846, 3847, 6046, 582
8790, 355, 982, 356, 5970, 1872, 1871, 365, 6021, 7840, 6022
8791, 820, 1086, 29, 810, 10098, 1507, 5561, 5562, 10836, 812
8792, 821, 81, 3061, 811, 5563, 3481, 10908, 5564, 814, 9834
8793, 1086, 29, 30, 820, 1507, 230, 1509, 10098, 5561, 822
8794, 821, 81, 82, 3061, 5563, 447, 824, 10908, 3481, 3484
8795, 605, 56, 55, 1087, 607, 310, 4936, 11025, 1589, 1587
8796, 6111, 1139, 373, 374, 9860, 1910, 6157, 6158, 1909, 383
8797, 5037, 5066, 5048, 6397, 5229, 5228, 5099, 8752, 9501, 10730
8798, 182, 183, 1105, 5059, 202, 1649, 1648, 5089, 5088, 8948
8799, 656, 3312, 104, 646, 10964, 3552, 4978, 4979, 10843, 649
8800, 771, 78, 781, 3311, 5523, 784, 5524, 10960, 3472, 10988
8801, 681, 67, 3380, 671, 5003, 3441, 9783, 5004, 674, 9613
8802, 680, 1405, 16, 670, 9523, 1466, 682, 5002, 9356, 5001
8803, 97, 3020, 706, 716, 3533, 10261, 5244, 719, 10694, 5245
8804, 705, 46, 45, 1048, 707, 300, 5242, 10551, 1558, 1557
8805, 3324, 106, 105, 6447, 3558, 525, 3559, 10675, 11026, 10674
8806, 3007, 3226, 3402, 6444, 4186, 4189, 4188, 9244, 10121, 10341
8807, 1183, 1397, 1382, 6468, 1843, 2751, 2437, 9110, 10361, 8956
8808, 5271, 279, 278, 1188, 5363, 298, 5364, 9938, 1780, 1779
8809, 1337, 51, 6429, 6485, 1577, 11027, 10943, 10970, 10971, 10874
8810, 1103, 1211, 1379, 6490, 2561, 2564, 2453, 9398, 10722, 9021
8811, 71, 72, 721, 3014, 437, 724, 5249, 3453, 3452, 10215
8812, 720, 19, 1039, 20, 5247, 1477, 10536, 722, 220, 1478
8813, 1046, 10, 630, 620, 1450, 4951, 10761, 9579, 622, 4952
8814, 796, 806, 88, 3018, 5549, 809, 5548, 10778, 9641, 3506
8815, 1070, 1053, 1271, 6432, 2313, 2315, 2314, 9832, 9044, 8457
8816, 5255, 5265, 5276, 6418, 5444, 5402, 5442, 7575, 10812, 9129
8817, 981, 371, 6109, 372, 1900, 6151, 7003, 1899, 381, 6152
8818, 5600, 32, 1305, 840, 5604, 1519, 10141, 5606, 842, 10086
8819, 3139, 3050, 3338, 6457, 4401, 4392, 4403, 10633, 10310, 10715
8820, 5257, 278, 277, 1246, 5360, 297, 5361, 9868, 1777, 1776
8821, 746, 756, 94, 3379, 5499, 5498, 749, 9636, 9477, 3520
8822, 1404, 41, 745, 755, 1545, 5496, 7997, 7907, 757, 5497
8823, 19, 720, 1039, 710, 5247, 10536, 1477, 712, 5248, 10698
8824, 826, 86, 87, 3063, 829, 468, 5568, 7385, 3500, 3499
8825, 165, 9, 8, 1089, 4932, 171, 167, 7389, 1445, 1444
8826, 3185, 484, 483, 5264, 3718, 503, 3719, 10020, 5383, 5382
8827, 5042, 5068, 5039, 6464, 5236, 5184, 5234, 9185, 9936, 9946
8828, 1396, 1337, 6429, 6485, 2946, 10943, 10434, 10831, 10970, 10874
8829, 1170, 317, 316, 5696, 1798, 326, 1799, 10090, 5741, 5740
8830, 3163, 496, 495, 5273, 3754, 515, 3755, 9481, 5419, 5418
8831, 666, 6346, 676, 6476, 10408, 9736, 4999, 11028, 10968, 10955
8832, 1336, 1395, 1401, 6407, 2947, 2245, 1499, 10906, 10125, 10977
8833, 636, 104, 3021, 646, 4968, 3556, 10934, 4969, 649, 10516
8834, 651, 641, 64, 3395, 4974, 644, 4973, 10211, 9168, 3432
8835, 1419, 38, 775, 785, 1536, 5526, 10034, 9393, 787, 5527
8836, 5585, 5583, 5592, 6448, 5671, 5672, 5621, 10539, 9917, 8417
8837, 119, 120, 166, 6419, 122, 972, 975, 8409, 11019, 10966
8838, 165, 119, 166, 6419, 974, 975, 168, 10109, 8409, 10966
8839, 671, 66, 67, 3381, 4993, 394, 674, 9614, 3438, 3437
8840, 66, 671, 661, 3381, 4993, 4994, 664, 3438, 9614, 10450
8841, 14, 1406, 660, 670, 1462, 10328, 662, 4991, 9355, 4992
8842, 3345, 571, 5976, 570, 3839, 6040, 9231, 3838, 580, 6041
8843, 353, 1370, 354, 5969, 1864, 1863, 363, 6015, 9926, 6016
8844, 1398, 1385, 1180, 6452, 2756, 2442, 1609, 10881, 9377, 8755
8845, 3373, 3155, 3360, 6451, 3584, 4416, 4731, 10883, 9625, 9375
8846, 5039, 412, 413, 2963, 5182, 432, 5183, 9750, 3663, 3662
8847, 756, 92, 3378, 766, 5508, 3518, 9478, 5509, 769, 10355
8848, 755, 1403, 40, 765, 7908, 1542, 5506, 5507, 9960, 767
8849, 40, 41, 1403, 755, 257, 1543, 1542, 5506, 757, 7908
8850, 3101, 552, 553, 5832, 3814, 562, 3815, 8602, 5905, 5904
8851, 5038, 190, 189, 1229, 5109, 209, 5110, 9728, 1670, 1669
8852, 3261, 3095, 3317, 6461, 4606, 4610, 4477, 8504, 9421, 7434
8853, 1214, 192, 193, 5034, 1678, 212, 1679, 10144, 5119, 5118
8854, 120, 113, 114, 6419, 869, 116, 868, 11019, 9696, 10913
8855, 984, 319, 318, 5695, 1808, 328, 1809, 7224, 5747, 5746
8856, 587, 588, 2966, 6106, 597, 3870, 3869, 6174, 6173, 9240
8857, 531, 3266, 5698, 532, 3762, 9953, 5760, 541, 3763, 5759
8858, 271, 272, 976, 5289, 291, 1759, 1758, 5341, 5340, 9797
8859, 3393, 2963, 3176, 6464, 3968, 3664, 3970, 10625, 9945, 7989
8860, 491, 3254, 5263, 490, 3739, 9224, 5404, 510, 3740, 5403
8861, 125, 605, 126, 6482, 4928, 4930, 128, 9735, 11000, 10407
8862, 605, 606, 126, 6482, 608, 4929, 4930, 11000, 10999, 10407
8863, 5041, 411, 2955, 410, 5177, 3656, 9327, 5176, 430, 3657
8864, 5596, 5584, 5586, 6409, 5678, 5676, 5630, 10373, 10780, 10759
8865, 1282, 1205, 1370, 6448, 1710, 2862, 1865, 10886, 8415, 10635
8866, 1313, 1165, 1352, 6435, 2811, 2812, 2406, 7966, 9712, 8960
8867, 1104, 262, 263, 5256, 1731, 282, 1732, 10511, 5312, 5311
8868, 3024, 3272, 3400, 6463, 4268, 4270, 4269, 10249, 10191, 10189
8869, 872, 132, 133, 3181, 916, 141, 917, 10596, 3601, 3600
8870, 978, 190, 191, 5064, 1672, 210, 1673, 9147, 5113, 5112
8871, 5290, 266, 265, 1208, 5320, 285, 5321, 10754, 1741, 1740
8872, 3364, 3182, 3133, 6439, 4145, 4769, 4764, 9654, 9287, 9675
8873, 66, 651, 65, 3022, 4983, 654, 393, 3434, 10212, 3435
8874, 650, 14, 13, 1044, 4981, 176, 652, 10995, 1460, 1459
8875, 775, 40, 39, 1041, 5516, 256, 777, 10035, 1540, 1539
8876, 776, 92, 3016, 91, 5518, 3514, 10997, 779, 473, 3515
8877, 1292, 1043, 1426, 6467, 2264, 2267, 2266, 10198, 10260, 10200
8878, 5835, 5850, 5849, 6482, 5951, 5950, 5937, 10480, 10038, 9990
8879, 5831, 5849, 5850, 6482, 5946, 5950, 5949, 9074, 9990, 10038
8880, 620, 1351, 10, 610, 9578, 1448, 622, 4942, 10841, 4941
8881, 9, 10, 1351, 610, 172, 1448, 1447, 612, 4941, 10841
8882, 806, 816, 88, 3325, 5559, 5558, 809, 9642, 10844, 3502
8883, 87, 88, 816, 3325, 469, 5558, 819, 3503, 3502, 10844
8884, 1291, 315, 314, 5699, 1787, 324, 1788, 10849, 5735, 5734
8885, 676, 100, 3320, 686, 5008, 3544, 10954, 5009, 689, 9996
8886, 48, 685, 675, 1345, 687, 5007, 5006, 1568, 10338, 10981
8887, 751, 74, 3321, 741, 5493, 3464, 10952, 5494, 744, 9941
8888, 750, 1346, 22, 740, 10822, 1488, 5491, 5492, 10313, 742
8889, 495, 494, 3221, 5277, 514, 3752, 3751, 5416, 5415, 10366
8890, 5274, 3079, 479, 480, 9993, 3707, 5370, 5371, 3706, 499
8891, 645, 655, 6257, 6429, 4977, 10786, 10869, 11012, 11020, 10704
8892, 6243, 6431, 6291, 6432, 10650, 10259, 10088, 10242, 9859, 9851
8893, 3270, 3015, 3290, 6455, 4226, 4225, 4224, 7870, 10863, 10854
8894, 751, 761, 6355, 6440, 5504, 10573, 9810, 10953, 11029, 10909
8895, 5266, 494, 2965, 493, 5413, 3748, 9003, 5412, 513, 3749
8896, 185, 184, 5037, 986, 204, 5095, 5094, 1655, 1654, 9724
8897, 835, 840, 841, 6422, 5683, 843, 5686, 11021, 9557, 9650
8898, 270, 271, 1238, 5291, 290, 1756, 1755, 5338, 5337, 7071
8899, 3105, 3296, 3107, 6488, 4666, 4665, 4664, 8686, 8809, 9662
8900, 5690, 2959, 536, 535, 7183, 3784, 5773, 5774, 3783, 545
8901, 3274, 594, 3100, 6126, 3897, 3587, 3898, 9282, 6142, 8981
8902, 149, 150, 1206, 881, 158, 1626, 1625, 939, 938, 9759
8903, 3204, 407, 406, 5067, 3644, 426, 3645, 10520, 5165, 5164
8904, 750, 24, 1038, 760, 5501, 1492, 10823, 5502, 762, 11001
8905, 80, 801, 791, 3323, 804, 5544, 5543, 3478, 10084, 10990
8906, 800, 1348, 28, 790, 10104, 1504, 802, 5542, 10993, 5541
8907, 54, 635, 625, 1349, 4956, 4957, 627, 1584, 10947, 11017
8908, 630, 6306, 640, 6478, 10760, 9882, 4962, 10762, 9124, 11030
8909, 3108, 3143, 3162, 6477, 4677, 4680, 4679, 9717, 9604, 9401
8910, 5584, 5595, 5586, 6409, 5652, 5677, 5676, 10780, 10399, 10759
8911, 686, 99, 100, 3319, 5018, 519, 689, 9997, 3541, 3540
8912, 686, 99, 3319, 696, 5018, 3541, 9997, 5019, 699, 10231
8913, 685, 48, 47, 1344, 687, 302, 5016, 10337, 1566, 1565
8914, 695, 685, 47, 1344, 5017, 5016, 697, 10483, 10337, 1565
8915, 1343, 21, 22, 730, 1485, 222, 1486, 10476, 732, 5481
8916, 73, 74, 741, 3318, 439, 744, 5483, 3461, 3460, 9940
8917, 741, 731, 73, 3318, 5484, 734, 5483, 9940, 10181, 3461
8918, 740, 1343, 22, 730, 10312, 1486, 742, 5482, 10476, 5481
8919, 62, 3326, 3024, 6463, 3422, 3427, 3426, 11031, 10937, 10249
8920, 3013, 3370, 3376, 6440, 4218, 4220, 3471, 10707, 10746, 10949
8921, 1369, 333, 332, 5833, 1826, 342, 1827, 10493, 5871, 5870
8922, 36, 1043, 1350, 6467, 1530, 1532, 1528, 11032, 10260, 10941
8923, 705, 45, 715, 1048, 5242, 717, 5243, 10551, 1557, 10793
8924, 3020, 98, 97, 706, 3532, 517, 3533, 10261, 709, 5244
8925, 6125, 1299, 377, 1125, 9908, 1923, 6135, 9842, 1922, 1613
8926, 409, 3217, 5045, 408, 3650, 9725, 5171, 428, 3651, 5170
8927, 486, 485, 3207, 5262, 505, 3725, 3724, 5389, 5388, 10058
8928, 786, 6304, 796, 6479, 10135, 10770, 5539, 11033, 9222, 10779
8929, 1199, 263, 264, 5280, 1734, 283, 1735, 10224, 5315, 5314
8930, 275, 276, 1198, 5269, 295, 1771, 1770, 5355, 5354, 7718
8931, 721, 711, 71, 3014, 5250, 714, 5249, 10215, 10790, 3453
8932, 1396, 1047, 1402, 6485, 2287, 1576, 2288, 10831, 10785, 10972
8933, 69, 681, 68, 3023, 5013, 684, 396, 3443, 9782, 3444
8934, 42, 43, 1042, 745, 259, 1549, 1548, 747, 5486, 7999
8935, 95, 746, 3017, 736, 5488, 9635, 3523, 739, 5489, 7800
8936, 154, 1412, 888, 1303, 1640, 10613, 892, 1433, 1644, 10614
8937, 239, 5600, 1305, 1409, 5605, 10141, 1518, 1723, 10645, 1727
8938, 1298, 1378, 1268, 6478, 2944, 2939, 2943, 9743, 10889, 10846
8939, 816, 826, 87, 3063, 5569, 5568, 819, 10589, 7385, 3499
8940, 165, 9, 1089, 610, 4932, 1445, 7389, 4933, 612, 10567
8941, 3268, 3240, 3352, 6479, 4911, 4905, 4910, 9765, 10855, 10892
8942, 836, 826, 825, 6422, 5579, 828, 5580, 8425, 10201, 10985
8943, 825, 835, 836, 6422, 5577, 838, 5580, 10985, 11021, 8425
8944, 3024, 3326, 3272, 6463, 3427, 4267, 4268, 10249, 10937, 10191
8945, 3114, 590, 591, 6108, 3884, 600, 3885, 7582, 6185, 6184
8946, 405, 3192, 406, 5040, 3642, 3641, 425, 5161, 10610, 5162
8947, 1292, 1350, 1043, 6467, 2265, 1532, 2264, 10198, 10941, 10260
8948, 5598, 232, 1302, 1410, 5601, 1514, 9575, 10623, 1700, 1702
8949, 886, 147, 1304, 1411, 898, 1442, 10112, 10637, 1617, 1619
8950, 5587, 236, 235, 1073, 5622, 244, 5623, 8873, 1712, 1711
8951, 120, 119, 113, 6419, 122, 866, 869, 11019, 8409, 9696
8952, 1124, 316, 315, 5694, 1791, 325, 1792, 9434, 5738, 5737
8953, 3066, 5971, 571, 572, 7576, 6044, 3841, 3842, 6043, 581
8954, 3347, 3070, 3152, 6462, 3931, 4499, 3985, 9486, 9332, 10710
8955, 81, 801, 3061, 811, 5553, 10083, 3481, 814, 5554, 9834
8956, 810, 1086, 29, 800, 10836, 1507, 812, 5552, 10105, 5551
8957, 801, 81, 3061, 80, 5553, 3481, 10083, 804, 446, 3482
8958, 28, 29, 1086, 800, 229, 1507, 1506, 802, 5551, 10105
8959, 826, 85, 86, 3330, 5578, 467, 829, 7386, 3497, 3496
8960, 4, 165, 8, 1354, 973, 167, 170, 1436, 7388, 1437
8961, 5279, 3173, 492, 493, 7410, 3746, 5409, 5410, 3745, 512
8962, 409, 5056, 3189, 410, 5173, 8202, 3654, 429, 5174, 3653
8963, 1298, 12, 1420, 6478, 1454, 1456, 1458, 9743, 11034, 10974
8964, 47, 705, 1048, 46, 5026, 10551, 1564, 301, 707, 1558
8965, 452, 5583, 451, 3180, 5642, 5641, 460, 3683, 10173, 3684
8966, 3335, 3332, 3135, 6443, 3936, 4774, 4773, 8195, 8680, 8159
8967, 3059, 550, 551, 5838, 3806, 560, 3807, 7853, 5899, 5898
8968, 1084, 333, 5839, 334, 1832, 5873, 8718, 1831, 343, 5874
8969, 589, 2956, 588, 6121, 3875, 3874, 598, 6176, 8534, 6177
8970, 3268, 3394, 90, 6479, 3513, 3512, 3508, 9765, 10976, 11035
8971, 3049, 3055, 3078, 6486, 4337, 4395, 4394, 10210, 10146, 8093
8972, 549, 3344, 5828, 550, 3801, 8045, 5896, 559, 3802, 5895
8973, 21, 720, 1039, 20, 5471, 10536, 1484, 221, 722, 1478
8974, 72, 73, 721, 3014, 438, 5473, 724, 3452, 3459, 10215
8975, 1298, 11, 12, 6478, 1453, 174, 1454, 9743, 10774, 11034
8976, 6123, 60, 369, 1172, 6133, 378, 6134, 9046, 1611, 1610
8977, 193, 194, 980, 5063, 213, 1682, 1681, 5122, 5121, 9175
8978, 6124, 112, 3147, 586, 6140, 3585, 9227, 6139, 595, 3586
8979, 66, 651, 3022, 661, 4983, 10212, 3434, 664, 4984, 10451
8980, 650, 14, 1044, 660, 4981, 1460, 10995, 4982, 662, 10327
8981, 92, 776, 3016, 766, 5518, 10997, 3514, 769, 5519, 10356
8982, 775, 40, 1041, 765, 5516, 1540, 10035, 5517, 767, 9959
8983, 5845, 110, 3065, 548, 5862, 3571, 9852, 5861, 557, 3572
8984, 89, 3268, 90, 6479, 3509, 3508, 471, 10777, 9765, 11035
8985, 58, 331, 5844, 1090, 340, 5856, 5855, 1597, 1596, 7201
8986, 3048, 452, 5594, 453, 3687, 5644, 7075, 3686, 461, 5645
8987, 5288, 267, 266, 1210, 5323, 286, 5324, 10765, 1744, 1743
8988, 841, 836, 835, 6422, 5685, 838, 5686, 9650, 8425, 11021
8989, 887, 137, 3279, 3387, 895, 3409, 10711, 10712, 3614, 3619
8990, 3281, 456, 3384, 5597, 3494, 3697, 3702, 9956, 5610, 10686
8991, 1202, 183, 184, 5047, 1651, 203, 1652, 6803, 5092, 5091
8992, 1242, 191, 192, 5054, 1675, 211, 1676, 10323, 5116, 5115
8993, 533, 5714, 534, 3145, 5766, 5765, 543, 3773, 9841, 3774
8994, 490, 5276, 489, 3260, 5401, 5400, 509, 3736, 9127, 3737
8995, 606, 6471, 126, 6482, 11036, 10406, 4929, 10999, 9991, 10407
8996, 5599, 449, 3385, 3278, 5608, 3676, 10662, 10110, 3488, 3677
8997, 130, 3386, 889, 3280, 3593, 10664, 901, 3416, 3594, 10237
8998, 355, 354, 1091, 5975, 364, 1867, 1866, 6019, 6018, 9924
8999, 52, 1049, 1337, 6429, 1580, 1582, 1578, 11037, 10421, 10943
9000, 197, 198, 1121, 5035, 217, 1694, 1693, 5134, 5133, 6500
9001, 626, 616, 6329, 6447, 4949, 10808, 10845, 11038, 11039, 10669
9002, 3, 3329, 7, 6480, 3412, 3411, 164, 11004, 11005, 11040
9003, 33, 34, 1355, 6481, 250, 1522, 1521, 11007, 11041, 11006
9004, 3272, 6463, 3064, 6480, 10191, 10938, 4466, 10660, 10661, 11008
9005, 751, 6396, 741, 6440, 9812, 9942, 5494, 10953, 10157, 10648
9006, 1205, 234, 235, 5592, 1708, 243, 1709, 8412, 5620, 5619
9007, 676, 6401, 686, 6476, 9739, 9998, 5009, 10955, 10252, 10697
9008, 1088, 6467, 1292, 6481, 10940, 10198, 2489, 11010, 10679, 10678
9009, 1163, 1367, 1209, 6428, 2805, 2804, 2624, 9672, 9676, 9024
9010, 840, 32, 1106, 835, 842, 1516, 9778, 5683, 5682, 11015
9011, 120, 114, 2, 3083, 868, 117, 867, 11013, 9773, 3407
9012, 533, 532, 5691, 3099, 542, 5763, 5762, 3767, 3766, 10010
9013, 5598, 1302, 31, 830, 9575, 1513, 5602, 5603, 9918, 832
9014, 1304, 125, 5, 886, 9659, 127, 1441, 10112, 897, 896
9015, 3371, 3377, 3019, 6476, 4248, 3551, 4246, 10800, 10963, 10769
9016, 16, 690, 17, 1045, 5011, 692, 179, 1468, 10049, 1469
9017, 69, 681, 3023, 691, 5013, 9782, 3443, 694, 5014, 10720
9018, 16, 690, 1045, 680, 5011, 10049, 1468, 682, 5012, 9524
9019, 745, 43, 1042, 735, 5486, 1549, 7999, 5487, 737, 8321
9020, 746, 95, 3017, 94, 5488, 3523, 9635, 749, 476, 3524
9021, 3382, 5968, 573, 574, 8696, 6050, 3851, 3852, 6049, 583
9022, 1392, 313, 312, 5702, 1725, 322, 1783, 9902, 5729, 5728
9023, 274, 275, 983, 5259, 294, 1768, 1767, 5352, 5351, 9913
9024, 53, 1049, 52, 6429, 1581, 1580, 307, 10807, 10421, 11037
9025, 36, 37, 1043, 6467, 253, 1531, 1530, 11032, 10503, 10260
9026, 1336, 1401, 25, 6407, 1499, 1495, 1497, 10906, 10977, 11042
9027, 5703, 529, 3367, 530, 5754, 3758, 10750, 5753, 539, 3699
9028, 120, 166, 6419, 6480, 972, 10966, 11019, 11014, 10969, 10877
9029, 416, 3167, 5052, 415, 3671, 9258, 5192, 435, 3672, 5191
9030, 1357, 1360, 1160, 6465, 1961, 2798, 2799, 8668, 8607, 8149
9031, 273, 274, 1279, 5283, 293, 1765, 1764, 5349, 5348, 8762
9032, 605, 6424, 615, 6482, 10923, 10827, 4937, 11000, 8579, 10783
9033, 415, 3096, 5057, 414, 3668, 6781, 5189, 434, 3669, 5188
9034, 5062, 189, 188, 1217, 5106, 208, 5107, 8917, 1667, 1666
9035, 3098, 5984, 567, 3391, 10680, 6000, 3579, 3831, 10681, 3832
9036, 277, 276, 5284, 990, 296, 5358, 5357, 1774, 1773, 9763
9037, 1165, 1313, 1166, 6435, 2811, 2810, 2385, 9712, 7966, 9160
9038, 195, 196, 988, 5065, 215, 1688, 1687, 5128, 5127, 10044
9039, 30, 830, 1107, 820, 5571, 9992, 1510, 822, 5572, 10099
9040, 831, 82, 3082, 821, 5573, 3486, 8099, 5574, 824, 9719
9041, 125, 56, 605, 1109, 4926, 607, 4928, 9660, 1439, 10922
9042, 1283, 148, 149, 875, 1620, 157, 1621, 10833, 936, 935
9043, 1192, 198, 199, 5049, 1696, 218, 1697, 9367, 5137, 5136
9044, 2961, 402, 401, 5066, 3629, 421, 3630, 9500, 5150, 5149
9045, 350, 1123, 1416, 5983, 1603, 1857, 1856, 5995, 8058, 9608
9046, 826, 85, 3330, 836, 5578, 3497, 7386, 5579, 839, 7945
9047, 4, 165, 1354, 119, 973, 7388, 1436, 121, 974, 7948
9048, 98, 696, 3020, 99, 5028, 10232, 3532, 518, 699, 3539
9049, 696, 98, 3020, 706, 5028, 3532, 10232, 5029, 709, 10261
9050, 705, 47, 1048, 695, 5026, 1564, 10551, 5027, 697, 10482
9051, 5069, 71, 3053, 416, 5083, 3454, 7010, 5082, 436, 3455
9052, 5033, 188, 187, 979, 5103, 207, 5104, 9769, 1664, 1663
9053, 12, 13, 1420, 6478, 175, 1457, 1456, 11034, 10973, 10974
9054, 720, 21, 1039, 730, 5471, 1484, 10536, 5472, 732, 10475
9055, 73, 731, 721, 3014, 734, 5474, 5473, 3459, 10182, 10215
9056, 61, 3326, 62, 6463, 3423, 3422, 389, 10939, 10937, 11031
9057, 780, 6406, 26, 6407, 10946, 10986, 782, 11043, 10643, 10905
9058, 90, 3394, 91, 6479, 3512, 3511, 472, 11035, 10976, 10975
9059, 36, 1350, 35, 6467, 1528, 1527, 252, 11032, 10941, 10942
9060, 2952, 485, 484, 5275, 3721, 504, 3722, 8141, 5386, 5385
9061, 606, 616, 107, 6447, 4939, 619, 4938, 11044, 11039, 10982
9062, 107, 108, 606, 6447, 527, 609, 4938, 10982, 10983, 11044
9063, 626, 6329, 636, 6447, 10845, 10743, 4959, 11038, 10669, 10935
9064, 5599, 831, 83, 3278, 5609, 834, 5607, 10110, 9657, 3489
9065, 126, 6, 889, 3280, 129, 900, 899, 11022, 3417, 10237
9066, 194, 195, 1201, 5042, 214, 1685, 1684, 5125, 5124, 9226
9067, 487, 486, 2964, 5286, 506, 3728, 3727, 5392, 5391, 10021
9068, 399, 5050, 398, 3154, 5141, 5140, 418, 3620, 7803, 3621
9069, 1178, 261, 262, 5270, 1728, 281, 1729, 7865, 5309, 5308
9070, 479, 5272, 478, 3153, 5368, 5367, 498, 3703, 6572, 3704
9071, 61, 7, 3064, 6480, 388, 3420, 3419, 11009, 11040, 11008
9072, 35, 1088, 34, 6481, 1525, 1524, 251, 11011, 11010, 11041
9073, 356, 1407, 357, 5973, 1877, 1876, 366, 6024, 9472, 6025
9074, 1179, 181, 182, 5051, 1645, 201, 1646, 6610, 5086, 5085
9075, 726, 736, 95, 3333, 5479, 739, 5478, 9752, 7802, 3527
9076, 2962, 482, 481, 5285, 3712, 501, 3713, 8818, 5377, 5376
9077, 375, 6115, 374, 1391, 6161, 6160, 384, 1642, 9965, 1914
9078, 491, 492, 5287, 2958, 511, 5407, 5406, 3743, 3742, 10305
9079, 32, 33, 1106, 835, 249, 1517, 1516, 5682, 837, 11015
9080, 84, 85, 836, 3081, 466, 839, 5684, 3492, 3491, 7946
9081, 836, 841, 84, 3081, 5685, 844, 5684, 7946, 9648, 3492
9082, 2, 3, 120, 3083, 118, 123, 867, 3407, 3406, 11013
9083, 1, 119, 1108, 113, 865, 7950, 1431, 115, 866, 9694
9084, 119, 1, 1108, 4, 865, 1431, 7950, 121, 124, 1432
9085, 131, 132, 882, 3258, 140, 914, 913, 3596, 3595, 9704
9086, 233, 234, 1282, 5585, 242, 1704, 1703, 5617, 5616, 10857
9087, 3272, 3064, 3125, 6480, 4466, 4468, 4467, 10660, 11008, 10554
9088, 1152, 1088, 1292, 6481, 2487, 2489, 2488, 10555, 11010, 10678
9089, 111, 5984, 567, 3098, 6001, 6000, 576, 3578, 10680, 3579
9090, 877, 154, 1412, 888, 950, 1640, 10803, 953, 892, 10613
9091, 239, 5600, 1409, 5588, 5605, 10645, 1723, 5631, 5634, 10791
9092, 825, 835, 6422, 6481, 5577, 11021, 10985, 10987, 11016, 9561
9093, 62, 3024, 63, 6463, 3426, 3425, 390, 11031, 10249, 10649
9094, 350, 59, 1123, 5983, 359, 1604, 1603, 5995, 5994, 8058
9095, 611, 61, 6463, 6480, 614, 10939, 10914, 10876, 11009, 10661
9096, 1410, 5598, 232, 5589, 10623, 5601, 1700, 10802, 5615, 5614
9097, 1411, 886, 147, 878, 10637, 898, 1617, 10804, 934, 933
9098, 3064, 7, 3329, 6480, 3420, 3411, 3421, 11008, 11040, 11005
9099, 34, 1088, 1355, 6481, 1524, 1526, 1522, 11041, 11010, 11006
9100, 815, 6467, 35, 6481, 10918, 10942, 817, 10907, 10679, 11011
9101, 414, 3172, 5046, 413, 3665, 9035, 5186, 433, 3666, 5185
9102, 109, 5708, 3336, 537, 5724, 10691, 3569, 547, 5725, 3568
9103, 1361, 57, 320, 5709, 1593, 330, 1594, 8520, 5719, 5718
9104, 1378, 1298, 1420, 6478, 2944, 1458, 2273, 10889, 9743, 10974
9105, 1078, 199, 19, 5072, 1479, 219, 1480, 7535, 5077, 5076
9106, 631, 6307, 621, 6463, 10599, 10724, 4954, 10933, 9850, 11023
9107, 3352, 3394, 3268, 6479, 4233, 3513, 4910, 10892, 10976, 9765
9108, 3387, 887, 137, 880, 10712, 895, 3614, 10928, 931, 929
9109, 5591, 3384, 456, 5597, 10927, 3697, 5654, 5656, 10686, 5610
9110, 771, 6355, 6440, 6455, 10853, 10909, 10961, 11045, 10132, 10901
9111, 5977, 3257, 570, 569, 9408, 3837, 6037, 6038, 3680, 579
9112, 1282, 353, 352, 5978, 1862, 362, 1706, 10821, 6013, 6012
9113, 795, 805, 6305, 6467, 5547, 10740, 10607, 10925, 11024, 10676
9114, 449, 3385, 5590, 5599, 3676, 10929, 5635, 5608, 10662, 5637
9115, 3386, 879, 130, 889, 10930, 910, 3593, 10664, 912, 901
9116, 1070, 1069, 1053, 6432, 2312, 2308, 2313, 9832, 10705, 9044
9117, 3257, 5593, 451, 450, 10052, 5639, 3678, 3679, 5638, 459
9118, 830, 30, 1107, 31, 5571, 1510, 9992, 832, 231, 1511
9119, 82, 831, 3082, 83, 5573, 8099, 3486, 448, 834, 3485
9120, 126, 108, 6, 3084, 4927, 528, 129, 11046, 3415, 3414
9121, 56, 125, 5, 1109, 4926, 127, 311, 1439, 9660, 1440
9122, 876, 151, 150, 1072, 941, 159, 942, 9334, 1629, 1628
9123, 1400, 6113, 373, 372, 9815, 6155, 1904, 1905, 6154, 382
9124, 411, 412, 5068, 3176, 431, 5180, 5179, 3660, 3659, 9935
9125, 591, 592, 3366, 6116, 601, 3616, 3889, 6188, 6187, 9040
9126, 3084, 3263, 3280, 6471, 4563, 3825, 3418, 10979, 10736, 10254
9127, 1358, 43, 725, 735, 1551, 5476, 9928, 8320, 737, 5477
9128, 690, 17, 1359, 700, 692, 1471, 10050, 5022, 5021, 10902
9129, 701, 69, 3334, 691, 5023, 3447, 10898, 5024, 694, 10719
9130, 401, 5060, 400, 3177, 5147, 5146, 420, 3626, 7672, 3627
9131, 556, 110, 3337, 5847, 566, 3574, 3573, 5864, 5863, 9314
9132, 1414, 370, 369, 6120, 1889, 379, 1890, 9887, 6146, 6145
9133, 6119, 3389, 587, 586, 8131, 3865, 6170, 6171, 3864, 596
9134, 339, 58, 5846, 1362, 349, 5858, 5857, 1599, 1598, 10056
9135, 3373, 575, 111, 5986, 3580, 585, 3581, 10882, 6003, 6002
9136, 269, 268, 5282, 1232, 288, 5332, 5331, 1750, 1749, 10413
9137, 1398, 5985, 59, 358, 10880, 5997, 1605, 1606, 5996, 368
9138, 2954, 405, 404, 5055, 3638, 424, 3639, 10585, 5159, 5158
9139, 888, 1, 154, 1303, 891, 163, 892, 10614, 1434, 1433
9140, 5600, 32, 239, 1305, 5604, 248, 5605, 10141, 1519, 1518
9141, 135, 134, 3404, 873, 143, 3607, 3606, 923, 922, 9971
9142, 11, 630, 12, 6478, 632, 4961, 174, 10774, 10762, 11034
9143, 640, 12, 630, 6478, 642, 4961, 4962, 11030, 11034, 10762
9144, 791, 78, 79, 6455, 5533, 444, 794, 10131, 10888, 10864
9145, 89, 90, 796, 6479, 471, 5538, 799, 10777, 11035, 10779
9146, 90, 786, 796, 6479, 789, 5539, 5538, 11035, 11033, 10779
9147, 26, 780, 790, 6406, 782, 5532, 5531, 10986, 10946, 10945
9148, 26, 790, 27, 6406, 5531, 792, 227, 10986, 10945, 10828
9149, 5048, 186, 185, 1374, 5097, 205, 5098, 10453, 1658, 1657
9150, 454, 5584, 453, 3365, 5648, 5647, 462, 3689, 10460, 3690
9151, 36, 795, 37, 6467, 5546, 797, 253, 11032, 10925, 10503
9152, 52, 1337, 51, 6429, 1578, 1577, 306, 11037, 10943, 11027
9153, 5, 147, 1304, 886, 155, 1442, 1441, 896, 898, 10112
9154, 1302, 31, 232, 5598, 1513, 240, 1514, 9575, 5602, 5601
9155, 555, 5841, 556, 3258, 5914, 5913, 565, 3597, 9599, 3827
9156, 594, 112, 3100, 6126, 604, 3588, 3587, 6142, 6141, 8981
9157, 339, 338, 1283, 5840, 348, 1623, 1852, 5889, 5888, 10771
9158, 134, 133, 3047, 883, 142, 3604, 3603, 920, 919, 10194
9159, 771, 76, 77, 6440, 5513, 442, 774, 10961, 11047, 10950
9160, 97, 5294, 496, 3052, 5306, 5305, 516, 3534, 7250, 3535
9161, 3324, 3062, 106, 6447, 3563, 3562, 3558, 10675, 10984, 11026
9162, 103, 656, 102, 6476, 659, 4988, 522, 10962, 10965, 11048
9163, 5070, 181, 18, 1079, 5073, 200, 5074, 8377, 1475, 1474
9164, 5295, 96, 478, 3051, 5302, 497, 5303, 7682, 3530, 3529
9165, 196, 197, 1197, 5053, 216, 1691, 1690, 5131, 5130, 7513
9166, 377, 60, 6125, 1125, 387, 6136, 6135, 1613, 1612, 9842
9167, 656, 646, 6346, 6476, 4979, 10517, 10792, 10965, 10980, 10968
9168, 76, 751, 75, 6440, 5503, 754, 441, 11047, 10953, 10926
9169, 2, 137, 3279, 887, 146, 3409, 3408, 893, 895, 10711
9170, 84, 456, 3281, 5597, 465, 3494, 3493, 5611, 5610, 9956
9171, 102, 676, 101, 6476, 4998, 679, 521, 11048, 10955, 10951
9172, 51, 655, 6429, 6485, 657, 11020, 11027, 10971, 11018, 10874
9173, 3125, 3329, 3083, 6480, 4469, 3413, 4562, 10554, 11005, 9775
9174, 1152, 1106, 1355, 6481, 2580, 1523, 2490, 10555, 9779, 11006
9175, 25, 26, 1336, 6407, 226, 1498, 1497, 11042, 10905, 10906
9176, 1401, 24, 25, 6407, 1494, 225, 1495, 10977, 11003, 11042
9177, 1138, 312, 57, 5706, 1591, 321, 1592, 7808, 5717, 5716
9178, 106, 636, 105, 6447, 4958, 639, 525, 11026, 10935, 10674
9179, 3113, 5707, 109, 529, 7723, 5723, 3566, 3567, 5722, 538
9180, 889, 6, 130, 3280, 900, 138, 901, 10237, 3417, 3416
9181, 83, 449, 5599, 3278, 457, 5608, 5607, 3489, 3488, 10110
9182, 404, 403, 3369, 5044, 423, 3636, 3635, 5156, 5155, 10402
9183, 1390, 236, 237, 5596, 1714, 245, 1715, 10371, 5626, 5625
9184, 152, 151, 885, 1429, 160, 945, 944, 1632, 1631, 8904
9185, 3263, 3084, 3124, 6471, 4563, 4458, 4564, 10736, 10979, 10912
9186, 76, 3376, 77, 6440, 3470, 3469, 442, 11047, 10949, 10950
9187, 791, 781, 78, 6455, 5534, 784, 5533, 10131, 10818, 10888
9188, 631, 62, 63, 6463, 4953, 390, 634, 10933, 11031, 10649
9189, 631, 621, 62, 6463, 4954, 624, 4953, 10933, 11023, 11031
9190, 36, 805, 795, 6467, 807, 5547, 5546, 11032, 11024, 10925
9191, 17, 18, 1359, 700, 180, 1472, 1471, 5021, 702, 10902
9192, 43, 44, 1358, 725, 260, 1552, 1551, 5476, 727, 9928
9193, 726, 95, 96, 3333, 5478, 477, 729, 9752, 3527, 3526
9194, 701, 69, 70, 3334, 5023, 397, 704, 10898, 3447, 3446
9195, 1077, 279, 45, 5293, 1559, 299, 1560, 9102, 5300, 5299
9196, 398, 70, 3054, 5071, 417, 3450, 3449, 5080, 5079, 10026
9197, 1076, 44, 261, 5292, 1554, 280, 1555, 9212, 5297, 5296
9198, 771, 761, 76, 6440, 5514, 764, 5513, 10961, 11029, 11047
9199, 666, 102, 656, 6476, 669, 4988, 4989, 11028, 11048, 10965
9200, 611, 61, 62, 6463, 614, 389, 4943, 10914, 10939, 11031
9201, 611, 62, 621, 6463, 4943, 624, 4944, 10914, 11031, 11023
9202, 24, 770, 25, 6407, 5511, 772, 225, 11003, 10992, 11042
9203, 36, 35, 815, 6467, 252, 817, 5556, 11032, 10942, 10918
9204, 815, 805, 36, 6467, 5557, 807, 5556, 10918, 11024, 11032
9205, 655, 51, 50, 6485, 657, 305, 4986, 11018, 10971, 11049
9206, 50, 51, 1402, 6485, 305, 1575, 1574, 11049, 10971, 10972
9207, 650, 12, 640, 6478, 4971, 642, 4972, 10996, 11034, 11030
9208, 12, 650, 13, 6478, 4971, 652, 175, 11034, 10996, 10973
9209, 76, 761, 751, 6440, 764, 5504, 5503, 11047, 11029, 10953
9210, 675, 685, 6364, 6485, 5007, 10339, 10208, 10956, 10859, 10473
9211, 53, 52, 635, 6429, 307, 4966, 637, 10807, 11037, 10948
9212, 103, 102, 3377, 6476, 522, 3550, 3549, 10962, 11048, 10963
9213, 102, 666, 676, 6476, 669, 4999, 4998, 11048, 11028, 10955
9214, 166, 7, 61, 6480, 169, 388, 4931, 10969, 11040, 11009
9215, 825, 35, 34, 6481, 5566, 251, 827, 10987, 11011, 11041
9216, 776, 786, 90, 6479, 5529, 789, 5528, 10998, 11033, 11035
9217, 776, 90, 91, 6479, 5528, 472, 779, 10998, 11035, 10975
9218, 50, 49, 675, 6485, 304, 677, 4996, 11049, 10957, 10956
9219, 770, 780, 26, 6407, 5522, 782, 5521, 10992, 11043, 10905
9220, 25, 770, 26, 6407, 772, 5521, 226, 11042, 10992, 10905
9221, 52, 51, 655, 6429, 306, 657, 4976, 11037, 11027, 11020
9222, 636, 106, 626, 6447, 4958, 629, 4959, 10935, 11026, 11038
9223, 3064, 3329, 3125, 6480, 3421, 4469, 4468, 11008, 11005, 10554
9224, 1355, 1088, 1152, 6481, 1526, 2487, 2490, 11006, 11010, 10555
9225, 3, 7, 166, 6480, 164, 169, 971, 11004, 11040, 10969
9226, 33, 825, 34, 6481, 5576, 827, 250, 11007, 10987, 11041
9227, 153, 152, 874, 1391, 161, 948, 947, 1635, 1634, 10095
9228, 107, 616, 626, 6447, 619, 4949, 4948, 10982, 11039, 11038
9229, 626, 106, 107, 6447, 629, 526, 4948, 11038, 11026, 10982
9230, 1413, 318, 317, 5692, 1803, 327, 1804, 7523, 5744, 5743
9231, 5693, 530, 3384, 531, 5757, 3701, 10685, 5756, 540, 3761
9232, 3386, 555, 5829, 554, 3599, 5910, 10665, 3824, 564, 5911
9233, 3013, 3376, 76, 6440, 3471, 3470, 3466, 10707, 10949, 11047
9234, 1047, 50, 1402, 6485, 1572, 1574, 1576, 10785, 11049, 10972
9235, 24, 760, 770, 6407, 762, 5512, 5511, 11003, 10991, 10992
9236, 50, 665, 655, 6485, 667, 4987, 4986, 11049, 10867, 11018
9237, 3385, 569, 5967, 568, 3682, 6034, 10663, 3834, 578, 6035
9238, 645, 635, 52, 6429, 4967, 4966, 647, 11012, 10948, 11037
9239, 61, 611, 166, 6480, 614, 4934, 4931, 11009, 10876, 10969
9240, 825, 815, 35, 6481, 5567, 817, 5566, 10987, 10907, 11011
9241, 375, 6107, 1412, 376, 6163, 10612, 1643, 385, 6164, 1917
9242, 237, 238, 1392, 5586, 246, 1718, 1717, 5629, 5628, 10630
9243, 675, 665, 50, 6485, 4997, 667, 4996, 10956, 10867, 11049
9244, 402, 3349, 403, 5061, 3633, 3632, 422, 5152, 10148, 5153
9245, 877, 154, 153, 1412, 950, 162, 951, 10803, 1640, 1639
9246, 1409, 238, 239, 5588, 1722, 247, 1723, 10791, 5632, 5631
9247, 232, 233, 1410, 5589, 241, 1701, 1700, 5614, 5613, 10802
9248, 1411, 147, 148, 878, 1617, 156, 1618, 10804, 933, 932
9249, 655, 645, 52, 6429, 4977, 647, 4976, 11020, 11012, 11037
9250, 166, 120, 3, 6480, 972, 123, 971, 10969, 11014, 11004
9251, 825, 33, 835, 6481, 5576, 837, 5577, 10987, 11007, 11016
9252, 1409, 314, 313, 5689, 1786, 323, 1726, 10646, 5732, 5731
9253, 338, 337, 1411, 5834, 347, 1849, 1624, 5886, 5885, 10638
9254, 5058, 187, 186, 1394, 5100, 206, 5101, 7709, 1661, 1660
9255, 102, 3019, 3377, 6476, 3546, 3551, 3550, 11048, 10769, 10963
9256, 5704, 3388, 535, 534, 7230, 3779, 5768, 5769, 3778, 544
9257, 3387, 592, 593, 6110, 3618, 602, 3892, 10714, 6191, 6190
9258, 352, 351, 1410, 5972, 361, 1859, 1707, 6010, 6009, 10624
9259, 136, 135, 3366, 884, 144, 3610, 3609, 926, 925, 9041
9260, 771, 781, 6355, 6455, 5524, 10693, 10853, 11045, 10818, 10132
9261, 3387, 137, 136, 880, 3614, 145, 3615, 10928, 929, 928
9262, 3384, 455, 5591, 456, 3698, 5653, 10927, 3697, 464, 5654
9263, 5590, 450, 3385, 449, 5636, 3675, 10929, 5635, 458, 3676
9264, 130, 131, 879, 3386, 139, 911, 910, 3593, 3592, 10930
9265, 3367, 454, 5595, 455, 3693, 5650, 10733, 3692, 463, 5651
9266, 76, 75, 3013, 6440, 441, 3467, 3466, 11047, 10926, 10707
9267, 590, 3375, 589, 6132, 3880, 3879, 599, 6179, 9562, 6180
9268, 50, 1047, 49, 6485, 1572, 1571, 304, 11049, 10785, 10957
9269, 102, 101, 3019, 6476, 521, 3547, 3546, 11048, 10951, 10769
9270, 666, 656, 6346, 6476, 4989, 10792, 10408, 11028, 10965, 10968
9271, 107, 106, 3062, 6447, 526, 3562, 3561, 10982, 11026, 10984
9272, 761, 771, 6355, 6440, 5514, 10853, 10573, 11029, 10961, 10909
9273, 650, 6404, 660, 6478, 8844, 10329, 4982, 10996, 10847, 10911
9274, 776, 766, 6411, 6479, 5519, 10357, 10726, 10998, 10920, 10856
9275, 6323, 6386, 1142, 6313, 7325, 7817, 8994, 7322, 6931, 7816
9276, 1142, 6386, 6323, 6297, 7817, 7325, 8994, 8923, 7530, 7529
9277, 6362, 6426, 3004, 3035, 7622, 9043, 11050, 6619, 10275, 4172
9278, 3004, 6426, 6362, 6277, 9043, 7622, 11050, 9042, 7742, 6657
9279, 3004, 3034, 6362, 3035, 4167, 6631, 11050, 4172, 4171, 6619
9280, 6362, 3034, 3004, 6277, 6631, 4167, 11050, 6657, 6658, 9042
9281, 6399, 6332, 1222, 6344, 8467, 8951, 7506, 8020, 7378, 8018
9282, 6399, 1222, 6332, 6311, 7506, 8951, 8467, 6733, 7505, 8464
9283, 6372, 3131, 6473, 6263, 7309, 8410, 6948, 7310, 7308, 8052
9284, 6372, 6473, 3131, 3253, 6948, 8410, 7309, 6944, 6947, 4762
9285, 6376, 3010, 5828, 6370, 6811, 8514, 8046, 6812, 6810, 8517
9286, 6376, 5828, 3010, 3344, 8046, 8514, 6811, 7330, 8045, 3805
9287, 6371, 5051, 5050, 6261, 6633, 5205, 7961, 6634, 6608, 6949
9288, 6371, 5050, 5051, 5059, 7961, 5205, 6633, 7415, 5226, 5090
9289, 6427, 1036, 6253, 5700, 6912, 8343, 8730, 6940, 6979, 8214
9290, 6427, 6253, 1036, 6356, 8730, 8343, 6912, 6911, 7551, 6909
9291, 1153, 6389, 1099, 1082, 7292, 7239, 2461, 2462, 7021, 2460
9292, 1099, 6389, 1153, 6361, 7239, 7292, 2461, 7236, 7241, 8976
9293, 6256, 3372, 6321, 5837, 8775, 11051, 7253, 7903, 9039, 7902
9294, 6256, 6321, 3372, 3357, 7253, 11051, 8775, 7641, 7642, 4726
9295, 3158, 3372, 6321, 3357, 3818, 11051, 9540, 4411, 4726, 7642
9296, 6286, 1399, 1330, 1329, 6544, 2950, 6749, 8115, 2945, 2724
9297, 6286, 1330, 1399, 6244, 6749, 2950, 6544, 6540, 6748, 6542
9298, 6286, 3374, 3305, 6244, 6539, 4925, 6753, 6540, 6538, 6754
9299, 6286, 3305, 3374, 3304, 6753, 4925, 6539, 8116, 4700, 4920
9300, 6470, 993, 6292, 6258, 7667, 8806, 9418, 7668, 7666, 6814
9301, 6470, 6292, 993, 6375, 9418, 8806, 7667, 7919, 8720, 7922
9302, 6439, 1306, 6319, 1158, 8158, 7842, 9546, 8206, 2794, 9605
9303, 6439, 6319, 1306, 6366, 9546, 7842, 8158, 8157, 7112, 7843
9304, 6372, 1051, 6273, 6255, 8632, 6871, 7059, 7873, 6873, 6872
9305, 6372, 6273, 1051, 1102, 7059, 6871, 8632, 9410, 8292, 1974
9306, 6358, 1262, 6425, 1261, 9081, 8453, 7375, 7370, 2554, 7373
9307, 6358, 6425, 1262, 6342, 7375, 8453, 9081, 7930, 6962, 8452
9308, 1123, 6270, 6248, 855, 8101, 8284, 8060, 8059, 8102, 8061
9309, 6248, 6270, 1123, 6365, 8284, 8101, 8060, 10345, 8789, 8787
9310, 6286, 3283, 3374, 6272, 7748, 4660, 6539, 6541, 7747, 6536
9311, 6286, 3374, 3283, 3304, 6539, 4660, 7748, 8116, 4920, 4390
9312, 6286, 1307, 1399, 1329, 7745, 2686, 6544, 8115, 2414, 2945
9313, 6286, 1399, 1307, 6272, 6544, 2686, 7745, 6541, 6543, 7743
9314, 6449, 3086, 6320, 6278, 9480, 6646, 7796, 7779, 6648, 6647
9315, 6449, 6320, 3086, 3227, 7796, 6646, 9480, 9669, 9349, 4030
9316, 6442, 6445, 1218, 6309, 7235, 8030, 8914, 7341, 7342, 8913
9317, 1218, 6445, 6442, 6354, 8030, 7235, 8914, 8028, 7098, 7233
9318, 6435, 1213, 1166, 6345, 7266, 2813, 9160, 7068, 7265, 9158
9319, 6435, 1166, 1213, 1313, 9160, 2813, 7266, 7966, 2810, 2816
9320, 6389, 6334, 1153, 6361, 8374, 8977, 7292, 7241, 7644, 8976
9321, 6389, 1153, 6334, 6267, 7292, 8977, 8374, 6989, 7291, 8382
9322, 6324, 821, 3061, 811, 9720, 10908, 7437, 9833, 5564, 9834
9323, 6324, 3082, 3061, 821, 6902, 3487, 7437, 9720, 9719, 10908
9324, 6324, 3061, 3082, 3126, 7437, 3487, 6902, 6901, 4455, 4454
9325, 6293, 6484, 1270, 6388, 8312, 11052, 10226, 8592, 7714, 10227
9326, 1254, 1270, 6484, 6388, 2928, 11052, 7495, 7713, 10227, 7714
9327, 1254, 6484, 1270, 6285, 7495, 11052, 2928, 7459, 7497, 8870
9328, 6377, 3114, 3150, 6317, 7585, 4701, 8658, 7586, 7584, 8972
9329, 6377, 3150, 3114, 3149, 8658, 4701, 7585, 7925, 4692, 3887
9330, 6457, 3137, 6326, 3139, 10819, 7129, 9095, 10633, 4400, 7964
9331, 6457, 6326, 3137, 6343, 9095, 7129, 10819, 9096, 7328, 7329
9332, 6452, 1123, 59, 855, 8103, 1604, 10890, 8104, 8059, 857
9333, 6452, 59, 1123, 1180, 10890, 1604, 8103, 8755, 1608, 1607
9334, 6486, 1074, 1103, 6350, 8494, 2420, 9397, 8495, 8491, 9475
9335, 6486, 1103, 1074, 6436, 9397, 2420, 8494, 8967, 9396, 8965
9336, 6417, 1347, 6264, 1331, 10055, 7191, 9033, 9515, 2571, 9514
9337, 6417, 6264, 1347, 6315, 9033, 7191, 10055, 6741, 7312, 7314
9338, 6427, 3348, 3116, 3011, 8655, 4210, 8861, 8653, 3792, 4208
9339, 6427, 3116, 3348, 6253, 8861, 4210, 8655, 8730, 8860, 7850
9340, 6433, 3199, 6316, 3200, 10418, 8880, 8010, 9645, 4875, 9583
9341, 6433, 6316, 3199, 6311, 8010, 8880, 10418, 8011, 7392, 8524
9342, 1179, 6430, 1172, 1079, 7466, 9201, 2445, 1647, 8378, 2444
9343, 1172, 6430, 1179, 6352, 9201, 7466, 2445, 8824, 7467, 6612
9344, 3106, 6488, 3108, 6266, 9509, 11053, 4667, 9292, 7807, 9293
9345, 3106, 3108, 6488, 3107, 4667, 11053, 9509, 4663, 4668, 9662
9346, 3142, 3108, 6488, 6266, 4672, 11053, 8797, 7613, 9293, 7807
9347, 3142, 6488, 3108, 3107, 8797, 11053, 4672, 4673, 9662, 4668
9348, 3289, 3312, 6346, 3021, 4256, 11054, 9059, 4253, 3557, 9058
9349, 3289, 6346, 3312, 6476, 9059, 11054, 4256, 10799, 10968, 10798
9350, 646, 6346, 3312, 3021, 10517, 11054, 10843, 10516, 9058, 3557
9351, 646, 3312, 6346, 6476, 10843, 11054, 10517, 10980, 10798, 10968
9352, 6377, 6108, 6111, 6122, 7587, 6221, 9767, 7926, 6223, 6222
9353, 6377, 6111, 6108, 6317, 9767, 6221, 7587, 7586, 8772, 7583
9354, 3331, 6348, 6377, 3112, 8360, 8700, 9354, 4695, 8699, 8659
9355, 6377, 6348, 3331, 6312, 8700, 8360, 9354, 8480, 8359, 7851
9356, 3002, 6347, 6366, 3182, 9166, 8661, 8909, 4115, 9286, 9285
9357, 6366, 6347, 3002, 6338, 8661, 9166, 8909, 7044, 7980, 8908
9358, 6347, 1027, 6366, 1207, 9165, 7376, 8661, 8662, 2140, 8155
9359, 6347, 6366, 1027, 6338, 8661, 7376, 9165, 7980, 7044, 7556
9360, 6433, 3284, 6328, 6400, 9596, 8877, 8406, 8628, 7655, 8878
9361, 6433, 6328, 3284, 3201, 8406, 8877, 9596, 10081, 9943, 4888
9362, 6349, 3339, 3102, 3275, 7765, 4651, 8403, 8227, 4650, 4649
9363, 6349, 3102, 3339, 6303, 8403, 4651, 7765, 7761, 9733, 7763
9364, 1364, 6349, 1127, 1300, 7760, 8400, 2675, 2676, 7921, 2673
9365, 1127, 6349, 1364, 6303, 8400, 7760, 2675, 9734, 7761, 6771
9366, 6398, 2953, 3222, 6327, 8836, 3915, 9934, 8837, 8833, 9629
9367, 6398, 3222, 2953, 3217, 9934, 3915, 8836, 9622, 3914, 3652
9368, 6362, 1059, 1029, 1060, 9413, 2191, 7620, 9541, 2197, 2196
9369, 6362, 1029, 1059, 6277, 7620, 2191, 9413, 6657, 7741, 9414
9370, 5981, 6390, 5582, 5992, 9577, 8635, 11055, 6097, 8617, 8634
9371, 5582, 5598, 5981, 5992, 5659, 9573, 11055, 8634, 10403, 6097
9372, 5283, 1285, 6349, 1279, 10642, 7086, 8763, 8762, 1766, 7867
9373, 5283, 6349, 1285, 5255, 8763, 7086, 10642, 5350, 7574, 7573
9374, 3113, 6408, 3336, 846, 7288, 9587, 3570, 7421, 7423, 10690
9375, 3336, 6408, 3113, 3305, 9587, 7288, 3570, 4613, 6755, 4699
9376, 1138, 6408, 1361, 1330, 7290, 8522, 1595, 2725, 6750, 2638
9377, 1361, 6408, 1138, 845, 8522, 7290, 1595, 10689, 7426, 7425
9378, 6393, 6467, 1426, 1293, 10170, 10200, 11056, 6743, 10169, 2268
9379, 1426, 1265, 6393, 1293, 2934, 9628, 11056, 2268, 2935, 6743
9380, 5592, 1073, 6272, 5587, 10699, 7744, 8413, 5624, 8873, 8618
9381, 5592, 6272, 1073, 1205, 8413, 7744, 10699, 8412, 8414, 1713
9382, 6118, 6480, 6307, 3397, 10139, 10446, 9191, 9190, 10138, 9192
9383, 6307, 6480, 6118, 6419, 10446, 10139, 9191, 10301, 10877, 10443
9384, 6410, 641, 6306, 651, 9169, 9881, 8848, 9652, 4974, 9651
9385, 6410, 6306, 641, 6307, 8848, 9881, 9169, 8895, 8892, 9847
9386, 6127, 6128, 874, 6116, 6242, 6693, 9877, 6234, 6226, 8105
9387, 6127, 874, 6128, 6115, 9877, 6693, 6242, 6216, 6690, 6238
9388, 887, 2, 3083, 3279, 893, 3407, 11057, 10711, 3408, 3410
9389, 3083, 2, 887, 114, 3407, 893, 11057, 9773, 117, 894
9390, 3083, 3264, 887, 3279, 4561, 11058, 11057, 3410, 3896, 10711
9391, 887, 3264, 3083, 114, 11058, 4561, 11057, 894, 9774, 9773
9392, 6435, 3141, 6299, 6335, 9666, 11059, 7067, 7066, 9665, 7065
9393, 6435, 6299, 3141, 3288, 7067, 11059, 9666, 9089, 7832, 4786
9394, 6345, 6299, 3141, 6335, 7064, 11059, 9638, 6780, 7065, 9665
9395, 6345, 3141, 6299, 3288, 9638, 11059, 7064, 7833, 4786, 7832
9396, 6399, 3193, 6344, 6354, 10405, 7095, 8020, 8959, 7094, 7093
9397, 6399, 6344, 3193, 3195, 8020, 7095, 10405, 10315, 9612, 4856
9398, 6390, 5598, 5582, 830, 9576, 5659, 8635, 9204, 5603, 5657
9399, 6390, 5582, 5598, 5981, 8635, 5659, 9576, 9577, 11055, 9573
9400, 6380, 6484, 1270, 6293, 8313, 11052, 8872, 8169, 8312, 10226
9401, 1270, 6484, 6380, 6285, 11052, 8313, 8872, 8870, 7497, 6717
9402, 650, 6306, 6478, 640, 8846, 9124, 10996, 4972, 9882, 11030
9403, 6478, 6306, 650, 6404, 9124, 8846, 10996, 10847, 8845, 8844
9404, 6379, 3175, 6277, 3003, 10290, 8293, 6677, 9211, 4168, 9210
9405, 6379, 6277, 3175, 6359, 6677, 8293, 10290, 8330, 7209, 7155
9406, 888, 1289, 1108, 1303, 11060, 2586, 11061, 10614, 1920, 1435
9407, 1108, 1289, 888, 113, 2586, 11060, 11061, 9694, 9695, 890
9408, 1108, 1, 888, 1303, 1431, 891, 11061, 1435, 1434, 10614
9409, 888, 1, 1108, 113, 891, 1431, 11061, 890, 115, 9694
9410, 1289, 888, 6107, 1303, 11060, 10311, 11062, 1920, 10614, 10615
9411, 6107, 888, 1289, 6117, 10311, 11060, 11062, 6168, 9931, 10111
9412, 6107, 376, 1289, 1303, 6164, 1919, 11062, 10615, 1921, 1920
9413, 1289, 376, 6107, 6117, 1919, 6164, 11062, 10111, 6166, 6168
9414, 6427, 3032, 3336, 5708, 10241, 3795, 11063, 9796, 10895, 10691
9415, 3336, 3032, 6427, 6247, 3795, 10241, 11063, 9586, 10046, 6665
9416, 3336, 6408, 6427, 5708, 9587, 9794, 11063, 10691, 9795, 9796
9417, 6427, 6408, 3336, 6247, 9794, 9587, 11063, 6665, 8523, 9586
9418, 6353, 3146, 3356, 6315, 8854, 4801, 8109, 6576, 8853, 7333
9419, 6353, 3356, 3146, 3145, 8109, 4801, 8854, 9627, 4800, 3780
9420, 1038, 750, 6365, 1346, 10823, 10336, 11064, 1493, 10822, 8703
9421, 6365, 750, 1038, 6407, 10336, 10823, 11064, 10813, 11002, 10500
9422, 6365, 1318, 1038, 1346, 8702, 2241, 11064, 8703, 2242, 1493
9423, 1038, 1318, 6365, 6407, 2241, 8702, 11064, 10500, 10126, 10813
9424, 5594, 3180, 6272, 5583, 10708, 8902, 7076, 5646, 10173, 9916
9425, 6272, 3180, 5594, 3048, 8902, 10708, 7076, 7077, 3688, 7075
9426, 6444, 3175, 6296, 6359, 9891, 11065, 7896, 7626, 7155, 7635
9427, 6444, 6296, 3175, 3226, 7896, 11065, 9891, 10121, 10120, 4619
9428, 3097, 6296, 3175, 6359, 7634, 11065, 4321, 7512, 7635, 7155
9429, 3097, 3175, 6296, 3226, 4321, 11065, 7634, 4620, 4619, 10120
9430, 1126, 6468, 335, 1183, 8272, 10695, 1840, 1841, 9110, 1842
9431, 335, 6468, 1126, 5836, 10695, 8272, 1840, 5879, 8273, 8271
9432, 3264, 887, 6110, 6118, 11058, 10381, 11066, 10137, 10379, 6195
9433, 6110, 887, 3264, 3279, 10381, 11058, 11066, 10713, 10711, 3896
9434, 6110, 593, 3264, 6118, 6190, 3893, 11066, 6195, 6194, 10137
9435, 3264, 593, 6110, 3279, 3893, 6190, 11066, 3896, 3895, 10713
9436, 1291, 6422, 1305, 840, 9556, 11067, 1789, 9558, 9557, 10086
9437, 1291, 1305, 6422, 5699, 1789, 11067, 9556, 10849, 10143, 9975
9438, 5600, 1305, 6422, 840, 10141, 11067, 9976, 5606, 10086, 9557
9439, 5600, 6422, 1305, 5699, 9976, 11067, 10141, 9974, 9975, 10143
9440, 84, 5597, 3081, 841, 5611, 11068, 3492, 844, 5612, 9648
9441, 84, 3081, 5597, 3281, 3492, 11068, 5611, 3493, 3495, 9956
9442, 3266, 3081, 5597, 841, 4556, 11068, 9954, 9649, 9648, 5612
9443, 3266, 5597, 3081, 3281, 9954, 11068, 4556, 3765, 9956, 3495
9444, 6306, 1351, 1089, 1297, 6953, 1449, 7599, 6954, 2280, 2493
9445, 6306, 1089, 1351, 610, 7599, 1449, 6953, 10568, 10567, 10841
9446, 6457, 3297, 6350, 3338, 10634, 8476, 8395, 10715, 4783, 10318
9447, 6457, 6350, 3297, 6326, 8395, 8476, 10634, 9095, 8475, 8477
9448, 5848, 6468, 1145, 5830, 10343, 10359, 7417, 5944, 10360, 9536
9449, 1145, 6468, 5848, 6256, 10359, 10343, 7417, 7420, 7905, 7419
9450, 6304, 3325, 3063, 816, 7036, 3504, 7659, 10590, 10844, 10589
9451, 6304, 3063, 3325, 3267, 7659, 3504, 7036, 7038, 4462, 4239
9452, 5700, 1057, 320, 5709, 6939, 1818, 5750, 5752, 6662, 5718
9453, 5700, 320, 1057, 1036, 5750, 1818, 6939, 6979, 1813, 1819
9454, 6479, 6304, 6393, 786, 9222, 9821, 11069, 11033, 10135, 10136
9455, 6393, 6304, 6479, 6411, 9821, 9222, 11069, 10285, 9756, 10856
9456, 6393, 776, 6479, 786, 10494, 10998, 11069, 10136, 5529, 11033
9457, 6479, 776, 6393, 6411, 10998, 10494, 11069, 10856, 10726, 10285
9458, 6417, 1381, 1347, 1104, 7034, 2572, 10055, 8283, 2567, 2570
9459, 6417, 1347, 1381, 6315, 10055, 2572, 7034, 6741, 7314, 7032
9460, 5597, 6422, 3266, 841, 10079, 7717, 9954, 5612, 9650, 9649
9461, 3266, 6422, 5597, 5698, 7717, 10079, 9954, 9953, 9883, 9955
9462, 6422, 6305, 1421, 5699, 10348, 7788, 11070, 9975, 8906, 8905
9463, 1421, 6305, 6422, 6481, 7788, 10348, 11070, 10456, 10457, 9561
9464, 1421, 1291, 6422, 5699, 1796, 9556, 11070, 8905, 10849, 9975
9465, 6422, 1291, 1421, 6481, 9556, 1796, 11070, 9561, 9559, 10456
9466, 6346, 6364, 6321, 6257, 9737, 7471, 7447, 8130, 9001, 8127
9467, 6346, 6321, 6364, 6401, 7447, 7471, 9737, 7452, 7450, 9740
9468, 888, 6419, 1289, 6117, 9922, 7792, 11060, 9931, 9865, 10111
9469, 1289, 6419, 888, 113, 7792, 9922, 11060, 9695, 9696, 890
9470, 6453, 5283, 983, 5259, 10256, 8761, 9313, 9915, 5353, 9913
9471, 6453, 983, 5283, 6349, 9313, 8761, 10256, 7858, 8764, 8763
9472, 6464, 3144, 6283, 3393, 10814, 6835, 7990, 10625, 3967, 9275
9473, 6464, 6283, 3144, 6339, 7990, 6835, 10814, 8931, 6899, 6729
9474, 1172, 860, 60, 1266, 9200, 862, 1611, 1616, 9338, 1614
9475, 60, 860, 1172, 6123, 862, 9200, 1611, 6133, 6137, 9046
9476, 6482, 1415, 1288, 6424, 8578, 1848, 9709, 8579, 8577, 9707
9477, 6482, 1288, 1415, 5831, 9709, 1848, 8578, 9074, 10197, 9072
9478, 3241, 6124, 6352, 861, 10757, 8582, 9471, 9234, 6143, 9346
9479, 6352, 6124, 3241, 3147, 8582, 10757, 9471, 9385, 9227, 3591
9480, 6411, 3238, 3099, 3239, 10268, 3775, 9755, 10269, 4632, 4631
9481, 6411, 3099, 3238, 6260, 9755, 3775, 10268, 7824, 9754, 8181
9482, 2965, 6394, 3259, 3221, 9781, 9588, 3979, 3753, 10048, 3978
9483, 3259, 6394, 2965, 6322, 9588, 9781, 3979, 8249, 9182, 9005
9484, 6406, 800, 6248, 790, 10106, 10032, 10545, 10945, 5542, 10427
9485, 6406, 6248, 800, 6390, 10545, 10032, 10106, 9449, 9749, 10033
9486, 6411, 766, 765, 756, 10357, 768, 11071, 9479, 5509, 5510
9487, 765, 766, 6411, 6393, 768, 10357, 11071, 9961, 10725, 10285
9488, 765, 755, 6411, 756, 5507, 10284, 11071, 5510, 758, 9479
9489, 6411, 755, 765, 6393, 10284, 5507, 11071, 10285, 10282, 9961
9490, 6480, 6118, 114, 3264, 10139, 11072, 9777, 9776, 10137, 9774
9491, 6480, 114, 6118, 6419, 9777, 11072, 10139, 10877, 10913, 10443
9492, 887, 114, 6118, 3264, 894, 11072, 10379, 11058, 9774, 10137
9493, 6446, 3242, 6251, 6410, 10801, 11073, 9237, 10432, 10515, 8894
9494, 6446, 6251, 3242, 3241, 9237, 11073, 10801, 9235, 9232, 4637
9495, 3100, 6251, 3242, 6410, 8980, 11073, 4636, 9337, 8894, 10515
9496, 3100, 3242, 6251, 3241, 4636, 11073, 8980, 3589, 4637, 9232
9497, 6458, 1408, 6413, 977, 10641, 9552, 8323, 10438, 1935, 10436
9498, 6458, 6413, 1408, 6334, 8323, 9552, 10641, 7704, 7648, 9551
9499, 6456, 1091, 6254, 1286, 10703, 9925, 8473, 8968, 2502, 10228
9500, 6456, 6254, 1091, 6402, 8473, 9925, 10703, 10478, 7604, 10069
9501, 6447, 3247, 3289, 3271, 10509, 4824, 8626, 8625, 4735, 4252
9502, 6447, 3289, 3247, 6329, 8626, 4824, 10509, 10669, 10608, 9688
9503, 681, 6410, 680, 671, 9784, 11074, 683, 5004, 9615, 5005
9504, 681, 680, 6410, 6251, 683, 11074, 9784, 10501, 10440, 8894
9505, 670, 680, 6410, 671, 5002, 11074, 10304, 673, 5005, 9615
9506, 670, 6410, 680, 6251, 10304, 11074, 5002, 10303, 8894, 10440
9507, 871, 6107, 880, 6129, 10601, 10666, 958, 9919, 6218, 10667
9508, 871, 880, 6107, 877, 958, 10666, 10601, 957, 959, 9856
9509, 6430, 1267, 6251, 1266, 10004, 11075, 9442, 9339, 2661, 9495
9510, 6430, 6251, 1267, 6404, 9442, 11075, 10004, 8927, 9006, 10003
9511, 1125, 6251, 1267, 1266, 9829, 11075, 2662, 1615, 9495, 2661
9512, 1125, 1267, 6251, 6404, 2662, 11075, 9829, 10213, 10003, 9006
9513, 5690, 3039, 535, 5704, 9028, 3785, 5774, 5775, 6922, 5768
9514, 535, 3039, 5690, 2959, 3785, 9028, 5774, 3783, 3786, 7183
9515, 3053, 711, 71, 5069, 8644, 714, 3454, 7010, 5084, 5083
9516, 3053, 71, 711, 3309, 3454, 714, 8644, 3458, 3457, 8487
9517, 606, 108, 6471, 6447, 609, 11076, 11036, 11044, 10983, 10989
9518, 3062, 108, 6471, 3084, 3564, 11076, 10978, 3565, 3415, 10979
9519, 3062, 6471, 108, 6447, 10978, 11076, 3564, 10984, 10989, 10983
9520, 3243, 6463, 3273, 3400, 10190, 9848, 4919, 4917, 10189, 4271
9521, 3273, 6463, 3243, 6307, 9848, 10190, 4919, 9846, 9850, 9981
9522, 6467, 1265, 6393, 1426, 10199, 9628, 10170, 10200, 2934, 11056
9523, 6467, 6393, 1265, 6305, 10170, 9628, 10199, 10676, 9437, 10534
9524, 5286, 3213, 6363, 2964, 10656, 7738, 10025, 10021, 3732, 10023
9525, 5286, 6363, 3213, 5267, 10025, 7738, 10656, 5396, 8138, 8461
9526, 6396, 6270, 6355, 6365, 8490, 11077, 9811, 9813, 8789, 9808
9527, 6396, 6355, 6270, 6441, 9811, 11077, 8490, 10390, 10377, 8287
9528, 6248, 6355, 6270, 6365, 10383, 11077, 8284, 10345, 9808, 8789
9529, 6248, 6270, 6355, 6441, 8284, 11077, 10383, 8286, 8287, 10377
9530, 6346, 655, 646, 656, 10787, 4980, 10517, 10792, 658, 4979
9531, 6346, 646, 655, 6257, 10517, 4980, 10787, 8130, 10684, 10786
9532, 1078, 710, 19, 1334, 8239, 712, 1480, 1483, 8240, 1481
9533, 19, 710, 1078, 5072, 712, 8239, 1480, 5076, 5078, 7535
9534, 6355, 770, 781, 771, 10797, 5525, 10693, 10853, 773, 5524
9535, 6355, 781, 770, 6248, 10693, 5525, 10797, 10383, 10692, 10795
9536, 880, 6129, 887, 871, 10667, 10380, 931, 958, 9919, 905
9537, 880, 887, 6129, 6110, 931, 10380, 10667, 10688, 10381, 6236
9538, 6448, 353, 5969, 1370, 10885, 6015, 10636, 10635, 1864, 9926
9539, 6448, 5969, 353, 5978, 10636, 6015, 10885, 10824, 6017, 6013
9540, 3052, 716, 97, 5294, 9203, 719, 3534, 7250, 5307, 5306
9541, 97, 716, 3052, 3310, 719, 9203, 3534, 3537, 9217, 3538
9542, 6407, 1040, 1315, 6406, 10904, 2250, 10644, 10643, 10829, 10292
9543, 6407, 1315, 1040, 1336, 10644, 2250, 10904, 10906, 2253, 1502
9544, 6446, 700, 5031, 701, 10873, 5195, 10527, 10899, 703, 5196
9545, 6446, 5031, 700, 6430, 10527, 5195, 10873, 10442, 8933, 10872
9546, 6430, 680, 1045, 690, 10439, 9524, 8629, 10051, 5012, 10049
9547, 6430, 1045, 680, 6404, 8629, 9524, 10439, 8927, 7377, 9525
9548, 6458, 267, 5254, 5288, 10936, 5329, 9634, 10766, 5323, 5330
9549, 6458, 5254, 267, 977, 9634, 5329, 10936, 10438, 10437, 1746
9550, 5853, 5852, 6376, 5833, 5935, 7752, 10230, 5959, 5956, 10544
9551, 5853, 6376, 5852, 5828, 10230, 7752, 5935, 5933, 8046, 5932
9552, 5988, 5993, 6271, 5973, 6079, 6513, 6999, 6086, 6099, 8263
9553, 5988, 6271, 5993, 5968, 6999, 6513, 6079, 6075, 6512, 6078
9554, 5989, 5990, 6402, 5971, 6094, 7173, 11078, 6091, 6092, 7172
9555, 6402, 5990, 5989, 5975, 7173, 6094, 11078, 10070, 6081, 6087
9556, 6402, 6254, 5989, 5971, 7604, 7482, 11078, 7172, 7481, 6091
9557, 5989, 6254, 6402, 5975, 7482, 7604, 11078, 6087, 7836, 10070
9558, 5851, 5850, 6257, 5836, 5955, 9679, 9144, 5942, 5948, 9000
9559, 5851, 6257, 5850, 5832, 9144, 9679, 5955, 5953, 8128, 5952
9560, 6390, 800, 1086, 810, 10033, 10105, 8615, 10820, 5552, 10836
9561, 6390, 1086, 800, 6406, 8615, 10105, 10033, 9449, 7680, 10106
9562, 3084, 126, 3280, 6, 11046, 11022, 3418, 3414, 129, 3417
9563, 3084, 3280, 126, 6471, 3418, 11022, 11046, 10979, 10254, 10406
9564, 6447, 646, 6329, 636, 10518, 10683, 10669, 10935, 4969, 10743
9565, 6447, 6329, 646, 6346, 10669, 10683, 10518, 9060, 8174, 10517
9566, 605, 1087, 1109, 56, 11025, 1590, 10922, 607, 1589, 1439
9567, 605, 1109, 1087, 6424, 10922, 1590, 11025, 10923, 9708, 10931
9568, 6407, 750, 6248, 6365, 11002, 11079, 10878, 10813, 10336, 10345
9569, 6407, 6248, 750, 760, 10878, 11079, 11002, 10991, 10796, 5502
9570, 6355, 6248, 750, 6365, 10383, 11079, 10335, 9808, 10345, 10336
9571, 6355, 750, 6248, 760, 10335, 11079, 10383, 10572, 5502, 10796
9572, 6407, 780, 6248, 770, 11043, 10816, 10878, 10992, 5522, 10795
9573, 6407, 6248, 780, 6406, 10878, 10816, 11043, 10643, 10545, 10946
9574, 5852, 5848, 6275, 5839, 5964, 7544, 7150, 5957, 5943, 7546
9575, 5852, 6275, 5848, 5838, 7150, 7544, 5964, 5931, 7152, 5963
9576, 5987, 5991, 6448, 5977, 6103, 9619, 8554, 6102, 6070, 8555
9577, 5987, 6448, 5991, 5978, 8554, 9619, 6103, 6082, 10824, 6096
9578, 5990, 5987, 6272, 5976, 6084, 8827, 8529, 6093, 6101, 6868
9579, 5990, 6272, 5987, 5969, 8529, 8827, 6084, 6080, 9052, 6083
9580, 5848, 5851, 6468, 5830, 5945, 9933, 10343, 5944, 5941, 10360
9581, 5848, 6468, 5851, 5837, 10343, 9933, 5945, 5962, 7904, 5954
9582, 5989, 5988, 6258, 5970, 6089, 6853, 8380, 6088, 6085, 6852
9583, 5989, 6258, 5988, 5974, 8380, 6853, 6089, 6090, 6858, 6076
9584, 6455, 771, 3311, 6440, 11045, 10960, 10887, 10901, 10961, 10744
9585, 6455, 3311, 771, 781, 10887, 10960, 11045, 10818, 10988, 5524
9586, 606, 6447, 6329, 616, 11044, 10669, 11080, 4939, 11039, 10808
9587, 6329, 6447, 606, 6471, 10669, 11044, 11080, 10617, 10989, 11036
9588, 6329, 6482, 606, 616, 10594, 10999, 11080, 10808, 10809, 4939
9589, 606, 6482, 6329, 6471, 10999, 10594, 11080, 11036, 9991, 10617
9590, 6260, 745, 1325, 735, 10621, 8355, 6683, 7928, 5487, 7927
9591, 6260, 1325, 745, 6393, 6683, 8355, 10621, 9490, 8153, 8356
9592, 552, 3372, 5832, 3158, 3810, 11081, 5905, 3816, 3818, 9686
9593, 552, 5832, 3372, 5837, 5905, 11081, 3810, 5901, 5906, 9039
9594, 6321, 5832, 3372, 3158, 8126, 11081, 11051, 9540, 9686, 3818
9595, 6321, 3372, 5832, 5837, 11051, 11081, 8126, 7902, 9039, 5906
9596, 871, 114, 6129, 887, 902, 11082, 9919, 905, 894, 10380
9597, 871, 6129, 114, 6419, 9919, 11082, 902, 9923, 9921, 10913
9598, 6118, 6129, 114, 887, 6235, 11082, 11072, 10379, 10380, 894
9599, 6118, 114, 6129, 6419, 11072, 11082, 6235, 10443, 10913, 9921
9600, 108, 6471, 126, 606, 11076, 10406, 4927, 609, 11036, 4929
9601, 108, 126, 6471, 3084, 4927, 10406, 11076, 3415, 11046, 10979
9602, 605, 1087, 615, 6424, 11025, 11083, 4937, 10923, 10931, 10827
9603, 615, 1087, 605, 55, 11083, 11025, 4937, 617, 1587, 4936
9604, 1087, 625, 615, 6424, 11084, 4947, 11083, 10931, 10592, 10827
9605, 615, 625, 1087, 55, 4947, 11084, 11083, 617, 4946, 1587
9606, 1087, 54, 625, 6424, 1586, 627, 11084, 10931, 10944, 10592
9607, 625, 54, 1087, 55, 627, 1586, 11084, 4946, 309, 1587
*NSET, NSET=FIX
57,
59,
109,
111,
312,
313,
314,
315,
316,
317,
318,
319,
320,
321,
322,
323,
324,
325,
326,
327,
328,
329,
330,
350,
351,
352,
353,
354,
355,
356,
357,
358,
359,
360,
361,
362,
363,
364,
365,
366,
367,
368,
529,
530,
531,
532,
533,
534,
535,
536,
537,
538,
539,
540,
541,
542,
543,
544,
545,
546,
547,
567,
568,
569,
570,
571,
572,
573,
574,
575,
576,
577,
578,
579,
580,
581,
582,
583,
584,
585,
845,
846,
847,
848,
849,
855,
856,
857,
858,
859,
5687,
5688,
5689,
5690,
5691,
5692,
5693,
5694,
5695,
5696,
5697,
5698,
5699,
5700,
5701,
5702,
5703,
5704,
5705,
5706,
5707,
5708,
5709,
5710,
5711,
5712,
5713,
5714,
5715,
5716,
5717,
5718,
5719,
5720,
5721,
5722,
5723,
5724,
5725,
5726,
5727,
5728,
5729,
5730,
5731,
5732,
5733,
5734,
5735,
5736,
5737,
5738,
5739,
5740,
5741,
5742,
5743,
5744,
5745,
5746,
5747,
5748,
5749,
5750,
5751,
5752,
5753,
5754,
5755,
5756,
5757,
5758,
5759,
5760,
5761,
5762,
5763,
5764,
5765,
5766,
5767,
5768,
5769,
5770,
5771,
5772,
5773,
5774,
5775,
5776,
5777,
5778,
5779,
5780,
5781,
5782,
5783,
5784,
5785,
5786,
5787,
5788,
5789,
5790,
5791,
5792,
5793,
5794,
5795,
5796,
5797,
5798,
5799,
5800,
5801,
5802,
5803,
5804,
5805,
5806,
5807,
5808,
5809,
5810,
5811,
5812,
5813,
5814,
5815,
5816,
5817,
5818,
5819,
5820,
5821,
5822,
5823,
5824,
5825,
5965,
5966,
5967,
5968,
5969,
5970,
5971,
5972,
5973,
5974,
5975,
5976,
5977,
5978,
5979,
5980,
5981,
5982,
5983,
5984,
5985,
5986,
5987,
5988,
5989,
5990,
5991,
5992,
5993,
5994,
5995,
5996,
5997,
5998,
5999,
6000,
6001,
6002,
6003,
6004,
6005,
6006,
6007,
6008,
6009,
6010,
6011,
6012,
6013,
6014,
6015,
6016,
6017,
6018,
6019,
6020,
6021,
6022,
6023,
6024,
6025,
6026,
6027,
6028,
6029,
6030,
6031,
6032,
6033,
6034,
6035,
6036,
6037,
6038,
6039,
6040,
6041,
6042,
6043,
6044,
6045,
6046,
6047,
6048,
6049,
6050,
6051,
6052,
6053,
6054,
6055,
6056,
6057,
6058,
6059,
6060,
6061,
6062,
6063,
6064,
6065,
6066,
6067,
6068,
6069,
6070,
6071,
6072,
6073,
6074,
6075,
6076,
6077,
6078,
6079,
6080,
6081,
6082,
6083,
6084,
6085,
6086,
6087,
6088,
6089,
6090,
6091,
6092,
6093,
6094,
6095,
6096,
6097,
6098,
6099,
6100,
6101,
6102,
6103,
*MATERIAL, NAME=MAT
*ELASTIC
3500, 0.36
*SOLID SECTION, ELSET=EALL, MATERIAL=MAT
*STEP
*STATIC
*BOUNDARY
FIX, 1, 3, 0.0
*CLOAD
340, 1, -9.72154752e-06
340, 2, 0.0223777677
340, 3, -0.0480578769
341, 1, -1.33166469e-05
341, 2, 0.0306532299
341, 3, -0.0658300312
342, 1, -1.28782706e-05
342, 2, 0.0296441432
342, 3, -0.0636629446
343, 1, -1.28782706e-05
343, 2, 0.0296441432
343, 3, -0.0636629446
344, 1, -1.28782706e-05
344, 2, 0.0296441432
344, 3, -0.0636629446
345, 1, -1.28782706e-05
345, 2, 0.0296441432
345, 3, -0.0636629446
346, 1, -1.28533123e-05
346, 2, 0.0295866925
346, 3, -0.0635395649
347, 1, -1.27247366e-05
347, 2, 0.0292907275
347, 3, -0.0629039586
348, 1, -1.33754464e-05
348, 2, 0.0307885788
348, 3, -0.0661207028
349, 1, -1.00790452e-05
349, 2, 0.0232006819
349, 3, -0.0498251446
378, 1, -9.70603262e-06
378, 2, 0.0223420544
378, 3, -0.0479811799
379, 1, -1.32419293e-05
379, 2, 0.0304812395
379, 3, -0.0654606693
380, 1, -1.22736609e-05
380, 2, 0.0282524085
380, 3, -0.0606740934
381, 1, -1.2133028e-05
381, 2, 0.0279286895
381, 3, -0.0599788833
382, 1, -1.26171968e-05
382, 2, 0.0290431846
382, 3, -0.0623723423
383, 1, -1.38557539e-05
383, 2, 0.0318941857
383, 3, -0.0684950736
384, 1, -1.28782706e-05
384, 2, 0.0296441432
384, 3, -0.0636629446
385, 1, -1.28782706e-05
385, 2, 0.0296441432
385, 3, -0.0636629446
386, 1, -1.34347057e-05
386, 2, 0.0309249862
386, 3, -0.0664136475
387, 1, -1.00790452e-05
387, 2, 0.0232006819
387, 3, -0.0498251446
557, 1, -9.83233381e-06
557, 2, 0.0226327837
557, 3, -0.0486055421
558, 1, -1.33754464e-05
558, 2, 0.0307885788
558, 3, -0.0661207028
559, 1, -1.24918356e-05
559, 2, 0.0287546191
559, 3, -0.0617526271
560, 1, -1.28782706e-05
560, 2, 0.0296441432
560, 3, -0.0636629446
561, 1, -1.28782706e-05
561, 2, 0.0296441432
561, 3, -0.0636629446
562, 1, -1.25104212e-05
562, 2, 0.0287974007
562, 3, -0.0618445036
563, 1, -1.28782706e-05
563, 2, 0.0296441432
563, 3, -0.0636629446
564, 1, -1.31875034e-05
564, 2, 0.0303559579
564, 3, -0.065191618
565, 1, -1.33166469e-05
565, 2, 0.0306532299
565, 3, -0.0658300312
566, 1, -1.00790452e-05
566, 2, 0.0232006819
566, 3, -0.0498251446
595, 1, -9.70579727e-06
595, 2, 0.0223415127
595, 3, -0.0479800165
596, 1, -1.32410155e-05
596, 2, 0.0304791361
596, 3, -0.0654561521
597, 1, -1.16140866e-05
597, 2, 0.0267341522
597, 3, -0.0574135281
598, 1, -1.07017071e-05
598, 2, 0.0246339706
598, 3, -0.052903236
599, 1, -9.02981188e-06
599, 2, 0.0207854801
599, 3, -0.0446383239
600, 1, -1.27172818e-05
600, 2, 0.0292735675
600, 3, -0.0628671064
601, 1, -1.23282924e-05
601, 2, 0.0283781634
601, 3, -0.0609441612
602, 1, -1.24918356e-05
602, 2, 0.0287546191
602, 3, -0.0617526271
603, 1, -1.32495117e-05
603, 2, 0.0304986933
603, 3, -0.0654981526
604, 1, -1.00790452e-05
604, 2, 0.0232006819
604, 3, -0.0498251446
852, 1, -1.89831986e-05
852, 2, 0.0436969122
852, 3, -0.0938422836
853, 1, -2.26612897e-05
853, 2, 0.0521634108
853, 3, -0.112024703
854, 1, -1.91053069e-05
854, 2, 0.0439779901
854, 3, -0.0944459187
862, 1, -1.89846118e-05
862, 2, 0.0437001653
862, 3, -0.09384927
863, 1, -2.26612897e-05
863, 2, 0.0521634108
863, 3, -0.112024703
864, 1, -1.89919687e-05
864, 2, 0.0437170999
864, 3, -0.0938856381
5855, 1, -1.90212509e-05
5855, 2, 0.0437845039
5855, 3, -0.0940303931
5856, 1, -1.91359856e-05
5856, 2, 0.0440486086
5856, 3, -0.0945975771
5857, 1, -1.93882302e-05
5857, 2, 0.0446292435
5857, 3, -0.0958445325
5858, 1, -1.97625403e-05
5858, 2, 0.0454908579
5858, 3, -0.097694912
5859, 1, -1.74362124e-05
5859, 2, 0.0401359464
5859, 3, -0.0861948517
5860, 1, -1.77144279e-05
5860, 2, 0.0407763631
5860, 3, -0.087570193
5861, 1, -1.92649917e-05
5861, 2, 0.0443455641
5861, 3, -0.0952353106
5862, 1, -1.92541456e-05
5862, 2, 0.0443205977
5862, 3, -0.0951816935
5863, 1, -1.97625403e-05
5863, 2, 0.0454908579
5863, 3, -0.097694912
5864, 1, -1.93096328e-05
5864, 2, 0.0444483223
5864, 3, -0.0954559913
5865, 1, -1.75271582e-05
5865, 2, 0.0403452923
5865, 3, -0.0866444371
5866, 1, -1.77144279e-05
5866, 2, 0.0407763631
5866, 3, -0.087570193
5867, 1, -2.2731085e-05
5867, 2, 0.0523240707
5867, 3, -0.112369731
5868, 1, -2.63998109e-05
5868, 2, 0.0607690118
5868, 3, -0.130505854
5869, 1, -1.84086685e-05
5869, 2, 0.0423744169
5869, 3, -0.0910021292
5870, 1, -2.59614346e-05
5870, 2, 0.0597599252
5870, 3, -0.128338767
5871, 1, -2.57565411e-05
5871, 2, 0.0592882865
5871, 3, -0.127325889
5872, 1, -2.10445759e-05
5872, 2, 0.0484419409
5872, 3, -0.104032576
5873, 1, -2.57565411e-05
5873, 2, 0.0592882865
5873, 3, -0.127325889
5874, 1, -2.57565411e-05
5874, 2, 0.0592882865
5874, 3, -0.127325889
5875, 1, -2.10451257e-05
5875, 2, 0.0484432066
5875, 3, -0.104035295
5876, 1, -2.57565411e-05
5876, 2, 0.0592882865
5876, 3, -0.127325889
5877, 1, -2.57565411e-05
5877, 2, 0.0592882865
5877, 3, -0.127325889
5878, 1, -2.10356478e-05
5878, 2, 0.0484213897
5878, 3, -0.103988441
5879, 1, -2.57565411e-05
5879, 2, 0.0592882865
5879, 3, -0.127325889
5880, 1, -2.57565411e-05
5880, 2, 0.0592882865
5880, 3, -0.127325889
5881, 1, -2.10439546e-05
5881, 2, 0.0484405108
5881, 3, -0.104029505
5882, 1, -2.57315829e-05
5882, 2, 0.0592308358
5882, 3, -0.12720251
5883, 1, -2.68739305e-05
5883, 2, 0.061860375
5883, 3, -0.132849635
5884, 1, -2.106178e-05
5884, 2, 0.0484815427
5884, 3, -0.104117624
5885, 1, -2.67453548e-05
5885, 2, 0.0615644099
5885, 3, -0.132214029
5886, 1, -2.43938134e-05
5886, 2, 0.0561514603
5886, 3, -0.120589328
5887, 1, -2.31036462e-05
5887, 2, 0.0531816594
5887, 3, -0.114211465
5888, 1, -2.50445231e-05
5888, 2, 0.0576493115
5888, 3, -0.123806072
5889, 1, -2.26846314e-05
5889, 2, 0.0522171404
5889, 3, -0.112140091
5890, 1, -1.88880018e-05
5890, 2, 0.0434777813
5890, 3, -0.0933716842
5891, 1, -1.78961788e-05
5891, 2, 0.0411947308
5891, 3, -0.0884686679
5892, 1, -2.62575553e-05
5892, 2, 0.0604415575
5892, 3, -0.129802622
5893, 1, -2.28081042e-05
5893, 2, 0.0525013592
5893, 3, -0.112750471
5894, 1, -1.83395702e-05
5894, 2, 0.0422153614
5894, 3, -0.0906605459
5895, 1, -2.51416663e-05
5895, 2, 0.0578729227
5895, 3, -0.124286293
5896, 1, -2.53739446e-05
5896, 2, 0.0584075979
5896, 3, -0.125434547
5897, 1, -2.0980367e-05
5897, 2, 0.0482941403
5897, 3, -0.103715164
5898, 1, -2.57565411e-05
5898, 2, 0.0592882865
5898, 3, -0.127325889
5899, 1, -2.55281012e-05
5899, 2, 0.0587624468
5899, 3, -0.12619661
5900, 1, -2.10186789e-05
5900, 2, 0.0483823295
5900, 3, -0.103904557
5901, 1, -2.55716339e-05
5901, 2, 0.0588626535
5901, 3, -0.126411811
5902, 1, -2.57565411e-05
5902, 2, 0.0592882865
5902, 3, -0.127325889
5903, 1, -2.10879199e-05
5903, 2, 0.0485417134
5903, 3, -0.104246845
5904, 1, -2.52057939e-05
5904, 2, 0.0580205364
5904, 3, -0.124603304
5905, 1, -2.52037845e-05
5905, 2, 0.058015911
5905, 3, -0.124593371
5906, 1, -2.10768334e-05
5906, 2, 0.0485161936
5906, 3, -0.10419204
5907, 1, -2.69505658e-05
5907, 2, 0.0620367797
5907, 3, -0.133228477
5908, 1, -2.55736433e-05
5908, 2, 0.0588672789
5908, 3, -0.126421745
5909, 1, -2.10632002e-05
5909, 2, 0.0484848117
5909, 3, -0.104124645
5910, 1, -2.53495983e-05
5910, 2, 0.0583515559
5910, 3, -0.125314192
5911, 1, -2.72597986e-05
5911, 2, 0.0627485943
5911, 3, -0.134757151
5912, 1, -2.27665704e-05
5912, 2, 0.0524057537
5912, 3, -0.112545152
5913, 1, -2.25472345e-05
5913, 2, 0.0519008703
5913, 3, -0.111460878
5914, 1, -2.54787418e-05
5914, 2, 0.0586488279
5914, 3, -0.125952605
5915, 1, -1.92927576e-05
5915, 2, 0.0444094777
5915, 3, -0.0953725696
5916, 1, -1.77593022e-05
5916, 2, 0.0408796582
5916, 3, -0.0877920266
5917, 1, -1.94359913e-05
5917, 2, 0.0447391836
5917, 3, -0.096080637
5918, 1, -1.94671538e-05
5918, 2, 0.0448109156
5918, 3, -0.0962346867
5919, 1, -1.93615775e-05
5919, 2, 0.0445678925
5919, 3, -0.0957127769
5920, 1, -1.93615775e-05
5920, 2, 0.0445678925
5920, 3, -0.0957127769
5921, 1, -1.71307393e-05
5921, 2, 0.0394327863
5921, 3, -0.0846847644
5922, 1, -1.66179265e-05
5922, 2, 0.0382523563
5922, 3, -0.0821497056
5923, 1, -1.70122588e-05
5923, 2, 0.0391600592
5923, 3, -0.0840990632
5924, 1, -1.65596472e-05
5924, 2, 0.0381182048
5924, 3, -0.0818616054
5925, 1, -1.96245909e-05
5925, 2, 0.045173316
5925, 3, -0.0970129677
5926, 1, -1.85502753e-05
5926, 2, 0.0427003779
5926, 3, -0.091702154
5927, 1, -1.9711909e-05
5927, 2, 0.0453743111
5927, 3, -0.0974446192
5928, 1, -1.93046725e-05
5928, 2, 0.0444369043
5928, 3, -0.0954314703
5929, 1, -1.79466746e-05
5929, 2, 0.0413109655
5929, 3, -0.0887182904
5930, 1, -1.92463932e-05
5930, 2, 0.0443027527
5930, 3, -0.0951433701
5931, 1, -1.65622921e-05
5931, 2, 0.0381242929
5931, 3, -0.0818746801
5932, 1, -1.68596824e-05
5932, 2, 0.0388088476
5932, 3, -0.0833448109
5933, 1, -1.65890921e-05
5933, 2, 0.0381859832
5933, 3, -0.0820071645
5934, 1, -1.59308548e-05
5934, 2, 0.0366708044
5934, 3, -0.0787532083
5935, 1, -1.65845884e-05
5935, 2, 0.0381756163
5935, 3, -0.0819849007
5936, 1, -1.71573556e-05
5936, 2, 0.0394940536
5936, 3, -0.0848163405
5937, 1, -1.64710931e-05
5937, 2, 0.0379143645
5937, 3, -0.0814238436
5938, 1, -1.43596585e-05
5938, 2, 0.0330541102
5938, 3, -0.0709860955
5939, 1, -1.5593743e-05
5939, 2, 0.035894816
5939, 3, -0.077086717
5940, 1, -1.74979915e-05
5940, 2, 0.0402781541
5940, 3, -0.0865002531
5941, 1, -1.63246062e-05
5941, 2, 0.0375771703
5941, 3, -0.0806996946
5942, 1, -1.63257834e-05
5942, 2, 0.03757988
5942, 3, -0.080705514
5943, 1, -1.63080969e-05
5943, 2, 0.0375391679
5943, 3, -0.0806180818
5944, 1, -1.63162995e-05
5944, 2, 0.0375580492
5944, 3, -0.0806586307
5945, 1, -1.63617936e-05
5945, 2, 0.037662771
5945, 3, -0.0808835283
5946, 1, -1.68831309e-05
5946, 2, 0.0388628231
5946, 3, -0.0834607271
5947, 1, -1.81179391e-05
5947, 2, 0.0417051947
5947, 3, -0.0895649261
5948, 1, -1.63436089e-05
5948, 2, 0.0376209119
5948, 3, -0.080793633
5949, 1, -1.59836123e-05
5949, 2, 0.0367922456
5949, 3, -0.0790140121
5950, 1, -1.55769208e-05
5950, 2, 0.0358560934
5950, 3, -0.0770035573
5951, 1, -1.61446454e-05
5951, 2, 0.0371629232
5951, 3, -0.0798100691
5952, 1, -1.69108574e-05
5952, 2, 0.0389266459
5952, 3, -0.0835977913
5953, 1, -1.69265e-05
5953, 2, 0.0389626532
5953, 3, -0.0836751197
5954, 1, -1.65863415e-05
5954, 2, 0.0381796516
5954, 3, -0.081993567
5955, 1, -1.67031293e-05
5955, 2, 0.0384484823
5955, 3, -0.0825709004
5956, 1, -1.62606095e-05
5956, 2, 0.037429858
5956, 3, -0.0803833308
5957, 1, -1.63175748e-05
5957, 2, 0.0375609849
5957, 3, -0.0806649353
5958, 1, -1.57940085e-05
5958, 2, 0.0363558018
5958, 3, -0.0780767173
5959, 1, -1.60551662e-05
5959, 2, 0.0369569535
5959, 3, -0.0793677343
5960, 1, -1.62538361e-05
5960, 2, 0.0374142664
5960, 3, -0.0803498467
5961, 1, -1.44479209e-05
5961, 2, 0.0332572791
5961, 3, -0.0714224154
5962, 1, -1.64125208e-05
5962, 2, 0.0377795384
5962, 3, -0.0811342949
5963, 1, -1.64030931e-05
5963, 2, 0.0377578371
5963, 3, -0.0810876897
5964, 1, -1.63441634e-05
5964, 2, 0.0376221884
5964, 3, -0.0807963744
6133, 1, -1.90071493e-05
6133, 2, 0.0437520437
6133, 3, -0.0939606825
6134, 1, -1.90867982e-05
6134, 2, 0.0439353855
6134, 3, -0.0943544223
6135, 1, -1.94024196e-05
6135, 2, 0.0446619057
6135, 3, -0.0959146771
6136, 1, -1.97625403e-05
6136, 2, 0.0454908579
6136, 3, -0.097694912
6137, 1, -1.74509719e-05
6137, 2, 0.0401699209
6137, 3, -0.0862678145
6138, 1, -1.77144279e-05
6138, 2, 0.0407763631
6138, 3, -0.087570193
6139, 1, -1.9102533e-05
6139, 2, 0.0439716048
6139, 3, -0.0944322059
6140, 1, -1.90142708e-05
6140, 2, 0.0437684365
6140, 3, -0.0939958872
6141, 1, -1.97625403e-05
6141, 2, 0.0454908579
6141, 3, -0.097694912
6142, 1, -1.92923809e-05
6142, 2, 0.0444086107
6142, 3, -0.0953707078
6143, 1, -1.74620905e-05
6143, 2, 0.0401955146
6143, 3, -0.0863227788
6144, 1, -1.77144279e-05
6144, 2, 0.0407763631
6144, 3, -0.087570193
6145, 1, -2.26226949e-05
6145, 2, 0.0520745705
6145, 3, -0.111833912
6146, 1, -2.60327668e-05
6146, 2, 0.059924123
6146, 3, -0.128691394
6147, 1, -1.83972043e-05
6147, 2, 0.0423480277
6147, 3, -0.0909454565
6148, 1, -2.50644984e-05
6148, 2, 0.057695292
6148, 3, -0.123904818
6149, 1, -2.44010057e-05
6149, 2, 0.0561680162
6149, 3, -0.120624883
6150, 1, -2.11901878e-05
6150, 2, 0.0487771212
6150, 3, -0.1047524
6151, 1, -2.42603728e-05
6151, 2, 0.0558442972
6151, 3, -0.119929673
6152, 1, -2.40718676e-05
6152, 2, 0.0554103821
6152, 3, -0.118997809
6153, 1, -2.10651896e-05
6153, 2, 0.0484893911
6153, 3, -0.104134479
6154, 1, -2.45560364e-05
6154, 2, 0.0565248772
6154, 3, -0.121391267
6155, 1, -2.60946756e-05
6155, 2, 0.0600666292
6155, 3, -0.128997436
6156, 1, -2.48276708e-05
6156, 2, 0.057150145
6156, 3, -0.122734075
6157, 1, -2.73332327e-05
6157, 2, 0.0629176303
6157, 3, -0.135120168
6158, 1, -2.7524283e-05
6158, 2, 0.0633574038
6158, 3, -0.136064613
6159, 1, -2.40934099e-05
6159, 2, 0.0554599696
6159, 3, -0.119104301
6160, 1, -2.65467997e-05
6160, 2, 0.0611073613
6160, 3, -0.131232484
6161, 1, -2.57565411e-05
6161, 2, 0.0592882865
6161, 3, -0.127325889
6162, 1, -2.16955e-05
6162, 2, 0.0499402855
6162, 3, -0.10725038
6163, 1, -2.57565411e-05
6163, 2, 0.0592882865
6163, 3, -0.127325889
6164, 1, -2.59494427e-05
6164, 2, 0.0597323215
6164, 3, -0.128279486
6165, 1, -2.10898029e-05
6165, 2, 0.0485460479
6165, 3, -0.104256154
6166, 1, -2.65058778e-05
6166, 2, 0.0610131644
6166, 3, -0.131030189
6167, 1, -2.27580801e-05
6167, 2, 0.05238621
6167, 3, -0.11250318
6168, 1, -2.09849419e-05
6168, 2, 0.0483046712
6168, 3, -0.10373778
6169, 1, -1.78985582e-05
6169, 2, 0.0412002077
6169, 3, -0.0884804299
6170, 1, -2.53720984e-05
6170, 2, 0.0584033481
6170, 3, -0.12542542
6171, 1, -2.26377512e-05
6171, 2, 0.0521092282
6171, 3, -0.111908341
6172, 1, -1.84365665e-05
6172, 2, 0.0424386346
6172, 3, -0.0911400414
6173, 1, -2.05925824e-05
6173, 2, 0.0474015094
6173, 3, -0.101798174
6174, 1, -2.37451694e-05
6174, 2, 0.0546583643
6174, 3, -0.117382796
6175, 1, -2.06576155e-05
6175, 2, 0.0475512072
6175, 3, -0.102119661
6176, 1, -2.22646875e-05
6176, 2, 0.0512504829
6176, 3, -0.110064124
6177, 1, -1.9680203e-05
6177, 2, 0.0453013278
6177, 3, -0.0972878824
6178, 1, -1.69907026e-05
6178, 2, 0.0391104396
6178, 3, -0.0839925015
6179, 1, -1.82351658e-05
6179, 2, 0.0419750358
6179, 3, -0.0901444294
6180, 1, -1.91073983e-05
6180, 2, 0.0439828043
6180, 3, -0.0944562576
6181, 1, -2.16405668e-05
6181, 2, 0.0498138365
6181, 3, -0.106978822
6182, 1, -2.04705351e-05
6182, 2, 0.0471205721
6182, 3, -0.101194841
6183, 1, -1.72244939e-05
6183, 2, 0.0396485975
6183, 3, -0.0851482345
6184, 1, -2.55005841e-05
6184, 2, 0.058699106
6184, 3, -0.126060581
6185, 1, -2.19226357e-05
6185, 2, 0.0504631232
6185, 3, -0.108373212
6186, 1, -1.68319378e-05
6186, 2, 0.0387449832
6186, 3, -0.0832076575
6187, 1, -2.47273722e-05
6187, 2, 0.0569192704
6187, 3, -0.122238256
6188, 1, -2.51115948e-05
6188, 2, 0.0578037019
6188, 3, -0.124137636
6189, 1, -2.14439388e-05
6189, 2, 0.0493612237
6189, 3, -0.106006803
6190, 1, -2.5380239e-05
6190, 2, 0.0584220867
6190, 3, -0.125465662
6191, 1, -2.48909154e-05
6191, 2, 0.0572957261
6191, 3, -0.123046721
6192, 1, -2.10119921e-05
6192, 2, 0.0483669372
6192, 3, -0.103871501
6193, 1, -2.24628475e-05
6193, 2, 0.0517066221
6193, 3, -0.111043716
6194, 1, -2.6137915e-05
6194, 2, 0.0601661608
6194, 3, -0.129211188
6195, 1, -2.11057756e-05
6195, 2, 0.0485828149
6195, 3, -0.104335113
6196, 1, -1.77541641e-05
6196, 2, 0.040867831
6196, 3, -0.087766627
6197, 1, -1.94842618e-05
6197, 2, 0.0448502962
6197, 3, -0.0963192593
6198, 1, -1.94805e-05
6198, 2, 0.044841637
6198, 3, -0.0963006631
6199, 1, -1.93615775e-05
6199, 2, 0.0445678925
6199, 3, -0.0957127769
6200, 1, -1.93615775e-05
6200, 2, 0.0445678925
6200, 3, -0.0957127769
6201, 1, -1.71662939e-05
6201, 2, 0.0395146283
6201, 3, -0.0848605261
6202, 1, -1.66061164e-05
6202, 2, 0.038225171
6202, 3, -0.082091323
6203, 1, -1.71934478e-05
6203, 2, 0.0395771333
6203, 3, -0.0849947601
6204, 1, -1.65717611e-05
6204, 2, 0.0381460893
6204, 3, -0.0819214894
6205, 1, -1.98787359e-05
6205, 2, 0.0457583254
6205, 3, -0.0982693177
6206, 1, -1.96007549e-05
6206, 2, 0.0451184485
6206, 3, -0.0968951358
6207, 1, -1.98553437e-05
6207, 2, 0.0457044796
6207, 3, -0.09815368
6208, 1, -1.92982786e-05
6208, 2, 0.0444221863
6208, 3, -0.0953998623
6209, 1, -1.93666156e-05
6209, 2, 0.0445794894
6209, 3, -0.0957376821
6210, 1, -1.92639232e-05
6210, 2, 0.0443431046
6210, 3, -0.0952300287
6211, 1, -1.72260317e-05
6211, 2, 0.0396521373
6211, 3, -0.0851558366
6212, 1, -1.72883825e-05
6212, 2, 0.0397956608
6212, 3, -0.0854640637
6213, 1, -1.69197615e-05
6213, 2, 0.0389471422
6213, 3, -0.0836418085
6214, 1, -1.67117059e-05
6214, 2, 0.0384682245
6214, 3, -0.0826132982
6215, 1, -1.6927794e-05
6215, 2, 0.0389656319
6215, 3, -0.0836815166
6216, 1, -1.6017769e-05
6216, 2, 0.0368708699
6216, 3, -0.0791828635
6217, 1, -1.59077717e-05
6217, 2, 0.0366176701
6217, 3, -0.0786390986
6218, 1, -1.56100091e-05
6218, 2, 0.0359322584
6218, 3, -0.0771671273
6219, 1, -1.65572905e-05
6219, 2, 0.0381127799
6219, 3, -0.0818499551
6220, 1, -1.57005402e-05
6220, 2, 0.0361406495
6220, 3, -0.0776146622
6221, 1, -1.96561121e-05
6221, 2, 0.0452458736
6221, 3, -0.0971687903
6222, 1, -2.13416625e-05
6222, 2, 0.0491257967
6222, 3, -0.105501206
6223, 1, -1.83523154e-05
6223, 2, 0.0422446991
6223, 3, -0.0907235509
6224, 1, -1.75910171e-05
6224, 2, 0.0404922872
6224, 3, -0.0869601193
6225, 1, -1.69573514e-05
6225, 2, 0.0390336694
6225, 3, -0.083827632
6226, 1, -1.68799962e-05
6226, 2, 0.0388556073
6226, 3, -0.0834452308
6227, 1, -1.47734914e-05
6227, 2, 0.0340067008
6227, 3, -0.0730318529
6228, 1, -1.71661396e-05
6228, 2, 0.0395142732
6228, 3, -0.0848597636
6229, 1, -2.03948154e-05
6229, 2, 0.0469462747
6229, 3, -0.100820525
6230, 1, -2.43458018e-05
6230, 2, 0.0560409437
6230, 3, -0.120351985
6231, 1, -2.21810806e-05
6231, 2, 0.0510580306
6231, 3, -0.109650818
6232, 1, -2.03645254e-05
6232, 2, 0.0468765511
6232, 3, -0.100670788
6233, 1, -1.66172131e-05
6233, 2, 0.0382507142
6233, 3, -0.082146179
6234, 1, -1.6832272e-05
6234, 2, 0.0387457523
6234, 3, -0.0832093092
6235, 1, -1.6860893e-05
6235, 2, 0.0388116342
6235, 3, -0.0833507954
6236, 1, -1.62216731e-05
6236, 2, 0.0373402313
6236, 3, -0.080190851
6237, 1, -1.99081805e-05
6237, 2, 0.0458261032
6237, 3, -0.0984148756
6238, 1, -1.58332075e-05
6238, 2, 0.0364460328
6238, 3, -0.0782704949
6239, 1, -1.71612002e-05
6239, 2, 0.0395029032
6239, 3, -0.0848353456
6240, 1, -1.66276452e-05
6240, 2, 0.0382747274
6240, 3, -0.0821977491
6241, 1, -1.64391569e-05
6241, 2, 0.0378408515
6241, 3, -0.0812659691
6242, 1, -1.60255963e-05
6242, 2, 0.0368888874
6242, 3, -0.0792215573
*NODE FILE
U
*EL FILE
S
*END STEP
