*NODE, NSET=NALL
1, 28.5569594, -18.9740938, -9.5
2, 28.5569594, -18.9740938, 9.5
3, 28, -19, 9.5
4, 28, -19, -9.5
5, 29.1091091, -18.8965988, -9.5
6, 29.1091091, -18.8965988, 9.5
7, 29.6516813, -18.7681842, -9.5
8, 29.6516813, -18.7681842, 9.5
9, 30.1799905, -18.589959, -9.5
10, 30.1799905, -18.589959, 9.5
11, 30.6894746, -18.3634621, -9.5
12, 30.6894746, -18.3634621, 9.5
13, 31.175734, -18.0906496, -9.5
14, 31.175734, -18.0906496, 9.5
15, 31.6345696, -17.7738772, -9.5
16, 31.6345696, -17.7738772, 9.5
17, 32.0620192, -17.4158804, -9.5
18, 32.0620192, -17.4158804, 9.5
19, 32.4543916, -17.0197507, -9.5
20, 32.4543916, -17.0197507, 9.5
21, 32.8082985, -16.5889087, -9.5
22, 32.8082985, -16.5889087, 9.5
23, 33.1206837, -16.1270751, -9.5
24, 33.1206837, -16.1270751, 9.5
25, 33.3888497, -15.6382378, -9.5
26, 33.3888497, -15.6382378, 9.5
27, 33.6104808, -15.1266183, -9.5
28, 33.6104808, -15.1266183, 9.5
29, 33.783663, -14.5966346, -9.5
30, 33.783663, -14.5966346, 9.5
31, 33.906901, -14.0528632, -9.5
32, 33.906901, -14.0528632, 9.5
33, 33.9791304, -13.5, -9.5
34, 33.9791304, -13.5, 9.5
35, 34, -13.5, -9.5
36, 34, -13.5, 9.5
37, 34, 1.52771652e-15, -9.5
38, 34, 1.23999883, -9.41872618
39, 34, 2.45878093, -9.17629535
40, 34, 3.63549261, -8.77685556
41, 34, 4.75, -8.22724134
42, 34, 5.78323358, -7.53685673
43, 34, 6.71751442, -6.71751442
44, 34, 7.53685673, -5.78323358
45, 34, 8.22724134, -4.75
46, 34, 8.77685556, -3.63549261
47, 34, 9.17629535, -2.45878093
48, 34, 9.41872618, -1.23999883
49, 34, 9.5, -1.16341446e-15
50, 34, 9.41872618, 1.23999883
51, 34, 9.17629535, 2.45878093
52, 34, 8.77685556, 3.63549261
53, 34, 8.22724134, 4.75
54, 34, 7.53685673, 5.78323358
55, 34, 6.71751442, 6.71751442
56, 34, 5.78323358, 7.53685673
57, 34, 4.75, 8.22724134
58, 34, 3.63549261, 8.77685556
59, 34, 2.45878093, 9.17629535
60, 34, 1.23999883, 9.41872618
61, 34, -3.64302058e-16, 9.5
62, 34, -4.6291649e-16, -3.39
63, 34, -6, 2.61
64, 34, 6, 2.61
65, 34, 1.00665967e-15, 8.61
66, 37.99, -3.39435072e-13, -9.5
67, 37.99, 1.23999883, -9.41872618
68, 37.99, 2.45878093, -9.17629535
69, 38, -3.64302058e-16, 9.5
70, 38.5, 2.32682892e-15, 9.5
71, 38, 1.52771652e-15, -9.5
72, 37.99, 3.63549261, -8.77685556
73, 37.99, 4.75, -8.22724134
74, 37.99, 5.78323358, -7.53685673
75, 37.99, 6.71751442, -6.71751442
76, 37.99, 7.53685673, -5.78323358
77, 37.99, 8.22724134, -4.75
78, 37.99, 8.77685556, -3.63549261
79, 37.99, 9.17629535, -2.45878093
80, 37.99, 9.41872618, -1.23999883
81, 37.99, 9.5, 1.66856653e-13
82, 37.99, 9.41872618, 1.23999883
83, 37.99, 9.17629535, 2.45878093
84, 37.99, 8.77685556, 3.63549261
85, 37.99, 8.22724134, 4.75
86, 37.99, 7.53685673, 5.78323358
87, 37.99, 6.71751442, 6.71751442
88, 37.99, 5.78323358, 7.53685673
89, 37.99, 4.75, 8.22724134
90, 37.99, 3.63549261, 8.77685556
91, 37.99, 2.45878093, 9.17629535
92, 37.99, 1.23999883, 9.41872618
93, 37.99, 2.32682892e-15, 9.5
94, 38.5, 1.95943488e-15, 8
95, 34.55, -4.6291649e-16, -3.39
96, 34.55, -6, 2.61
97, 34.55, 6, 2.61
98, 34.55, 1.00665967e-15, 8.61
99, 40.45, 1.95943488e-15, 8
100, 34.55, -5.09453068e-16, -3.58
101, 34.55, -6, 2.42
102, 34.55, 6, 2.42
103, 34.55, 9.60123091e-16, 8.42
104, 40.45, 6, 1.2
105, 40.45, -8.08266887e-16, -4.8
106, 40.45, 7.34788079e-16, 3
107, 40.45, 6.61309272e-16, 7.2
108, 40.45, -6, 1.2
109, 37.5, -5.09453068e-16, -3.58
110, 37.5, -6, 2.42
111, 37.5, 6, 2.42
112, 37.5, 9.60123091e-16, 8.42
113, 37.5, 6, 1.2
114, 37.5, -8.08266887e-16, -4.8
115, 38.5, 7.34788079e-16, 3
116, 37.5, 6.61309272e-16, 7.2
117, 37.5, -6, 1.2
118, 38, -13.5, -9.5
119, 37.9614778, -14.2841371, -9.5
120, 37.8462822, -15.0607226, -9.5
121, 37.6555227, -15.8222774, -9.5
122, 37.3910363, -16.5614675, -9.5
123, 37.0553701, -17.2711739, -9.5
124, 36.6517569, -17.9445619, -9.5
125, 36.1840836, -18.5751463, -9.5
126, 35.6568542, -19.1568542, -9.5
127, 35.0751463, -19.6840836, -9.5
128, 34.4445619, -20.1517569, -9.5
129, 34, -20.418217, -9.5
130, 34, -21.5, -9.5
131, 17.5, -21.5, -9.5
132, 17.5, -19.01, -9.5
133, 17.5, -19, -9.5
134, 17.5, -19, 9.5
135, 17.5, -18.5, 9.5
136, 25.5777472, -19, 5
137, 25.5777472, -19, -5
138, 16.2600012, -19.01, -9.41872618
139, 15.0412191, -19.01, -9.17629535
140, 13.8645074, -19.01, -8.77685556
141, 12.75, -19.01, -8.22724134
142, 11.7167664, -19.01, -7.53685673
143, 10.7824856, -19.01, -6.71751442
144, 9.96314327, -19.01, -5.78323358
145, 9.27275866, -19.01, -4.75
146, 8.72314444, -19.01, -3.63549261
147, 8.32370465, -19.01, -2.45878093
148, 8.08127382, -19.01, -1.23999883
149, 8, -19.01, -1.22853825e-13
150, 8.08127382, -19.01, 1.23999883
151, 8.32370465, -19.01, 2.45878093
152, 8.72314444, -19.01, 3.63549261
153, 9.27275866, -19.01, 4.75
154, 9.96314327, -19.01, 5.78323358
155, 10.7824856, -19.01, 6.71751442
156, 11.7167664, -19.01, 7.53685673
157, 12.75, -19.01, 8.22724134
158, 13.8645074, -19.01, 8.77685556
159, 15.0412191, -19.01, 9.17629535
160, 16.2600012, -19.01, 9.41872618
161, 17.5, -19.01, 9.5
162, 16.2600012, -21.5, 9.41872618
163, 17.5, -21.5, 9.5
164, 15.0412191, -21.5, 9.17629535
165, 13.8645074, -21.5, 8.77685556
166, 12.75, -21.5, 8.22724134
167, 11.7167664, -21.5, 7.53685673
168, 10.7824856, -21.5, 6.71751442
169, 9.96314327, -21.5, 5.78323358
170, 9.27275866, -21.5, 4.75
171, 8.72314444, -21.5, 3.63549261
172, 8.32370465, -21.5, 2.45878093
173, 8.08127382, -21.5, 1.23999883
174, 8, -21.5, 2.38929922e-15
175, 8.08127382, -21.5, -1.23999883
176, 8.32370465, -21.5, -2.45878093
177, 8.72314444, -21.5, -3.63549261
178, 9.27275866, -21.5, -4.75
179, 9.96314327, -21.5, -5.78323358
180, 10.7824856, -21.5, -6.71751442
181, 11.7167664, -21.5, -7.53685673
182, 12.75, -21.5, -8.22724134
183, 13.8645074, -21.5, -8.77685556
184, 15.0412191, -21.5, -9.17629535
185, 16.2600012, -21.5, -9.41872618
186, 17.5, -18.5, 8
187, 17.5, -16.55, 8
188, 36.1840836, -18.5751463, -5
189, 36, -18.7782513, -5
190, 36, -21.5, -5
191, 19.7037241, -21.5, -5
192, 19.7037241, -24, -5
193, 33, -24, -5
194, 33.441018, -23.9771282, -5
195, 33.8287211, -23.9147499, -5
196, 34.2084432, -23.8146704, -5
197, 34.5765273, -23.6778536, -5
198, 34.9294286, -23.505617, -5
199, 35.2637484, -23.2996195, -5
200, 35.5762671, -23.0618447, -5
201, 35.863975, -22.7945828, -5
202, 36.1241011, -22.5004075, -5
203, 36.3541405, -22.1821519, -5
204, 36.5518777, -21.8428809, -5
205, 36.7154084, -21.4858621, -5
206, 36.8431576, -21.1145335, -5
207, 36.9338951, -20.7324714, -5
208, 36.9867471, -20.3433552, -5
209, 37.0012045, -19.9509323, -5
210, 37, -17.3635534, -5
211, 36.6517569, -17.9445619, -5
212, 35.6568542, -19.1568542, -5.02965714
213, 37.0553701, -17.2711739, -4.9984659
214, 38, -20, -4
215, 38, -13.5, -4
216, 37.3910363, -16.5614675, -4.92037527
217, 37.6555227, -15.8222774, -4.75517548
218, 37.8462822, -15.0607226, -4.5327348
219, 37.9614778, -14.2841371, -4.27488255
220, 37.9759236, -20.4900857, -4
221, 37.9039264, -20.9754516, -4
222, 37.7847017, -21.4514234, -4
223, 37.6193977, -21.9134172, -4
224, 37.4096063, -22.3569837, -4
225, 37.1573481, -22.7778512, -4
226, 36.8650523, -23.1719664, -4
227, 36.5355339, -23.5355339, -4
228, 36.1719664, -23.8650523, -4
229, 35.7778512, -24.1573481, -4
230, 35.3569837, -24.4096063, -4
231, 34.9134172, -24.6193977, -4
232, 34.4514234, -24.7847017, -4
233, 33.9754516, -24.9039264, -4
234, 33.4900857, -24.9759236, -4
235, 33, -25, -4
236, 18.8624977, -25, -4
237, 17.5, -25, -3.58
238, 17.5, -19.5, -3.58
239, 15.5327527, -21.5, -4.59062488
240, 15.5327527, -24, -4.59062488
241, 15.6712066, -24.6258638, -4.41509794
242, 16.4289364, -25, -3.82992561
243, 35.0751463, -19.6840836, -5.22668514
244, 34.4445619, -20.1517569, -5.74277599
245, 34, -20.418217, -7
246, 34, -21.5, -7
247, 37.9759236, -20.4900857, 4
248, 38, -20, 4
249, 37.9039264, -20.9754516, 4
250, 37.7847017, -21.4514234, 4
251, 37.6193977, -21.9134172, 4
252, 37.4096063, -22.3569837, 4
253, 37.1573481, -22.7778512, 4
254, 36.8650523, -23.1719664, 4
255, 36.5355339, -23.5355339, 4
256, 36.1719664, -23.8650523, 4
257, 35.7778512, -24.1573481, 4
258, 35.3569837, -24.4096063, 4
259, 34.9134172, -24.6193977, 4
260, 34.4514234, -24.7847017, 4
261, 33.9754516, -24.9039264, 4
262, 33.4900857, -24.9759236, 4
263, 33, -25, 4
264, 15.9711179, -25, -3.69104787
265, 15.2804072, -25, -3.32185532
266, 14.6749943, -25, -2.82500574
267, 14.1781447, -25, -2.21959277
268, 13.8089521, -25, -1.52888209
269, 13.6700744, -25, -1.07106355
270, 13.6700744, -25, 1.07106355
271, 13.8089521, -25, 1.52888209
272, 14.1781447, -25, 2.21959277
273, 14.6749943, -25, 2.82500574
274, 15.2804072, -25, 3.32185532
275, 15.9711179, -25, 3.69104787
276, 16.4289364, -25, 3.82992561
277, 18.8624977, -25, 4
278, 23.5, -25, 2.42
279, 14.7221488, -24, -4.15734806
280, 14.7221488, -21.5, -4.15734806
281, 17.5, -19.5, -4.8
282, 13.9644661, -24, -3.53553391
283, 13.9644661, -21.5, -3.53553391
284, 13.3426519, -24, -2.77785117
285, 13.3426519, -21.5, -2.77785117
286, 12.9093751, -24, -1.96724726
287, 12.9093751, -21.5, -1.96724726
288, 11.5, -21.5, 2.42
289, 11.5, -19.5, 2.42
290, 12.9093751, -21.5, 1.96724726
291, 12.9093751, -24, 1.96724726
292, 13.0849021, -24.6258638, 1.82879345
293, 13.0849021, -24.6258638, -1.82879345
294, 13.3426519, -24, 2.77785117
295, 13.3426519, -21.5, 2.77785117
296, 13.9644661, -24, 3.53553391
297, 13.9644661, -21.5, 3.53553391
298, 14.7221488, -24, 4.15734806
299, 14.7221488, -21.5, 4.15734806
300, 15.5327527, -24, 4.59062488
301, 15.5327527, -21.5, 4.59062488
302, 17.5, -21.5, 8.42
303, 17.5, -19.5, 8.42
304, 19.7037241, -21.5, 5
305, 19.7037241, -24, 5
306, 15.6712066, -24.6258638, 4.41509794
307, 36.1840836, -18.5751463, 5
308, 36, -18.7782513, 5
309, 36, -21.5, 5
310, 33, -24, 5
311, 33.441018, -23.9771282, 5
312, 33.8287211, -23.9147499, 5
313, 34.2084432, -23.8146704, 5
314, 34.5765273, -23.6778536, 5
315, 34.9294286, -23.505617, 5
316, 35.2637484, -23.2996195, 5
317, 35.5762671, -23.0618447, 5
318, 35.863975, -22.7945828, 5
319, 36.1241011, -22.5004075, 5
320, 36.3541405, -22.1821519, 5
321, 36.5518777, -21.8428809, 5
322, 36.7154084, -21.4858621, 5
323, 36.8431576, -21.1145335, 5
324, 36.9338951, -20.7324714, 5
325, 36.9867471, -20.3433552, 5
326, 37.0012045, -19.9509323, 5
327, 37, -17.3635534, 5
328, 36.6517569, -17.9445619, 5
329, 37.9614778, -14.2841371, 4.27488255
330, 38, -13.5, 4
331, 37.8462822, -15.0607226, 4.5327348
332, 37.6555227, -15.8222774, 4.75517548
333, 37.3910363, -16.5614675, 4.92037527
334, 37.0553701, -17.2711739, 4.9984659
335, 23.5, -19.5, 2.42
336, 17.5, -16.55, -4.8
337, 11.5, -19.5, 1.2
338, 17.5, -19.5, 7.2
339, 35.6568542, -19.1568542, 5.02965714
340, 35.6568542, -19.1568542, 9.5
341, 36.1840836, -18.5751463, 9.5
342, 36.6517569, -17.9445619, 9.5
343, 37.0553701, -17.2711739, 9.5
344, 34, -21.5, 7
345, 34, -20.418217, 7
346, 34.4445619, -20.1517569, 5.74277599
347, 35.0751463, -19.6840836, 5.22668514
348, 34, -21.5, 9.5
349, 34, -20.418217, 9.5
350, 37.9614778, -14.2841371, 9.5
351, 38, -13.5, 9.5
352, 37.8462822, -15.0607226, 9.5
353, 37.6555227, -15.8222774, 9.5
354, 37.3910363, -16.5614675, 9.5
355, 23.5, -19.5, 1.2
356, 11.5, -16.55, 1.2
357, 17.5, -16.55, 3
358, 17.5, -16.55, 7.2
359, 23.5, -16.55, 1.2
360, 35.0751463, -19.6840836, 9.5
361, 34.4445619, -20.1517569, 9.5
362, 17.5, -18.5, 3
363, 28.5569594, -18.9740938, -4.75019475
364, 28.5569594, -18.9740938, -0.000209000185
365, 28.5569594, -18.9740938, 4.7486114
366, 28.5569594, -18.9740938, -7.12548901
367, 28.5569594, -18.9740938, -2.3733762
368, 28.5569594, -18.9740938, 2.37580342
369, 28.5569594, -18.9740938, 7.12522721
370, 28.2779451, -18.9870717, 9.5
371, 28, -19, -4.75194746
372, 28, -19, 0.0138956167
373, 28, -19, 4.75218939
374, 28, -19, -7.12272199
375, 28, -19, -2.37563995
376, 28, -19, 2.37911184
377, 28, -19, 7.12268398
378, 28.2781584, -18.9870618, -9.5
379, 29.1091091, -18.8965988, -4.74948919
380, 29.1091091, -18.8965988, 7.15748614e-05
381, 29.1091091, -18.8965988, 4.74891904
382, 29.1091091, -18.8965988, -7.12480689
383, 29.1091091, -18.8965988, -2.37609503
384, 29.1091091, -18.8965988, 2.37582109
385, 29.1091091, -18.8965988, 7.12366127
386, 28.8331591, -18.9353287, 9.5
387, 28.8327605, -18.9353847, -9.5
388, 29.6516813, -18.7681842, -4.74920272
389, 29.6516813, -18.7681842, -6.21891396e-05
390, 29.6516813, -18.7681842, 4.75
391, 29.6516813, -18.7681842, -7.12478059
392, 29.6516813, -18.7681842, -2.37570434
393, 29.6516813, -18.7681842, 2.37598304
394, 29.6516813, -18.7681842, 7.125
395, 29.3803952, -18.8323915, 9.5
396, 29.3804135, -18.8323872, -9.5
397, 30.1799905, -18.589959, -4.74903976
398, 30.1799905, -18.589959, 0.000540415346
399, 30.1799905, -18.589959, 4.74929228
400, 30.1799905, -18.589959, -7.12512867
401, 30.1799905, -18.589959, -2.37535689
402, 30.1799905, -18.589959, 2.37439609
403, 30.1799905, -18.589959, 7.12507535
404, 29.9158198, -18.679077, 9.5
405, 29.9158781, -18.6790573, -9.5
406, 30.6894746, -18.3634621, -4.75011196
407, 30.6894746, -18.3634621, -9.01381888e-05
408, 30.6894746, -18.3634621, 4.74934215
409, 30.6894746, -18.3634621, -7.12511739
410, 30.6894746, -18.3634621, -2.37450931
411, 30.6894746, -18.3634621, 2.37513584
412, 30.6894746, -18.3634621, 7.12525017
413, 30.434662, -18.4767419, 9.5
414, 30.4347575, -18.4766995, -9.5
415, 31.175734, -18.0906496, -4.75386894
416, 31.175734, -18.0906496, -0.000333352194
417, 31.175734, -18.0906496, 4.76222379
418, 31.175734, -18.0906496, -7.12572454
419, 31.175734, -18.0906496, -2.37460826
420, 31.175734, -18.0906496, 2.37550223
421, 31.175734, -18.0906496, 7.12578288
422, 30.9326001, -18.2270583, 9.5
423, 30.9325216, -18.2271023, -9.5
424, 31.6345696, -17.7738772, -4.74641532
425, 31.6345696, -17.7738772, 1.85498818e-05
426, 31.6345696, -17.7738772, 4.75
427, 31.6345696, -17.7738772, -7.12495235
428, 31.6345696, -17.7738772, -2.37499097
429, 31.6345696, -17.7738772, 2.37492096
430, 31.6345696, -17.7738772, 7.125
431, 31.4051518, -17.9322634, 9.5
432, 31.4051518, -17.9322634, -9.5
433, 32.0620192, -17.4158804, -4.74366247
434, 32.0620192, -17.4158804, 0.000554607275
435, 32.0620192, -17.4158804, 4.74786216
436, 32.0620192, -17.4158804, -7.1247111
437, 32.0620192, -17.4158804, -2.3746542
438, 32.0620192, -17.4158804, 2.37476914
439, 32.0620192, -17.4158804, 7.12501631
440, 31.8482944, -17.5948788, 9.5
441, 31.8483212, -17.5948564, -9.5
442, 32.4543916, -17.0197507, -4.75
443, 32.4543916, -17.0197507, -0.000162041467
444, 32.4543916, -17.0197507, 4.75
445, 32.4543916, -17.0197507, -7.12529542
446, 32.4543916, -17.0197507, -2.37408376
447, 32.4543916, -17.0197507, 2.37479861
448, 32.4543916, -17.0197507, 7.125
449, 32.2582054, -17.2178156, 9.5
450, 32.2582054, -17.2178156, -9.5
451, 32.8082985, -16.5889087, -4.75
452, 32.8082985, -16.5889087, -0.000538959037
453, 32.8082985, -16.5889087, 4.75
454, 32.8082985, -16.5889087, -7.12496753
455, 32.8082985, -16.5889087, -2.37445084
456, 32.8082985, -16.5889087, 2.37402253
457, 32.8082985, -16.5889087, 7.125
458, 32.631345, -16.8043297, 9.5
459, 32.631345, -16.8043297, -9.5
460, 33.1206837, -16.1270751, -4.74972762
461, 33.1206837, -16.1270751, -0.00174187585
462, 33.1206837, -16.1270751, 4.74926161
463, 33.1206837, -16.1270751, -7.12496503
464, 33.1206837, -16.1270751, -2.37195699
465, 33.1206837, -16.1270751, 2.37598796
466, 33.1206837, -16.1270751, 7.12499975
467, 32.9644911, -16.3579919, 9.5
468, 32.9644911, -16.3579919, -9.5
469, 33.3888497, -15.6382378, -4.75
470, 33.3888497, -15.6382378, 0.000656562993
471, 33.3888497, -15.6382378, 4.75
472, 33.3888497, -15.6382378, -7.12592905
473, 33.3888497, -15.6382378, -2.37822061
474, 33.3888497, -15.6382378, 2.37792693
475, 33.3888497, -15.6382378, 7.12542079
476, 33.2547537, -15.8826801, 9.5
477, 33.2547622, -15.8826646, -9.5
478, 33.6104808, -15.1266183, -4.74706585
479, 33.6104808, -15.1266183, -0.000191928341
480, 33.6104808, -15.1266183, 4.74872799
481, 33.6104808, -15.1266183, -7.12472415
482, 33.6104808, -15.1266183, -2.37660489
483, 33.6104808, -15.1266183, 2.3757678
484, 33.6104808, -15.1266183, 7.12464557
485, 33.4996652, -15.3824281, 9.5
486, 33.4996652, -15.3824281, -9.5
487, 33.783663, -14.5966346, -4.75054701
488, 33.783663, -14.5966346, -0.00286893931
489, 33.783663, -14.5966346, 4.74942618
490, 33.783663, -14.5966346, -7.12500364
491, 33.783663, -14.5966346, -2.37741138
492, 33.783663, -14.5966346, 2.37549171
493, 33.783663, -14.5966346, 7.12472733
494, 33.6970717, -14.861627, 9.5
495, 33.6970719, -14.8616265, -9.5
496, 33.906901, -14.0528632, -4.74977355
497, 33.906901, -14.0528632, -0.000128252555
498, 33.906901, -14.0528632, 4.75
499, 33.906901, -14.0528632, -7.12527706
500, 33.906901, -14.0528632, -2.37547655
501, 33.906901, -14.0528632, 2.37383863
502, 33.906901, -14.0528632, 7.12578346
503, 33.8452717, -14.3247944, 9.5
504, 33.8452771, -14.3247707, -9.5
505, 33.9791304, -13.5, -4.74997603
506, 33.9791304, -13.5, -1.77635684e-15
507, 33.9791304, -13.5, 4.75
508, 33.9791304, -13.5, -7.12509922
509, 33.9791304, -13.5, -2.37494909
510, 33.9791304, -13.5, 2.375
511, 33.9791304, -13.5, 7.125
512, 33.9430209, -13.7763912, 9.5
513, 33.9429188, -13.7771728, -9.5
514, 33.9897038, -13.5, -9.5
515, 34, -13.5, 4.75
516, 34, -13.5, 1.77635684e-15
517, 34, -13.5, -4.75
518, 34, -13.5, 7.125
519, 34, -13.5, 2.375
520, 34, -13.5, -2.37350072
521, 34, -13.5, -7.12547578
522, 33.9895652, -13.5, 9.5
523, 34, -9, -9.5
524, 34, -4.48750957, -9.5
525, 34, -11.25, -9.5
526, 34, -6.75018691, -9.5
527, 34, -2.26185469, -9.5
528, 34, 0.65373967, -9.45715164
529, 34, 1.84938988, -9.29751077
530, 34, 3.06836366, -8.9693699
531, 34, 4.19511532, -8.50088018
532, 34, 5.26738354, -7.88153671
533, 34, 6.25041144, -7.12715274
534, 34, 7.12718558, -6.250374
535, 34, 7.88195999, -5.26675005
536, 34, 8.50204845, -4.1927463
537, 34, 8.97173433, -3.06139826
538, 34, 9.29547376, -1.85963062
539, 34, 9.45824138, -0.637113428
540, 34, 9.45590235, 0.672800162
541, 34, 9.29592036, 1.8573854
542, 34, 8.973528, 3.05611429
543, 34, 8.5012983, 4.19426745
544, 34, 7.88106381, 5.26809128
545, 34, 7.12710222, 6.25046905
546, 34, 6.24951755, 7.12793666
547, 34, 5.26661679, 7.88204903
548, 34, 4.1927463, 8.50204845
549, 34, 3.04713677, 8.97657545
550, 34, 1.87084356, 9.29324336
551, 34, 0.592943985, 9.4611364
552, 34, -4.47910555, 9.5
553, 34, -9, 9.5
554, 34, -2.30121468, 9.5
555, 34, -6.74973094, 9.5
556, 34, -11.25, 9.5
557, 34, -2.04222577, -4.37475728
558, 34, -2.54429421, -6.58195099
559, 34, -1.13117422, -8.35213624
560, 34, 1.13243656, -8.35152875
561, 34, 2.54345259, -6.58561842
562, 34, 2.04303634, -4.37577634
563, 34, -1.12544095, -3.64511515
564, 34, -2.54345961, -5.41441209
565, 34, -2.04021282, -7.62776892
566, 34, 0.00151431232, -8.60999956
567, 34, 2.04567771, -7.62089565
568, 34, 2.5436509, -5.41524356
569, 34, 1.12607546, -3.64541849
570, 34, -8.04501546, 1.6217311
571, 34, -8.54318305, -0.586787847
572, 34, -7.12066683, -2.35716055
573, 34, -4.85691415, -2.34637054
574, 34, -3.4542492, -0.575545718
575, 34, -3.95941983, 1.62730838
576, 34, -7.13600014, 2.34980928
577, 34, -8.53969649, 0.601699031
578, 34, -8.04089681, -1.62691125
579, 34, -6.02267621, -2.60990149
580, 34, -3.96586863, -1.63536222
581, 34, -3.45315928, 0.570703401
582, 34, -4.86332716, 2.34948396
583, 34, 3.95432735, 1.62090203
584, 34, 3.45586036, -0.582626363
585, 34, 4.8652489, -2.35041272
586, 34, 7.12721799, -2.35403475
587, 34, 8.54432675, -0.581808723
588, 34, 8.03851724, 1.62989185
589, 34, 4.87039192, 2.35288878
590, 34, 3.45662875, 0.58597156
591, 34, 3.96549739, -1.63490035
592, 34, 5.99978346, -2.60999999
593, 34, 8.059504, -1.60329139
594, 34, 8.55075329, 0.552953594
595, 34, 7.13475013, 2.35041319
596, 34, -2.03790067, 7.6306627
597, 34, -2.54456185, 5.41922036
598, 34, -1.13243656, 3.64847125
599, 34, 1.1354407, 3.64992034
600, 34, 2.54457181, 5.419264
601, 34, 2.04058017, 7.62730838
602, 34, -1.09108946, 8.37099637
603, 34, -2.5469308, 6.57030124
604, 34, -2.04058017, 4.37269162
605, 34, 0.00381186168, 3.39000278
606, 34, 2.0378214, 4.36923824
607, 34, 2.54102803, 6.5960508
608, 34, 1.12828734, 8.3535224
609, 35.9958443, 1.52771652e-15, -9.5
610, 37.99, 0.619036076, -9.45942623
611, 37.99, 0.303235914, -9.48012487
612, 37.99, 0.933091589, -9.43884195
613, 35.9963419, 1.23999883, -9.41872618
614, 37.99, 1.83700382, -9.29997451
615, 37.99, 1.51501761, -9.36402155
616, 37.99, 2.16165359, -9.23539765
617, 35.995, 2.45878093, -9.17629535
618, 37.99, 0.624895701, -9.47942537
619, 37.99, 0.189164851, -9.49811648
620, 37.99, 1.00997705, -9.4461604
621, 38.2453387, 2.32682892e-15, 9.5
622, 38.5, -4.74221118, 8.2317333
623, 38.5, -8.22614909, 4.75189132
624, 38.5, -9.5, -6.12148725e-05
625, 38.5, -8.2259516, -4.75223319
626, 38.5, -4.74581869, -8.229654
627, 38.5, 0.0157100625, -9.49998701
628, 38.5, 4.75, -8.22724134
629, 38.5, 8.21485849, -4.77138344
630, 38.5, 9.49997429, -0.0221000159
631, 38.5, 8.21959006, 4.76322781
632, 38.5, 4.75, 8.22724134
633, 38.5, -2.47536006, 9.17183692
634, 38.5, -6.72304419, 6.7119801
635, 38.5, -9.17731321, 2.45497908
636, 38.5, -9.17723109, -2.45528602
637, 38.5, -6.72442776, -6.71059396
638, 38.5, -2.47354969, -9.17232533
639, 38.5, 2.46744878, -9.17396842
640, 38.5, 6.72034633, -6.71468132
641, 38.5, 9.17717804, -2.45548431
642, 38.5, 9.17583124, 2.46051237
643, 38.5, 6.7202643, 6.71476341
644, 38.5, 2.46811793, 9.17378841
645, 38, -4.72047918, 8.24421472
646, 38, -8.22462414, 4.75453024
647, 38, -9.49999449, -0.0102345549
648, 38, -8.24325143, -4.72216115
649, 38, -4.69818253, -8.25694138
650, 38, -2.64689961, 9.12381074
651, 38, -6.71231094, 6.72271388
652, 38, -9.17774748, 2.45335508
653, 38, -9.17430314, -2.46620395
654, 38, -6.71164005, -6.72338366
655, 38, -2.64408342, -9.12462727
656, 37.9949743, 1.52771652e-15, -9.5
657, 37.99, 1.85586647, -9.31696086
658, 37.99, 1.51597496, -9.37826316
659, 37.99, 2.20253158, -9.24115007
660, 37.99, 3.05367492, -8.99583623
661, 37.99, 2.75770443, -9.09093319
662, 37.99, 3.34637546, -8.8911063
663, 37.99, 4.20174256, -8.52029104
664, 37.99, 3.92071678, -8.65320634
665, 37.99, 4.478269, -8.37825201
666, 37.99, 5.27791721, -7.89896132
667, 37.99, 4.94826947, -8.1095394
668, 37.99, 5.53353812, -7.7220435
669, 37.99, 6.26378524, -7.14247817
670, 37.99, 6.0267362, -7.34359931
671, 37.99, 6.52139072, -6.90807232
672, 37.99, 7.13173593, -6.27601327
673, 37.99, 6.88433236, -6.54644697
674, 37.99, 7.3576239, -6.00960652
675, 37.99, 7.8968086, -5.28113756
676, 37.99, 7.67509101, -5.59847997
677, 37.99, 8.1170966, -4.93586292
678, 37.99, 8.51896615, -4.20442812
679, 37.99, 8.3302986, -4.5668507
680, 37.99, 8.68575109, -3.84808108
681, 37.99, 8.99536047, -3.05507612
682, 37.99, 8.87924536, -3.3777214
683, 37.99, 9.10349243, -2.71595759
684, 37.99, 9.31603821, -1.86049243
685, 37.99, 9.23897204, -2.21164996
686, 37.99, 9.37754324, -1.52042192
687, 37.99, 9.47908401, -0.630052569
688, 37.99, 9.44608751, -1.01065862
689, 37.99, 9.49733817, -0.224872401
690, 37.99, 9.47880665, 0.634211769
691, 37.99, 9.49711382, 0.234156015
692, 37.99, 9.44613569, 1.01020814
693, 37.99, 9.31555496, 1.86291055
694, 37.99, 9.37648885, 1.52691089
695, 37.99, 9.23658958, 2.22157894
696, 37.99, 8.9934568, 3.06067553
697, 37.99, 9.10192343, 2.72121109
698, 37.99, 8.87770106, 3.38177821
699, 37.99, 8.52149085, 4.19930872
700, 37.99, 8.68694373, 3.84538798
701, 37.99, 8.33312205, 4.5616967
702, 37.99, 7.89527525, 5.28342964
703, 37.99, 8.11462072, 4.93993224
704, 37.99, 7.67353272, 5.60061564
705, 37.99, 7.13590787, 6.27126932
706, 37.99, 7.35592556, 6.01168522
707, 37.99, 6.88361081, 6.54720568
708, 37.99, 6.26378524, 7.14247817
709, 37.99, 6.51801463, 6.91125787
710, 37.99, 6.0267362, 7.34359931
711, 37.99, 5.27791721, 7.89896132
712, 37.99, 5.53353812, 7.7220435
713, 37.99, 4.93897715, 8.11520207
714, 37.99, 4.20174256, 8.52029104
715, 37.99, 4.478269, 8.37825201
716, 37.99, 3.92071678, 8.65320634
717, 37.99, 3.05367492, 8.99583623
718, 37.99, 3.34637546, 8.8911063
719, 37.99, 2.75770443, 9.09093319
720, 37.99, 1.85785114, 9.31656531
721, 37.99, 2.20116443, 9.24147581
722, 37.99, 1.51951118, 9.37769085
723, 37.99, 0.622078444, 9.47961067
724, 37.99, 1.00601135, 9.44658357
725, 37.99, 0.19527141, 9.4979929
726, 37.9950929, -3.64302058e-16, 9.5
727, 37.99, 0.612384572, 9.45986219
728, 37.99, 0.93316694, 9.43883701
729, 37.99, 0.291879727, 9.48086919
730, 37.99, 1.82876627, 9.30161306
731, 37.99, 2.15073237, 9.23757002
732, 37.99, 1.51304886, 9.36441315
733, 37.99, 3.04713677, 8.97657545
734, 37.99, 3.34131469, 8.87671551
735, 37.99, 2.75295885, 9.0764354
736, 37.99, 4.1927463, 8.50204845
737, 37.99, 4.47137315, 8.36464489
738, 37.99, 3.91411946, 8.639452
739, 37.99, 5.26661679, 7.88204903
740, 37.99, 5.52492518, 7.70945288
741, 37.99, 5.00830839, 8.05464519
742, 37.99, 6.250374, 7.12718558
743, 37.99, 6.49625266, 6.91155578
744, 37.99, 6.01680379, 7.33202115
745, 37.99, 7.12937053, 6.24788254
746, 37.99, 7.34578641, 6.00110752
747, 37.99, 6.91491215, 6.49242545
748, 37.99, 7.88926016, 5.25582457
749, 37.99, 8.06430094, 4.99385753
750, 37.99, 7.71016398, 5.52386094
751, 37.99, 8.50054762, 4.19578967
752, 37.99, 8.63956548, 3.91388935
753, 37.99, 8.36105568, 4.47865134
754, 37.99, 8.98026397, 3.03627076
755, 37.99, 9.08318553, 2.73307361
756, 37.99, 8.87031364, 3.36017397
757, 37.99, 9.29711602, 1.85137438
758, 37.99, 9.36341562, 1.51806378
759, 37.99, 9.23264367, 2.17549879
760, 37.99, 9.45997006, 0.610738832
761, 37.99, 9.48162095, 0.280410066
762, 37.99, 9.43869796, 0.935288325
763, 37.99, 9.46015712, -0.607884918
764, 37.99, 9.43862574, -0.936390319
765, 37.99, 9.48120226, -0.286798088
766, 37.99, 9.30046063, -1.83455994
767, 37.99, 9.23444469, -2.16644445
768, 37.99, 9.36517483, -1.50921967
769, 37.99, 8.97517611, -3.05125911
770, 37.99, 8.86785046, -3.36743029
771, 37.99, 9.08201801, -2.73651302
772, 37.99, 8.50210551, -4.19263059
773, 37.99, 8.36163286, -4.47748095
774, 37.99, 8.64282191, -3.90728596
775, 37.99, 7.88655281, -5.25987642
776, 37.99, 7.70762427, -5.5276619
777, 37.99, 8.06276346, -4.99615854
778, 37.99, 7.1296382, -6.24757732
779, 37.99, 6.91239145, -6.49529976
780, 37.99, 7.35093508, -5.99523659
781, 37.99, 6.250374, -7.12718558
782, 37.99, 6.01680379, -7.33202115
783, 37.99, 6.50145177, -6.90699628
784, 37.99, 5.26661679, -7.88204903
785, 37.99, 4.99456351, -8.06382922
786, 37.99, 5.52492518, -7.70945288
787, 37.99, 4.1927463, -8.50204845
788, 37.99, 3.91411946, -8.639452
789, 37.99, 4.47137315, -8.36464489
790, 37.99, 3.04713677, -8.97657545
791, 37.99, 2.75295885, -9.0764354
792, 37.99, 3.34131469, -8.87671551
793, 38.5, -4.71683374, 6.46153848
794, 38.5, -7.62987581, 2.40520168
795, 38.5, -7.64648915, -2.35185111
796, 38.5, -4.69281815, -6.4790013
797, 38.5, -0.00883894124, -7.99999512
798, 38.5, 4.70228202, -6.47213595
799, 38.5, 7.6361819, -2.38510502
800, 38.5, 7.62338264, 2.42570342
801, 38.5, 4.70228202, 6.47213595
802, 38.5, -2.48191681, 7.60526718
803, 38.5, -6.48287713, 4.68746244
804, 38.5, -7.99995047, -0.0281506781
805, 38.5, -6.46922813, -4.7062817
806, 38.5, -2.50318858, -7.59829237
807, 38.5, 2.50889368, -7.5964105
808, 38.5, 6.4889993, -4.67898366
809, 38.5, 7.99989025, -0.0419046251
810, 38.5, 6.47856617, 4.69341884
811, 38.5, 2.49748291, 7.60016968
812, 35.9928161, 3.63549261, -8.77685556
813, 35.9922457, 4.75, -8.22724134
814, 35.9872469, 1.23999883, 9.41872618
815, 35.9978142, -3.64302058e-16, 9.5
816, 35.995, 5.78323358, -7.53685673
817, 35.9833446, 2.45878093, 9.17629535
818, 35.9959033, 6.71751442, -6.71751442
819, 35.9915649, 3.63549261, 8.77685556
820, 35.9964747, 7.53685673, -5.78323358
821, 35.9939987, 4.75, 8.22724134
822, 35.9938019, 8.22724134, -4.75
823, 35.995, 5.78323358, 7.53685673
824, 35.9950625, 8.77685556, -3.63549261
825, 35.9938919, 6.71751442, 6.71751442
826, 35.9910484, 9.17629535, -2.45878093
827, 35.9943704, 7.53685673, 5.78323358
828, 35.9939213, 9.41872618, -1.23999883
829, 35.9929032, 8.22724134, 4.75
830, 35.987116, 9.5, -1.60464284e-15
831, 35.9859975, 8.77685556, 3.63549261
832, 35.9951288, 9.41872618, 1.23999883
833, 35.9939881, 9.17629535, 2.45878093
834, 34.2732476, -4.6291649e-16, -3.39
835, 34.55, -2.03145064, -4.36130897
836, 34.55, -2.54130706, -6.59486001
837, 34.55, -1.13624665, -8.3496901
838, 34.55, 1.13243656, -8.35152875
839, 34.55, 2.54263067, -6.58917677
840, 34.55, 2.04478777, -4.37798181
841, 34.55, -1.13118818, -3.64787047
842, 34.55, -2.54559277, -5.42375574
843, 34.55, -2.03448484, -7.63492246
844, 34.55, 0.00308762089, -8.60999817
845, 34.55, 2.04677115, -7.6195147
846, 34.55, 2.54378875, -5.41584353
847, 34.55, 1.1316104, -3.64807358
848, 34.275, -6, 2.61
849, 34.55, -8.03826763, 1.630204
850, 34.55, -8.54104606, -0.595973939
851, 34.55, -7.12833467, -2.35349971
852, 34.55, -4.86839842, -2.35193067
853, 34.55, -3.45507473, -0.579185078
854, 34.55, -3.95941983, 1.62730838
855, 34.55, -7.13692065, 2.34936405
856, 34.55, -8.53955681, 0.602288307
857, 34.55, -8.04341999, -1.62374097
858, 34.55, -6.0159256, -2.60995141
859, 34.55, -3.96509947, -1.63440504
860, 34.55, -3.4551761, 0.579630329
861, 34.55, -4.87672029, 2.35591653
862, 34.2760775, 6, 2.61
863, 34.55, 3.96582647, 1.63530977
864, 34.55, 3.45553348, -0.581197135
865, 34.55, 4.87226241, -2.35378587
866, 34.55, 7.13570492, -2.34995199
867, 34.55, 8.54533144, -0.57739747
868, 34.55, 8.03345343, 1.63620511
869, 34.55, 4.86392157, 2.34977144
870, 34.55, 3.45854702, 0.59423627
871, 34.55, 3.96669191, -1.63638571
872, 34.55, 6.00002754, -2.61
873, 34.55, 8.03221795, -1.63773936
874, 34.55, 8.54762191, 0.567205946
875, 34.55, 7.14548882, 2.34519836
876, 34.2684738, 1.00665967e-15, 8.61
877, 34.55, -2.03224385, 7.63770722
878, 34.55, -2.54456185, 5.41922036
879, 34.55, -1.13243656, 3.64847125
880, 34.55, 1.13589454, 3.65013966
881, 34.55, 2.54058861, 5.40207902
882, 34.55, 2.04058017, 7.62730838
883, 34.55, -1.12227599, 8.35639483
884, 34.55, -2.5423795, 6.59025967
885, 34.55, -2.04624291, 4.37981792
886, 34.55, 0.00889881953, 3.39001517
887, 34.55, 2.04042409, 4.37249592
888, 34.55, 2.54367717, 6.58464215
889, 34.55, 1.12520818, 8.35499608
890, 39.4818598, 1.95943488e-15, 8
891, 40.45, -4.69353661, 6.47848085
892, 40.45, -7.6237288, 2.42461528
893, 40.45, -7.6168159, -2.4462452
894, 40.45, -4.71288868, -6.46441647
895, 40.45, 0.0319534586, -7.99993619
896, 40.45, 4.70228202, -6.47213595
897, 40.45, 7.62262457, -2.42808456
898, 40.45, 7.63585672, 2.38614586
899, 40.45, 4.70228202, 6.47213595
900, 40.45, -2.4793644, 7.60609967
901, 40.45, -6.47147387, 4.70319316
902, 40.45, -7.99992815, 0.033905244
903, 40.45, -6.47122444, -4.70353635
904, 40.45, -2.45448987, -7.61416308
905, 40.45, 2.45931237, -7.61260683
906, 40.45, 6.47250812, -4.70176974
907, 40.45, 7.99982752, 0.0525317806
908, 40.45, 6.47573115, 4.69732967
909, 40.45, 2.46882909, 7.6095258
910, 34.55, -1.89999645, -4.50119598
911, 34.55, -2.35998593, -6.53559912
912, 34.55, -1.04604039, -8.18224644
913, 34.55, 1.04639326, -8.18207726
914, 34.55, 2.35933706, -6.5384502
915, 34.55, 1.89152757, -4.49052213
916, 34.55, -1.0604101, -3.82469993
917, 34.55, -2.36046033, -5.46649554
918, 34.55, -1.90191912, -7.49636348
919, 34.55, -0.00293815529, -8.41999822
920, 34.55, 1.89490655, -7.50523392
921, 34.55, 2.35935204, -5.46161542
922, 34.55, 1.05166856, -3.82046031
923, 34.55, -7.89196076, 1.50893488
924, 34.55, -8.35608208, -0.552518981
925, 34.55, -7.04953306, -2.18056882
926, 34.55, -4.94205435, -2.17649971
927, 34.55, -3.64082666, -0.539167073
928, 34.55, -4.11155603, 1.51333386
929, 34.55, -7.0526883, 2.17904735
930, 34.55, -8.35600077, 0.552865616
931, 34.55, -7.89884164, -1.50026678
932, 34.55, -6.01164566, -2.41997198
933, 34.55, -4.11391341, -1.51627088
934, 34.55, -3.64015764, 0.536231306
935, 34.55, -4.95438241, 2.18244905
936, 34.55, 4.10198285, 1.50130973
937, 34.55, 3.64136895, -0.541534455
938, 34.55, 4.94926229, -2.17998859
939, 34.55, 7.05350976, -2.17865031
940, 34.55, 8.36141103, -0.529280584
941, 34.55, 7.88821513, 1.51361938
942, 34.55, 4.93922507, 2.17512219
943, 34.55, 3.64182836, 0.543531511
944, 34.55, 4.10591189, -1.50626366
945, 34.55, 5.98998142, -2.41997926
946, 34.55, 7.88405488, -1.51879466
947, 34.55, 8.36086153, 0.531726271
948, 34.55, 7.05851856, 2.17622114
949, 34.55, -1.89303202, 7.50759072
950, 34.55, -2.35691971, 5.45106514
951, 34.55, -1.05262274, 3.82092098
952, 34.55, 1.04946864, 3.81940018
953, 34.55, 2.35907743, 5.4604134
954, 34.55, 1.88923473, 7.51234656
955, 34.55, -1.04545772, 8.18252564
956, 34.55, -2.35952846, 6.53761086
957, 34.55, -1.8957427, 4.49581929
958, 34.55, -0.00403359618, 3.58000336
959, 34.55, 1.89432318, 4.49403198
960, 34.55, 2.35849384, 6.54213174
961, 34.55, 1.05424304, 8.17829557
962, 40.45, 5.05437351, 0.738776375
963, 40.45, 4.82907194, -0.262540434
964, 40.45, 5.47402821, -1.07858874
965, 40.45, 6.50636032, -1.08793347
966, 40.45, 7.17742827, -0.231652024
967, 40.45, 6.97459855, 0.700112604
968, 40.45, 5.49133218, 1.0868565
969, 40.45, 4.83626369, 0.292776035
970, 40.45, 5.07981033, -0.770227868
971, 40.45, 6.0931139, -1.19638196
972, 40.45, 6.92199456, -0.768066422
973, 40.45, 7.15505885, 0.325329139
974, 40.45, 6.58740495, 1.04640118
975, 40.45, -0.941042309, -5.25539314
976, 40.45, -1.1697766, -6.26762417
977, 40.45, -0.391439813, -7.134361
978, 40.45, 0.514520029, -7.08409831
979, 40.45, 1.16421864, -6.29085213
980, 40.45, 0.950187111, -5.2670986
981, 40.45, -0.52314787, -4.92003875
982, 40.45, -1.16085188, -5.69598862
983, 40.45, -0.962766144, -6.71629697
984, 40.45, 0.092994795, -7.19639123
985, 40.45, 0.955415536, -6.72607242
986, 40.45, 1.17252968, -5.74470773
987, 40.45, 0.532782218, -4.92475905
988, 40.45, -2.34961235, 1.86529402
989, 40.45, -2.92326277, -0.674191943
990, 40.45, -1.29600323, -2.70561927
991, 40.45, 1.30236165, -2.70256436
992, 40.45, 2.91986357, -0.688764635
993, 40.45, 2.34995164, 1.86486657
994, 40.45, -1.31279675, 2.69751083
995, 40.45, -2.92034137, 0.686735976
996, 40.45, -2.34699669, -1.86858409
997, 40.45, -0.00676666674, -2.99999237
998, 40.45, 2.35626173, -1.85688736
999, 40.45, 2.91862046, 0.69401342
1000, 40.45, 1.31125299, 2.69826159
1001, 40.45, -0.929365717, 6.75913066
1002, 40.45, -1.1711027, 5.7382397
1003, 40.45, -0.520660487, 4.91883736
1004, 40.45, 0.520660487, 4.91883736
1005, 40.45, 1.16991349, 5.73297488
1006, 40.45, 0.938197779, 6.74818776
1007, 40.45, -0.47324292, 7.10274255
1008, 40.45, -1.16768687, 6.27659966
1009, 40.45, -0.951383579, 5.26865242
1010, 40.45, -1.09706117e-14, 4.8
1011, 40.45, 0.948310674, 5.26467227
1012, 40.45, 1.16881822, 6.27177927
1013, 40.45, 0.463811846, 7.10674232
1014, 40.45, -6.97574783, 0.69850996
1015, 40.45, -7.13081115, -0.401579546
1016, 40.45, -6.50125948, -1.09029305
1017, 40.45, -5.46894195, -1.07609356
1018, 40.45, -4.82931758, -0.263633589
1019, 40.45, -5.05091124, 0.734323177
1020, 40.45, -6.56898914, 1.05652797
1021, 40.45, -7.14261549, 0.366646764
1022, 40.45, -6.8737788, -0.822502649
1023, 40.45, -6.10366641, -1.19551381
1024, 40.45, -5.09121855, -0.783655717
1025, 40.45, -4.84019703, 0.307988741
1026, 40.45, -5.48965346, 1.08606925
1027, 36.1849634, -5.09453068e-16, -3.58
1028, 37.5, -1.88816351, -4.48631623
1029, 37.5, -2.34731475, -6.58865395
1030, 37.5, -1.05129056, -8.17972204
1031, 37.5, 1.07245899, -8.1693851
1032, 37.5, 2.35184227, -6.57029636
1033, 37.5, 1.89635482, -4.49659107
1034, 37.5, -1.03574658, -3.81284911
1035, 37.5, -2.37278921, -5.5243201
1036, 37.5, -1.93523152, -7.45302408
1037, 37.5, 0.0498083405, -8.41948737
1038, 37.5, 1.88047757, -7.52322163
1039, 37.5, 2.36632161, -5.49312521
1040, 37.5, 1.05909196, -3.82405785
1041, 36.0432916, -6, 2.42
1042, 37.5, -7.90919059, 1.48707474
1043, 37.5, -8.37571867, -0.460826215
1044, 37.5, -7.0362579, -2.18690868
1045, 37.5, -4.95602827, -2.18323683
1046, 37.5, -3.62884336, -0.483752177
1047, 37.5, -4.05672752, 1.44225242
1048, 37.5, -7.03435906, 2.18780743
1049, 37.5, -8.34474482, 0.598808603
1050, 37.5, -7.8425132, -1.5689312
1051, 37.5, -6.13833247, -2.41604307
1052, 37.5, -4.1032471, -1.50290666
1053, 37.5, -3.66379652, 0.631310779
1054, 37.5, -4.95460532, 2.18255583
1055, 36.1879608, 6, 2.42
1056, 37.5, 4.05211141, 1.43601186
1057, 37.5, 3.62705774, -0.474915823
1058, 37.5, 4.95648313, -2.18345427
1059, 37.5, 7.04159899, -2.18436983
1060, 37.5, 8.36243014, -0.524713096
1061, 37.5, 7.88603624, 1.51633351
1062, 37.5, 4.97045905, 2.19007886
1063, 37.5, 3.67412016, 0.668343464
1064, 37.5, 4.10216896, -1.50154499
1065, 37.5, 5.99139771, -2.41998471
1066, 37.5, 7.8950189, -1.50509247
1067, 37.5, 8.36928704, 0.492827464
1068, 37.5, 7.09298011, 2.15911891
1069, 36.0135713, 9.60123091e-16, 8.42
1070, 37.5, -1.88582639, 7.51659448
1071, 37.5, -2.36198936, 5.47330627
1072, 37.5, -1.04999865, 3.81965534
1073, 37.5, 1.04999865, 3.81965534
1074, 37.5, 2.35932555, 5.46149934
1075, 37.5, 1.89203219, 7.50884532
1076, 37.5, -0.986065028, 8.20999452
1077, 37.5, -2.3557765, 6.55382044
1078, 37.5, -1.91799678, 4.52430072
1079, 37.5, -0.0323585937, 3.58021635
1080, 37.5, 1.89465503, 4.4944495
1081, 37.5, 2.35932555, 6.53850066
1082, 37.5, 1.11757813, 8.14648995
1083, 37.5, 5.04217105, 0.722885678
1084, 37.5, 4.83408863, -0.283990637
1085, 37.5, 5.49350042, -1.08786864
1086, 37.5, 6.52905071, -1.07708186
1087, 37.5, 7.14343529, -0.364082053
1088, 37.5, 6.97212604, 0.70354173
1089, 37.5, 5.52399635, 1.10155369
1090, 37.5, 4.84077037, 0.310139736
1091, 37.5, 5.04106439, -0.721417001
1092, 37.5, 5.96776454, -1.19956695
1093, 37.5, 6.89509648, -0.799251078
1094, 37.5, 7.16891203, 0.271375505
1095, 37.5, 6.58615384, 1.04710252
1096, 38.9885534, 6, 1.2
1097, 37.5, -0.947676583, -5.26385525
1098, 37.5, -1.16677713, -6.28041241
1099, 37.5, -0.506264175, -7.08797821
1100, 37.5, 0.533567595, -7.07485144
1101, 37.5, 1.17498451, -6.24374454
1102, 37.5, 0.922969606, -5.23310554
1103, 37.5, -0.479063636, -4.89977364
1104, 37.5, -1.16128338, -5.69764111
1105, 37.5, -0.971358369, -6.70460125
1106, 37.5, -0.0373082839, -7.1994199
1107, 37.5, 0.909607473, -6.78269678
1108, 37.5, 1.17586428, -5.76053559
1109, 37.5, 0.573044846, -4.94566627
1110, 38.9426735, -8.08266887e-16, -4.8
1111, 39.475, 7.34788079e-16, 3
1112, 38.5, -2.38577129, 1.81881701
1113, 38.5, -2.92504607, -0.666412388
1114, 38.5, -1.31713879, -2.69539337
1115, 38.5, 1.32543376, -2.69132409
1116, 38.5, 2.92980915, -0.645149879
1117, 38.5, 2.3826455, 1.82290987
1118, 38.5, -1.3090968, 2.69930835
1119, 38.5, -2.89857784, 0.77346398
1120, 38.5, -2.35490264, -1.85861065
1121, 38.5, 0.00263445048, -2.99999884
1122, 38.5, 2.37050176, -1.83867382
1123, 38.5, 2.91835962, 0.695109455
1124, 38.5, 1.30454563, 2.70151082
1125, 37.5, -0.950280069, 6.73278086
1126, 37.5, -1.16535769, 5.71374581
1127, 37.5, -0.520660487, 4.91883736
1128, 37.5, 0.520660487, 4.91883736
1129, 37.5, 1.16991349, 5.73297488
1130, 37.5, 0.919642671, 6.7708809
1131, 37.5, -0.468601546, 7.10472286
1132, 37.5, -1.16004653, 6.30707011
1133, 37.5, -0.961597718, 5.28213523
1134, 37.5, -1.09706117e-14, 4.8
1135, 37.5, 0.862422107, 5.16559715
1136, 37.5, 1.17670423, 6.23530227
1137, 37.5, 0.519678888, 7.08163481
1138, 38.9832943, 6.61309272e-16, 7.2
1139, 37.5, -6.94062519, 0.745133715
1140, 37.5, -7.1661423, -0.283040878
1141, 37.5, -6.50247057, -1.08973544
1142, 37.5, -5.46618843, -1.0747303
1143, 37.5, -4.82795526, -0.257509459
1144, 37.5, -5.07138791, 0.760052356
1145, 37.5, -6.52469587, 1.07921001
1146, 37.5, -7.16201654, 0.299528884
1147, 37.5, -6.9504135, -0.732607792
1148, 37.5, -6.04340243, -1.19921484
1149, 37.5, -5.08424276, -0.775492542
1150, 37.5, -4.82433938, 0.240462265
1151, 37.5, -5.44272341, 1.06275247
1152, 38.9834414, -6, 1.2
1153, 38, -9, -9.5
1154, 38, -4.49090461, -9.5
1155, 38, -11.2502376, -9.5
1156, 38, -6.74878235, -9.5
1157, 38, -2.3055954, -9.5
1158, 37.9807389, -13.8920686, -9.5
1159, 37.90388, -14.6724298, -9.5
1160, 37.7509025, -15.4415, -9.5
1161, 37.5234458, -16.1914076, -9.5
1162, 37.2232661, -16.9161877, -9.5
1163, 36.8535635, -17.6078679, -9.5
1164, 36.4178832, -18.259904, -9.5
1165, 35.9204689, -18.8660003, -9.5
1166, 35.3651321, -19.4212558, -9.5
1167, 34.7598541, -19.9179203, -9.5
1168, 34.2219841, -20.2851649, -9.5
1169, 34, -20.9580449, -9.5
1170, 29.8718096, -21.5, -9.5
1171, 25.7469553, -21.5, -9.5
1172, 21.5993963, -21.5, -9.5
1173, 31.9381388, -21.5, -9.5
1174, 27.8123483, -21.5, -9.5
1175, 23.683919, -21.5, -9.5
1176, 19.5831334, -21.5, -9.5
1177, 17.5, -20.2573011, -9.5
1178, 17.5, -19.0049263, -9.5
1179, 24.4953925, -19, -9.5
1180, 20.9747781, -19, -9.5
1181, 26.256177, -19, -9.5
1182, 22.7612369, -19, -9.5
1183, 19.3157532, -19, -9.5
1184, 17.5, -18.7583772, 9.5
1185, 22.2487191, -18.5, 8.2279807
1186, 25.7271607, -18.5, 4.7501396
1187, 26.999958, -18.5, -0.0282468934
1188, 25.7266442, -18.5, -4.75103411
1189, 22.248048, -18.5, -8.22836804
1190, 17.4865343, -18.5, -9.49999046
1191, 12.75, -18.5, -8.22724134
1192, 9.28574718, -18.5, -4.77242607
1193, 8.0000527, -18.5, -0.0316419156
1194, 9.27565139, -18.5, 4.75500682
1195, 12.75, -18.5, 8.22724134
1196, 19.9740625, -18.5, 9.17218701
1197, 24.2238961, -18.5, 6.71112664
1198, 26.6714188, -18.5, 2.47690878
1199, 26.6783403, -18.5, -2.45113644
1200, 24.2241472, -18.5, -6.71087513
1201, 19.9753151, -18.5, -9.17184905
1202, 15.0327636, -18.5, -9.17402555
1203, 10.778185, -18.5, -6.7132111
1204, 8.32339807, -18.5, -2.45763646
1205, 8.32552406, -18.5, 2.46556103
1206, 10.7775208, -18.5, 6.71254598
1207, 15.0339019, -18.5, 9.17433159
1208, 22.1001475, -19, 8.31195784
1209, 20.0784288, -19, 9.14339678
1210, 24.0494576, -19, 6.88146825
1211, 26.8382125, -19, 1.74579138
1212, 26.8434613, -19, -1.71747818
1213, 26.3460464, -19, 3.46373535
1214, 26.9999494, -19, -0.030998224
1215, 26.3509137, -19, -3.45127895
1216, 22.1049125, -19, -8.30931894
1217, 24.0517374, -19, -6.87929775
1218, 20.0925004, -19, -9.13941692
1219, 16.8755634, -19.01, -9.47945563
1220, 17.3104621, -19.01, -9.49810904
1221, 16.4935371, -19.01, -9.44653547
1222, 15.6475873, -19.01, -9.31764815
1223, 15.9829533, -19.01, -9.37808985
1224, 15.2989566, -19.01, -9.24150464
1225, 14.4463251, -19.01, -8.99583623
1226, 14.7776137, -19.01, -9.101572
1227, 14.1536245, -19.01, -8.8911063
1228, 13.2982574, -19.01, -8.52029104
1229, 13.5792832, -19.01, -8.65320634
1230, 13.021731, -19.01, -8.37825201
1231, 12.2220828, -19.01, -7.89896132
1232, 12.5533288, -19.01, -8.1105144
1233, 11.9664619, -19.01, -7.7220435
1234, 11.2362148, -19.01, -7.14247817
1235, 11.4732638, -19.01, -7.34359931
1236, 10.9804439, -19.01, -6.90980378
1237, 10.3666744, -19.01, -6.27420636
1238, 10.6102626, -19.01, -6.54075824
1239, 10.1404472, -19.01, -6.00724413
1240, 9.60380119, -19.01, -5.28204926
1241, 9.82513186, -19.01, -5.59878549
1242, 9.38668189, -19.01, -4.94207135
1243, 8.97858512, -19.01, -4.19946287
1244, 9.16557104, -19.01, -4.55930849
1245, 8.81486505, -19.01, -3.84947151
1246, 8.50452899, -19.01, -3.05475061
1247, 8.6201647, -19.01, -3.37617018
1248, 8.39602652, -19.01, -2.71434466
1249, 8.18431412, -19.01, -1.86225577
1250, 8.26151094, -19.01, -2.21366661
1251, 8.12230719, -19.01, -1.51949911
1252, 8.02091873, -19.01, -0.630093825
1253, 8.05393836, -19.01, -1.01090033
1254, 8.0026454, -19.01, -0.224177536
1255, 8.02109934, -19.01, 0.632805082
1256, 8.0029431, -19.01, 0.236453512
1257, 8.05349504, -19.01, 1.00674924
1258, 8.1844429, -19.01, 1.86289985
1259, 8.12359606, -19.01, 1.52743219
1260, 8.26344394, -19.01, 2.22171828
1261, 8.50595714, -19.01, 3.05895292
1262, 8.3977221, -19.01, 2.72002517
1263, 8.62288351, -19.01, 3.38331241
1264, 8.9802537, -19.01, 4.20284702
1265, 8.81258133, -19.01, 3.84431486
1266, 9.17108786, -19.01, 4.56937879
1267, 9.60182286, -19.01, 5.27909063
1268, 9.38093517, -19.01, 4.93262469
1269, 9.82528859, -19.01, 5.59900034
1270, 10.3646105, -19.01, 6.2718591
1271, 10.1403233, -19.01, 6.00709243
1272, 10.6083629, -19.01, 6.53875664
1273, 11.2260042, -19.01, 7.13351084
1274, 10.9662356, -19.01, 6.89637029
1275, 11.4967419, -19.01, 7.36280464
1276, 12.2220828, -19.01, 7.89896132
1277, 11.9664619, -19.01, 7.7220435
1278, 12.4833554, -19.01, 8.06742072
1279, 13.2982574, -19.01, 8.52029104
1280, 13.021731, -19.01, 8.37825201
1281, 13.5792832, -19.01, 8.65320634
1282, 14.4463251, -19.01, 8.99583623
1283, 14.1536245, -19.01, 8.8911063
1284, 14.7422956, -19.01, 9.09093319
1285, 15.6419078, -19.01, 9.31651723
1286, 15.2985208, -19.01, 9.24140082
1287, 15.981786, -19.01, 9.37790096
1288, 16.8751483, -19.01, 9.47942827
1289, 16.4916504, -19.01, 9.44633427
1290, 17.3040471, -19.01, 9.49797886
1291, 17.5, -19.0050198, 9.5
1292, 16.8873884, -19.01, 9.45984732
1293, 16.5668589, -19.01, 9.4388387
1294, 17.2091192, -19.01, 9.48093466
1295, 16.9018864, -21.5, 9.46079757
1296, 16.2600012, -20.2601833, 9.41872618
1297, 17.5, -20.2445276, 9.5
1298, 15.6429667, -21.5, 9.29599039
1299, 15.0412191, -20.2594584, 9.17629535
1300, 15.6708232, -19.01, 9.30153141
1301, 15.3478635, -19.01, 9.23729072
1302, 15.9876174, -19.01, 9.36454569
1303, 14.4499258, -21.5, 8.97557833
1304, 13.8645074, -20.2564805, 8.77685556
1305, 14.4528632, -19.01, 8.97657545
1306, 14.1586853, -19.01, 8.87671551
1307, 14.7470412, -19.01, 9.0764354
1308, 13.3046981, -21.5, 8.50078814
1309, 12.75, -20.2580538, 8.22724134
1310, 13.3072537, -19.01, 8.50204845
1311, 13.0286268, -19.01, 8.36464489
1312, 13.5858805, -19.01, 8.639452
1313, 12.2332248, -21.5, 7.88194321
1314, 11.7167664, -20.2565702, 7.53685673
1315, 12.2333832, -19.01, 7.88204903
1316, 11.9750748, -19.01, 7.70945288
1317, 12.4916916, -19.01, 8.05464519
1318, 11.249626, -21.5, 7.12718558
1319, 10.7824856, -20.2602776, 6.71751442
1320, 11.249626, -19.01, 7.12718558
1321, 11.0014784, -19.01, 6.90956599
1322, 11.4831962, -19.01, 7.33202115
1323, 10.3728144, -21.5, 6.250374
1324, 9.96314327, -20.255, 5.78323358
1325, 10.3723727, -19.01, 6.24987034
1326, 10.1502593, -19.01, 5.99659856
1327, 10.5897944, -19.01, 6.49779226
1328, 9.61857582, -21.5, 5.26755195
1329, 9.27275866, -20.2576702, 4.75
1330, 9.6114115, -19.01, 5.25682978
1331, 9.43427537, -19.01, 4.99172684
1332, 9.79178168, -19.01, 5.52677283
1333, 8.99702052, -21.5, 4.19085836
1334, 8.72314444, -20.2637472, 3.63549261
1335, 8.99707854, -19.01, 4.19097602
1336, 8.85794228, -19.01, 3.90883559
1337, 9.13927434, -19.01, 4.47932056
1338, 8.52407416, -21.5, 3.04905047
1339, 8.32370465, -20.2471412, 2.45878093
1340, 8.52079866, -19.01, 3.03940116
1341, 8.4167428, -19.01, 2.73286247
1342, 8.63104566, -19.01, 3.36417833
1343, 8.20309053, -21.5, 1.85241278
1344, 8.08127382, -20.243654, 1.23999883
1345, 8.20292685, -19.01, 1.85158992
1346, 8.1362009, -19.01, 1.51613592
1347, 8.2676209, -19.01, 2.17682888
1348, 8.04213699, -21.5, 0.642886288
1349, 8, -20.2387724, 1.54915287e-15
1350, 8.04024564, -19.01, 0.614029789
1351, 8.01814401, -19.01, 0.276824115
1352, 8.06140911, -19.01, 0.936921944
1353, 8.04168824, -21.5, -0.636039624
1354, 8.08127382, -20.2422437, -1.23999883
1355, 8.03982093, -19.01, -0.607550013
1356, 8.06127486, -19.01, -0.934873721
1357, 8.0187962, -19.01, -0.286774521
1358, 8.20546104, -21.5, -1.86433017
1359, 8.32370465, -20.2627545, -2.45878093
1360, 8.19931308, -19.01, -1.83342226
1361, 8.26617532, -19.01, -2.16956144
1362, 8.13444899, -19.01, -1.5073285
1363, 8.52406262, -21.5, -3.04901649
1364, 8.72314444, -20.2569289, -3.63549261
1365, 8.5242345, -19.01, -3.04952282
1366, 8.63178525, -19.01, -3.3663571
1367, 8.41747209, -19.01, -2.7350109
1368, 8.99931747, -21.5, -4.1955161
1369, 9.27275866, -20.2527976, -4.75
1370, 8.99904403, -19.01, -4.19496163
1371, 9.13999676, -19.01, -4.48078548
1372, 8.85874581, -19.01, -3.91046499
1373, 9.61763365, -21.5, -5.26614189
1374, 9.96314327, -20.2520612, -5.78323358
1375, 9.6126344, -19.01, -5.25865999
1376, 9.79169939, -19.01, -5.52664968
1377, 9.43579147, -19.01, -4.99399584
1378, 10.3737872, -21.5, -6.25148328
1379, 10.7824856, -20.2502903, -6.71751442
1380, 10.3700549, -19.01, -6.24722735
1381, 10.5886449, -19.01, -6.49648154
1382, 10.1475872, -19.01, -5.99355153
1383, 11.2505033, -21.5, -7.12795492
1384, 11.7167664, -20.2553192, -7.53685673
1385, 11.249626, -19.01, -7.12718558
1386, 11.4831962, -19.01, -7.33202115
1387, 11.0014247, -19.01, -6.90951884
1388, 12.2333832, -21.5, -7.88204903
1389, 12.75, -20.255, -8.22724134
1390, 12.2333832, -19.01, -7.88204903
1391, 12.5026911, -19.01, -8.0619948
1392, 11.9750748, -19.01, -7.70945288
1393, 13.3072537, -21.5, -8.50204845
1394, 13.8645074, -20.255, -8.77685556
1395, 13.3072537, -19.01, -8.50204845
1396, 13.5858805, -19.01, -8.639452
1397, 13.0286268, -19.01, -8.36464489
1398, 14.4528632, -21.5, -8.97657545
1399, 15.0412191, -20.255, -9.17629535
1400, 14.4528632, -19.01, -8.97657545
1401, 14.7665809, -19.01, -9.08306826
1402, 14.1586853, -19.01, -8.87671551
1403, 15.6343086, -21.5, -9.2942682
1404, 16.2600012, -20.2466837, -9.41872618
1405, 15.6553666, -19.01, -9.29845689
1406, 15.9777903, -19.01, -9.36259095
1407, 15.333594, -19.01, -9.23445235
1408, 16.8855475, -21.5, -9.45972666
1409, 16.8839525, -19.01, -9.45962211
1410, 17.1979644, -19.01, -9.48020354
1411, 16.5711433, -19.01, -9.43911951
1412, 22.2069827, -18.5, 6.46871809
1413, 25.1196633, -18.5, 2.43736137
1414, 25.1414837, -18.5, -2.36806405
1415, 22.193352, -18.5, -6.4786146
1416, 17.5069101, -18.5, -7.99999702
1417, 12.797718, -18.5, -6.47213595
1418, 9.86667045, -18.5, -2.39421802
1419, 9.87763033, -18.5, 2.42888464
1420, 12.797718, -18.5, 6.47213595
1421, 19.9907249, -18.5, 7.60238709
1422, 23.9868981, -18.5, 4.68189633
1423, 25.4999002, -18.5, -0.0399559627
1424, 23.9733378, -18.5, -4.70062733
1425, 19.9856307, -18.5, -7.60405419
1426, 15.0092361, -18.5, -7.60237431
1427, 11.0168676, -18.5, -4.6871094
1428, 9.50003038, -18.5, -0.0220484888
1429, 11.0214573, -18.5, 4.69345126
1430, 14.9957606, -18.5, 7.59794612
1431, 17.5, -17.5085609, 8
1432, 22.1929109, -16.55, 6.47893408
1433, 25.1308215, -16.55, 2.4021996
1434, 25.1236537, -16.55, -2.42485142
1435, 22.2086421, -16.55, -6.46751028
1436, 17.4899266, -16.55, -7.99999366
1437, 12.7838801, -16.55, -6.4620595
1438, 9.88244473, -16.55, -2.44394183
1439, 9.85574884, -16.55, 2.35911513
1440, 12.7954991, -16.55, 6.47052326
1441, 19.9725294, -16.55, 7.60832429
1442, 23.9702379, -16.55, 4.70489332
1443, 25.4999234, -16.55, 0.0349983002
1444, 23.9740098, -16.55, -4.69970187
1445, 19.9743465, -16.55, -7.60773353
1446, 15.0467451, -16.55, -7.61456108
1447, 11.024822, -16.55, -4.69809221
1448, 9.50004799, -16.55, 0.0277097683
1449, 11.0225971, -16.55, 4.69502409
1450, 15.0330454, -16.55, 7.6101337
1451, 36.0923354, -18.6763748, -5
1452, 36, -20.1261325, -5
1453, 31.9446809, -21.5, -5
1454, 27.8584458, -21.5, -5
1455, 23.776824, -21.5, -5
1456, 33.8786053, -21.5, -5
1457, 29.893408, -21.5, -5
1458, 25.8131161, -21.5, -5
1459, 21.7395865, -21.5, -5
1460, 19.7037241, -22.7319893, -5
1461, 24.0978678, -24, -5
1462, 28.5663142, -24, -5
1463, 21.9337239, -24, -5
1464, 26.3882632, -24, -5
1465, 30.7588302, -24, -5
1466, 33.2132667, -23.9883169, -5
1467, 33.6270807, -23.9446604, -5
1468, 34.0138655, -23.8634096, -5
1469, 34.3979964, -23.741733, -5
1470, 34.749577, -23.5906805, -5
1471, 35.0917625, -23.4027039, -5
1472, 35.4166069, -23.1802568, -5
1473, 35.7203469, -22.9247597, -5
1474, 35.9944529, -22.6434523, -5
1475, 36.2358891, -22.3415954, -5
1476, 36.449811, -22.013169, -5
1477, 36.6297823, -21.6669032, -5
1478, 36.7779095, -21.2968899, -5
1479, 36.8848726, -20.9281802, -5
1480, 36.9590989, -20.5297445, -5
1481, 36.9918804, -20.1407292, -5
1482, 37, -18.6534198, -5
1483, 36.8280315, -17.6504654, -5
1484, 36.4177744, -18.2600508, -5
1485, 36.1840836, -18.5751463, -7.25024226
1486, 35.6568542, -19.1568542, -7.26501966
1487, 35.8325514, -18.9630023, -5.00702208
1488, 36.6517569, -17.9445619, -7.25022636
1489, 37.0277289, -17.3172904, -4.99961548
1490, 37.0553701, -17.2711739, -7.24950235
1491, 38, -16.7594507, -4
1492, 38, -18.3034007, -4
1493, 38, -15.0688262, -4
1494, 37.6948411, -19.9850085, -4.71951871
1495, 37.9517768, -19.9976309, -4.30697182
1496, 37.2596898, -19.9636309, -4.96593174
1497, 37.240097, -16.8806017, -4.9707489
1498, 37.5224628, -16.1941548, -4.85266206
1499, 37.7511761, -15.4404075, -4.66010185
1500, 37.9050417, -14.6645982, -4.42532276
1501, 37.9828706, -13.8486779, -4.18429724
1502, 37.6749538, -20.445441, -4.71829666
1503, 37.9283898, -20.4830347, -4.30626566
1504, 37.2607412, -20.3839984, -4.9608722
1505, 37.9882481, -20.2392153, -4
1506, 37.6165264, -20.9034617, -4.71047651
1507, 37.8626813, -20.9651202, -4.28849761
1508, 37.1988006, -20.7988268, -4.96198861
1509, 37.9405111, -20.7288178, -4
1510, 37.5025733, -21.3504763, -4.71379404
1511, 37.7409754, -21.4357779, -4.30120652
1512, 37.0932947, -21.204034, -4.96406487
1513, 37.845324, -21.2094056, -4
1514, 37.3453909, -21.7838216, -4.71717645
1515, 37.5746528, -21.8922544, -4.31071578
1516, 36.9549154, -21.5991405, -4.96426365
1517, 37.7015058, -21.6839404, -4
1518, 37.1526232, -22.2029539, -4.71375933
1519, 37.3690203, -22.3326573, -4.30396896
1520, 36.7828698, -21.9813323, -4.96305446
1521, 37.5142877, -22.1356536, -4
1522, 36.9171294, -22.5996928, -4.71323427
1523, 37.1195961, -22.7498524, -4.30297507
1524, 36.5720922, -22.3437958, -4.96248028
1525, 37.2834285, -22.5674987, -4
1526, 36.6443345, -22.9719195, -4.71206301
1527, 36.8317319, -23.1417666, -4.29650849
1528, 36.3304186, -22.6874027, -4.96045089
1529, 37.0107101, -22.9755696, -4
1530, 36.3405842, -23.32044, -4.70449824
1531, 36.5080666, -23.5052283, -4.28307046
1532, 36.0600537, -23.0109224, -4.95642579
1533, 36.6998644, -23.3542232, -4
1534, 35.9945064, -23.6257752, -4.71208029
1535, 36.1449049, -23.828564, -4.29798099
1536, 35.7371189, -23.2787282, -4.96285424
1537, 36.3542268, -23.6998611, -4
1538, 35.6221618, -23.8975961, -4.7169127
1539, 35.7530407, -24.1159543, -4.30690463
1540, 35.4004262, -23.5276526, -4.96401249
1541, 35.9722938, -24.0131396, -4
1542, 35.2290883, -24.1391943, -4.71329091
1543, 35.3371945, -24.3677655, -4.30071085
1544, 35.0441522, -23.7481797, -4.96332852
1545, 35.5664271, -24.2840708, -4
1546, 34.8125229, -24.3374171, -4.71364004
1547, 34.8983887, -24.5773958, -4.29534558
1548, 34.6684994, -23.9348984, -4.96201305
1549, 35.1379222, -24.5132147, -4
1550, 34.3789329, -24.4953036, -4.71251088
1551, 34.4404326, -24.7408238, -4.29735638
1552, 34.2742841, -24.077522, -4.96258717
1553, 34.6833841, -24.7017048, -4
1554, 33.9312556, -24.6059808, -4.71532262
1555, 33.9683637, -24.8561437, -4.30704652
1556, 33.868414, -24.1823378, -4.96271553
1557, 34.2065835, -24.8460309, -4
1558, 33.4754358, -24.6777175, -4.71273416
1559, 33.4877562, -24.9285054, -4.3044618
1560, 33.4541747, -24.244938, -4.96338197
1561, 33.7294649, -24.9404151, -4
1562, 33, -24.7154165, -4.69869823
1563, 33, -24.948309, -4.31734859
1564, 33, -24.2392758, -4.97095164
1565, 33.2489708, -24.9877688, -4
1566, 23.5899706, -25, -4
1567, 28.3070028, -25, -4
1568, 21.229243, -25, -4
1569, 25.8861296, -25, -4
1570, 30.6141755, -25, -4
1571, 19.4923907, -24.7795024, -4.62639921
1572, 19.1801755, -24.9660564, -4.25833116
1573, 19.6839375, -24.2884504, -4.95749484
1574, 17.5, -22.3627295, -3.58
1575, 17.5, -23.4674674, -3.58
1576, 17.5, -20.8826407, -3.58
1577, 19.383888, -19.5, -4.48099836
1578, 19.8549673, -19.5, -6.55725125
1579, 18.5468407, -19.5, -8.18186262
1580, 16.4336833, -19.5, -8.17241081
1581, 15.1406745, -19.5, -6.53850066
1582, 15.609125, -19.5, -4.48970478
1583, 18.5614105, -19.5, -3.82518788
1584, 19.875291, -19.5, -5.53697466
1585, 19.4468441, -19.5, -7.4374276
1586, 17.4588329, -19.5, -8.41964982
1587, 15.5824419, -19.5, -7.47626928
1588, 15.1379112, -19.5, -5.47375238
1589, 16.4042619, -19.5, -3.84227942
1590, 18.2757835, -25, -3.70771729
1591, 19.4995323, -21.5, -7.36318398
1592, 17.2767821, -21.5, -8.40968333
1593, 15.2959352, -21.5, -6.99924892
1594, 19.897566, -21.5, -6.32875121
1595, 18.455624, -21.5, -8.22332696
1596, 16.0895243, -21.5, -7.96645829
1597, 15.0912225, -21.5, -5.76721036
1598, 15.5327527, -22.7380972, -4.59062488
1599, 15.5664319, -24.3308673, -4.54476311
1600, 15.5406324, -24.1629007, -4.57969068
1601, 15.6066359, -24.4769672, -4.49282634
1602, 15.9992041, -24.9230423, -4.10157656
1603, 15.8323235, -24.8204697, -4.24635948
1604, 16.2000911, -24.9818377, -3.95876582
1605, 16.9399455, -25, -3.64569779
1606, 35.3694591, -19.4173341, -5.10199628
1607, 34.72268, -19.9454905, -5.46102193
1608, 34.1529045, -20.3265696, -6.23303309
1609, 34, -20.9561291, -7
1610, 34.3988893, -21.5, -5.80148237
1611, 35.0983918, -21.5, -5.21475416
1612, 34.1347144, -21.5, -6.27839775
1613, 35.0751463, -19.6840836, -7.34387792
1614, 37.3910363, -16.5614675, -7.21817584
1615, 37.9614778, -14.2841371, -6.88744127
1616, 37.9614778, -14.2841371, -8.19372064
1617, 37.9614778, -14.2841371, -5.58116191
1618, 38, -13.5, -6.75
1619, 38, -13.5, -8.125
1620, 38, -13.5, -5.39319186
1621, 37.8462822, -15.0607226, -7.01675354
1622, 37.6555227, -15.8222774, -7.12771096
1623, 37.9759236, -20.4900857, -0.00220642314
1624, 37.9759236, -20.4900857, -1.9867786
1625, 37.9759236, -20.4900857, 2.00017283
1626, 37.9882276, -20.2396332, 4
1627, 38, -20, 0.0019110006
1628, 38, -20, -1.98787103
1629, 38, -20, 1.99568737
1630, 37.9039264, -20.9754516, 0.00219460991
1631, 37.9039264, -20.9754516, -1.9924888
1632, 37.9039264, -20.9754516, 2.0009523
1633, 37.9404829, -20.7290078, 4
1634, 37.7847017, -21.4514234, 0.00101915808
1635, 37.7847017, -21.4514234, -1.99560024
1636, 37.7847017, -21.4514234, 2.00068048
1637, 37.8448858, -21.211155, 4
1638, 37.6193977, -21.9134172, 0.000593681267
1639, 37.6193977, -21.9134172, -1.98914192
1640, 37.6193977, -21.9134172, 1.9995487
1641, 37.7015753, -21.6837461, 4
1642, 37.4096063, -22.3569837, -0.00028413946
1643, 37.4096063, -22.3569837, -1.98457656
1644, 37.4096063, -22.3569837, 1.99956681
1645, 37.5140181, -22.1362235, 4
1646, 37.1573481, -22.7778512, -0.000353980878
1647, 37.1573481, -22.7778512, -2.00039907
1648, 37.1573481, -22.7778512, 1.99928602
1649, 37.2824596, -22.5691152, 4
1650, 36.8650523, -23.1719664, 0.000289635225
1651, 36.8650523, -23.1719664, -2.00021638
1652, 36.8650523, -23.1719664, 1.99901204
1653, 37.0095443, -22.9771414, 4
1654, 36.5355339, -23.5355339, -0.000484817156
1655, 36.5355339, -23.5355339, -2.00002032
1656, 36.5355339, -23.5355339, 2.00114156
1657, 36.7007821, -23.3532107, 4
1658, 36.1719664, -23.8650523, -0.000100885347
1659, 36.1719664, -23.8650523, -1.99381684
1660, 36.1719664, -23.8650523, 2.00092452
1661, 36.3551785, -23.6989985, 4
1662, 35.7778512, -24.1573481, 0.00382645426
1663, 35.7778512, -24.1573481, -1.99625353
1664, 35.7778512, -24.1573481, 1.99955132
1665, 35.9737605, -24.0120518, 4
1666, 35.3569837, -24.4096063, 0.00220340876
1667, 35.3569837, -24.4096063, -1.99156902
1668, 35.3569837, -24.4096063, 1.99999706
1669, 35.5664004, -24.2840868, 4
1670, 34.9134172, -24.6193977, -0.00038642837
1671, 34.9134172, -24.6193977, -1.99823864
1672, 34.9134172, -24.6193977, 2.00035923
1673, 35.1341688, -24.5149899, 4
1674, 34.4514234, -24.7847017, 0.00227796147
1675, 34.4514234, -24.7847017, -1.99743426
1676, 34.4514234, -24.7847017, 2.00052316
1677, 34.684592, -24.7012726, 4
1678, 33.9754516, -24.9039264, -0.000180644603
1679, 33.9754516, -24.9039264, -1.99087748
1680, 33.9754516, -24.9039264, 1.99947965
1681, 34.2114447, -24.8448132, 4
1682, 33.4900857, -24.9759236, 0.00080962109
1683, 33.4900857, -24.9759236, -1.99765318
1684, 33.4900857, -24.9759236, 1.99927704
1685, 33.7309117, -24.9402005, 4
1686, 33, -25, -0.000224087648
1687, 33, -25, -1.999417
1688, 33, -25, 2.0003295
1689, 33.243864, -24.9880197, 4
1690, 16.2066336, -25, -3.76249079
1691, 15.614943, -25, -3.50066842
1692, 14.9746043, -25, -3.07088936
1693, 14.4307894, -25, -2.52744127
1694, 13.9935484, -25, -1.87423743
1695, 13.7393775, -25, -1.2995254
1696, 13.9199996, -25, -0.00130565104
1697, 13.7376421, -25, 1.2938045
1698, 13.9906094, -25, 1.86873895
1699, 14.4300969, -25, 2.52659744
1700, 14.9747313, -25, 3.07099355
1701, 15.6159542, -25, 3.50120892
1702, 16.2087347, -25, 3.76312813
1703, 17.6526287, -25, 3.58481792
1704, 23.5936745, -25, 4
1705, 28.2974264, -25, 4
1706, 21.23485, -25, 4
1707, 25.9481738, -25, 4
1708, 30.6219229, -25, 4
1709, 25.4008108, -25, 1.49777106
1710, 25.8573477, -25, -0.547094066
1711, 24.5572659, -25, -2.17682998
1712, 22.4600954, -25, -2.18517696
1713, 21.1430305, -25, -0.548720986
1714, 21.6261515, -25, 1.53136924
1715, 24.4801073, -25, 2.21264313
1716, 25.8588636, -25, 0.540520428
1717, 25.398105, -25, -1.50119863
1718, 23.50762, -25, -2.419988
1719, 21.5909869, -25, -1.4873026
1720, 21.1426237, -25, 0.54697056
1721, 22.3964005, -25, 2.15371033
1722, 15.8200385, -24.9195861, -4.05578593
1723, 14.8825991, -24.701583, -3.91721725
1724, 15.0706136, -24.9267007, -3.63583368
1725, 14.7633496, -24.3770382, -4.09568678
1726, 15.1275468, -24, -4.37403777
1727, 14.7221488, -22.7397587, -4.15734806
1728, 15.1129796, -21.5, -4.36625147
1729, 18.4444371, -19.5, -5.25970372
1730, 18.6677355, -19.5, -6.27639437
1731, 18.0038229, -19.5, -7.08911089
1732, 16.9318976, -19.5, -7.05700506
1733, 16.3302678, -19.5, -6.26781799
1734, 16.5780874, -19.5, -5.23183519
1735, 17.9806321, -19.5, -4.90045794
1736, 18.6623614, -19.5, -5.70181208
1737, 18.465431, -19.5, -6.71270123
1738, 17.5266994, -19.5, -7.19970294
1739, 16.6087357, -19.5, -6.80352217
1740, 16.3212152, -19.5, -5.77535284
1741, 16.9232371, -19.5, -4.9476956
1742, 13.9644661, -22.7459744, -3.53553391
1743, 14.3378154, -24, -3.84193373
1744, 14.3442316, -21.5, -3.84719943
1745, 13.3426519, -22.7380014, -2.77785117
1746, 13.6575164, -24, -3.16151468
1747, 13.6524987, -21.5, -3.15540052
1748, 12.9093751, -22.75547, -1.96724726
1749, 13.1272572, -24, -2.3748759
1750, 13.1355216, -21.5, -2.39033756
1751, 11.5, -20.4787819, 2.42
1752, 13.4406012, -19.5, 1.44584476
1753, 13.8764155, -19.5, -0.45721915
1754, 12.5640553, -19.5, -2.17351933
1755, 10.4481081, -19.5, -2.17943192
1756, 9.14289873, -19.5, -0.548154712
1757, 9.60729974, -19.5, 1.50800721
1758, 12.5176355, -19.5, 2.19563611
1759, 13.8150036, -19.5, 0.705094619
1760, 13.3870711, -19.5, -1.51504547
1761, 11.5052047, -19.5, -2.4199944
1762, 9.59497445, -19.5, -1.49240666
1763, 9.12190184, -19.5, 0.448385046
1764, 10.4259695, -19.5, 2.16860752
1765, 12.2414658, -21.5, 2.30361206
1766, 12.9093751, -22.7458764, 1.96724726
1767, 12.9559238, -24.3332806, 1.93305093
1768, 12.9207297, -24.1659866, 1.9590628
1769, 13.0079138, -24.4786781, 1.89277467
1770, 13.391182, -24.9189929, 1.50991083
1771, 13.2573149, -24.8236836, 1.66380418
1772, 13.5408405, -24.9817301, 1.30052689
1773, 13.3891, -24.917809, -1.51251483
1774, 13.5447233, -24.9827783, -1.29441355
1775, 13.2311058, -24.7999691, -1.69105666
1776, 12.9556673, -24.3323816, -1.93324412
1777, 13.0112641, -24.4863299, -1.89010072
1778, 12.9204884, -24.1642226, -1.95923777
1779, 10.7371236, -21.5, -2.29661046
1780, 9.19061337, -21.5, -0.723279603
1781, 9.54760427, -21.5, 1.42987794
1782, 11.8568352, -21.5, -2.39354729
1783, 9.78301744, -21.5, -1.70539464
1784, 9.10567713, -21.5, 0.351593486
1785, 10.4150491, -21.5, 2.16316468
1786, 13.3426519, -22.7491433, 2.77785117
1787, 13.1309715, -24, 2.38182492
1788, 13.1249666, -21.5, 2.37059061
1789, 13.9644661, -22.7471516, 3.53553391
1790, 13.6560145, -24, 3.15968455
1791, 13.6541187, -21.5, 3.15737452
1792, 14.7221488, -22.7437978, 4.15734806
1793, 14.3398362, -24, 3.84359223
1794, 14.3414062, -21.5, 3.84488063
1795, 15.5327527, -22.7379316, 4.59062488
1796, 15.1189716, -24, 4.36945427
1797, 15.13255, -21.5, 4.37671203
1798, 17.5, -20.5146342, 8.42
1799, 19.3877617, -19.5, 7.51418491
1800, 19.8609122, -19.5, 5.46849889
1801, 18.5689282, -19.5, 3.82887297
1802, 16.4333304, -19.5, 3.82776243
1803, 15.1393128, -19.5, 5.46750041
1804, 15.6051081, -19.5, 7.50525232
1805, 18.4058877, -19.5, 8.24405159
1806, 19.8575924, -19.5, 6.54603869
1807, 19.3779537, -19.5, 4.47366784
1808, 17.5193587, -19.5, 3.58007743
1809, 15.6250537, -19.5, 4.469975
1810, 15.147001, -19.5, 6.56550488
1811, 16.3967697, -19.5, 8.15389946
1812, 19.5529633, -21.5, 7.28130462
1813, 18.7306053, -21.5, 8.08374916
1814, 19.9031483, -21.5, 6.28509352
1815, 19.7037241, -22.7394178, 5
1816, 19.4839744, -24.7890953, 4.6142708
1817, 19.6504126, -24.4559829, 4.88998853
1818, 19.273288, -24.9355363, 4.35323051
1819, 16.0001796, -24.9234671, 4.10080575
1820, 16.1950185, -24.9809432, 3.96200506
1821, 15.8317033, -24.8199504, 4.24694949
1822, 15.5647354, -24.3227996, 4.54701994
1823, 15.6052529, -24.4729175, 4.49456536
1824, 15.5396019, -24.1519844, 4.58111334
1825, 15.0949552, -21.5, 6.26862562
1826, 15.8758439, -21.5, 7.79402259
1827, 15.1581406, -21.5, 5.39000444
1828, 15.3467259, -21.5, 7.10445042
1829, 16.6498158, -21.5, 8.26574202
1830, 36.0919107, -18.6768435, 5
1831, 36, -20.1228237, 5
1832, 23.7699795, -21.5, 5
1833, 27.8474691, -21.5, 5
1834, 31.9310409, -21.5, 5
1835, 21.733636, -21.5, 5
1836, 25.8267849, -21.5, 5
1837, 29.8908796, -21.5, 5
1838, 33.9229818, -21.5, 5
1839, 24.1665518, -24, 5
1840, 28.5748187, -24, 5
1841, 21.9251876, -24, 5
1842, 26.3678499, -24, 5
1843, 30.7667681, -24, 5
1844, 33.2169949, -23.9881337, 5
1845, 33.6296334, -23.9442818, 5
1846, 34.0136281, -23.8634691, 5
1847, 34.3956574, -23.7425699, 5
1848, 34.755377, -23.5879373, 5
1849, 35.0917068, -23.4027373, 5
1850, 35.4155337, -23.1810527, 5
1851, 35.7221329, -22.9231409, 5
1852, 35.9936717, -22.6443141, 5
1853, 36.2388363, -22.3376216, 5
1854, 36.4493592, -22.0139228, 5
1855, 36.629909, -21.6666353, 5
1856, 36.7777122, -21.2974412, 5
1857, 36.8846934, -20.9288958, 5
1858, 36.9590411, -20.5301338, 5
1859, 36.9919317, -20.139685, 5
1860, 37, -18.6532245, 5
1861, 36.8276539, -17.6510954, 5
1862, 36.417849, -18.2599502, 5
1863, 34, -21.5, -8.24941481
1864, 34, -20.418217, -8.24381957
1865, 34.4445619, -20.1517569, -7.58069722
1866, 37.9826693, -13.8527747, 4.18536738
1867, 37.9058612, -14.6590742, 4.42357475
1868, 37.7510552, -15.4408901, 4.66023939
1869, 37.5242636, -16.1891221, 4.85155606
1870, 37.2393922, -16.8820919, 4.97092295
1871, 37.0277575, -17.3172428, 4.99961469
1872, 37.6945591, -19.9849947, 4.71979106
1873, 37.9519389, -19.9976389, 4.30646809
1874, 37.2603136, -19.9636615, 4.9657642
1875, 38, -16.7589326, 4
1876, 38, -18.3034543, 4
1877, 38, -15.0674529, 4
1878, 37.6759528, -20.4455892, 4.717317
1879, 37.9291008, -20.4831402, 4.30402257
1880, 37.2610306, -20.3840413, 4.96078781
1881, 37.6158422, -20.9032903, 4.71117445
1882, 37.8625139, -20.9650783, 4.28906947
1883, 37.1978738, -20.7985947, 4.9622593
1884, 37.5012836, -21.3500148, 4.71513553
1885, 37.7411791, -21.4358508, 4.30052061
1886, 37.0943795, -21.2044222, 4.96374664
1887, 37.3451894, -21.7837263, 4.71739297
1888, 37.5753187, -21.8925694, 4.30845319
1889, 36.9588449, -21.600999, 4.96305875
1890, 37.1524451, -22.2028472, 4.71396301
1891, 37.3690415, -22.3326701, 4.30389137
1892, 36.7857995, -21.9830883, 4.96209276
1893, 36.9170447, -22.5996301, 4.71333781
1894, 37.1204525, -22.7504875, 4.29960064
1895, 36.5751975, -22.3460989, 4.96138193
1896, 36.6494023, -22.9765127, 4.70525354
1897, 36.8342302, -23.144031, 4.28542153
1898, 36.3390534, -22.6952289, 4.95699537
1899, 36.3403698, -23.3202035, 4.70481975
1900, 36.5082695, -23.5054523, 4.28204434
1901, 36.0605462, -23.0114658, 4.9562016
1902, 35.993634, -23.6245988, 4.71352142
1903, 36.1447509, -23.8283564, 4.29880764
1904, 35.7374315, -23.2791497, 4.96270691
1905, 35.622338, -23.89789, 4.71657933
1906, 35.753467, -24.1166656, 4.30432098
1907, 35.4033364, -23.532508, 4.96243344
1908, 35.2292255, -24.1394843, 4.71297555
1909, 35.3377454, -24.3689304, 4.29659314
1910, 35.0469175, -23.7540264, 4.96150359
1911, 34.815005, -24.3443541, 4.70633246
1912, 34.8995941, -24.5807648, 4.28351243
1913, 34.6735086, -23.9488982, 4.95766874
1914, 34.3789166, -24.4952383, 4.71257713
1915, 34.4405249, -24.7411924, 4.29613365
1916, 34.274778, -24.0794939, 4.96201258
1917, 33.9312369, -24.6058548, 4.71544711
1918, 33.9685249, -24.8572305, 4.30362026
1919, 33.8689699, -24.1860851, 4.96164299
1920, 33.475529, -24.679615, 4.71085957
1921, 33.4879435, -24.9323178, 4.29225121
1922, 33.4545813, -24.2532151, 4.96103697
1923, 33, -24.7174466, 4.69661355
1924, 33, -24.9556858, 4.29438852
1925, 33, -24.2625427, 4.96492037
1926, 15.8196749, -24.9191815, 4.05666374
1927, 14.8837347, -24.7036431, 3.91551771
1928, 15.0714113, -24.9272789, 3.63463983
1929, 14.7628498, -24.3748314, 4.09643477
1930, 14.1728582, -24.7075051, 3.32714182
1931, 14.4057895, -24.9254459, 3.09421055
1932, 14.0169901, -24.3773332, 3.48300993
1933, 13.5847425, -24.7039574, 2.61609145
1934, 13.8577079, -24.9235283, 2.43370178
1935, 13.405992, -24.3819371, 2.73552867
1936, 13.4421627, -24.9186389, 1.68081124
1937, 13.4077221, -24.9017792, -1.69507702
1938, 13.5880754, -24.7079595, -2.61386445
1939, 13.852719, -24.9210258, -2.43703523
1940, 13.4100903, -24.3935969, -2.7327903
1941, 14.1722928, -24.7067094, -3.3277072
1942, 14.4051514, -24.9250777, -3.09484857
1943, 14.0166752, -24.3762438, -3.48332479
1944, 23.5, -22.2277818, 2.42
1945, 23.5, -23.6167527, 2.42
1946, 23.5, -20.8703691, 2.42
1947, 25.4349126, -19.5, 1.45344873
1948, 25.8770626, -19.5, -0.453843177
1949, 24.5407944, -19.5, -2.18475333
1950, 22.4721877, -19.5, -2.19089066
1951, 21.1278236, -19.5, -0.478726383
1952, 21.5541068, -19.5, 1.4387146
1953, 24.5278288, -19.5, 2.19088291
1954, 25.853171, -19.5, 0.564788813
1955, 25.416286, -19.5, -1.47792015
1956, 23.592574, -19.5, -2.4182287
1957, 21.6002866, -19.5, -1.49916281
1958, 21.162972, -19.5, 0.628251747
1959, 22.4024064, -19.5, 2.15677729
1960, 17.5, -18.0686401, -4.8
1961, 18.4423858, -16.55, -5.2570942
1962, 18.6198459, -16.55, -6.43121347
1963, 18.02382, -16.55, -7.0796354
1964, 16.9789795, -16.55, -7.08098922
1965, 16.3407982, -16.55, -6.31024369
1966, 16.5474687, -16.55, -5.27014793
1967, 18.0233969, -16.55, -4.92015943
1968, 18.6649861, -16.55, -5.71223737
1969, 18.4181776, -16.55, -6.77262527
1970, 17.4967946, -16.55, -7.19999572
1971, 16.5509741, -16.55, -6.73440438
1972, 16.3269874, -16.55, -5.74693606
1973, 16.9648714, -16.55, -4.92592485
1974, 12.4512656, -19.5, 0.73150101
1975, 12.6659004, -19.5, -0.28403582
1976, 12.0024167, -19.5, -1.08976029
1977, 10.9610845, -19.5, -1.07218008
1978, 10.3269989, -19.5, -0.253117226
1979, 10.5649576, -19.5, 0.752127405
1980, 11.9785426, -19.5, 1.10045309
1981, 12.6584546, -19.5, 0.313022203
1982, 12.4585318, -19.5, -0.721953392
1983, 11.5304531, -19.5, -1.19961352
1984, 10.5847436, -19.5, -0.776083563
1985, 10.3164274, -19.5, 0.197878636
1986, 10.9355547, -19.5, 1.05896246
1987, 18.4504541, -19.5, 6.73255512
1988, 18.6649677, -19.5, 5.71216282
1989, 18.0086514, -19.5, 4.91313582
1990, 16.9563513, -19.5, 4.93021213
1991, 16.3260989, -19.5, 5.75109004
1992, 16.5738788, -19.5, 6.76308554
1993, 17.9711463, -19.5, 7.10363998
1994, 18.6604965, -19.5, 6.30536506
1995, 18.4587681, -19.5, 5.27836038
1996, 17.5243435, -19.5, 4.80024694
1997, 16.5941764, -19.5, 5.21292714
1998, 16.3247771, -19.5, 6.24259272
1999, 16.9682718, -19.5, 7.07576256
2000, 35.8347644, -18.9605607, 5.00683739
2001, 35.6568542, -19.1568542, 7.26410604
2002, 35.9202868, -18.8662012, 9.5
2003, 36.1840836, -18.5751463, 7.25008489
2004, 36.4179203, -18.2598541, 9.5
2005, 36.6517569, -17.9445619, 7.25
2006, 36.8535635, -17.6078679, 9.5
2007, 37.0553701, -17.2711739, 7.24961756
2008, 34.626302, -21.5, 5.54639969
2009, 35.061833, -21.5, 5.23369238
2010, 34.1563361, -21.5, 6.22482047
2011, 34, -20.95806, 7
2012, 34.1378311, -20.3356042, 6.27039245
2013, 34.7626948, -19.9158135, 5.42867071
2014, 35.3620699, -19.4240312, 5.10446705
2015, 34, -21.5, 8.25006473
2016, 34, -20.9591854, 9.5
2017, 34, -20.418217, 8.24779788
2018, 37.9614778, -14.2841371, 6.88744127
2019, 37.9614778, -14.2841371, 5.58116191
2020, 37.9614778, -14.2841371, 8.19372064
2021, 37.9807389, -13.8920686, 9.5
2022, 38, -13.5, 6.75
2023, 38, -13.5, 5.375
2024, 38, -13.5, 8.125
2025, 37.8462822, -15.0607226, 7.01676465
2026, 37.90388, -14.6724298, 9.5
2027, 37.6555227, -15.8222774, 7.12758774
2028, 37.7509025, -15.4415, 9.5
2029, 37.3910363, -16.5614675, 7.21018764
2030, 37.5232795, -16.1918724, 9.5
2031, 37.2233137, -16.916087, 9.5
2032, 24.4470652, -19.5, 0.736931161
2033, 24.6658644, -19.5, -0.284183265
2034, 24.00294, -19.5, -1.08951884
2035, 22.9519946, -19.5, -1.06756268
2036, 22.3258031, -19.5, -0.24751107
2037, 22.5726107, -19.5, 0.761543935
2038, 24.0238456, -19.5, 1.07962299
2039, 24.6597485, -19.5, 0.308193755
2040, 24.4482114, -19.5, -0.73545575
2041, 23.5341526, -19.5, -1.1995139
2042, 22.5855709, -19.5, -0.777058195
2043, 22.3233152, -19.5, 0.235399419
2044, 22.9374422, -19.5, 1.05996636
2045, 12.4473481, -16.55, 0.736567393
2046, 12.6676454, -16.55, -0.276774772
2047, 12.0259754, -16.55, -1.07858701
2048, 10.9878057, -16.55, -1.08519904
2049, 10.3180068, -16.55, -0.207104143
2050, 10.5258446, -16.55, 0.70072903
2051, 12.0088651, -16.55, 1.08676415
2052, 12.6571752, -16.55, 0.317719246
2053, 12.4218947, -16.55, -0.768186328
2054, 11.402573, -16.55, -1.19603845
2055, 10.5935203, -16.55, -0.786317051
2056, 10.3573326, -16.55, 0.366484871
2057, 10.9469101, -16.55, 1.06493734
2058, 19.8470937, -16.55, 1.86846226
2059, 20.4259874, -16.55, -0.662267184
2060, 18.80184, -16.55, -2.7028157
2061, 16.2036735, -16.55, -2.7054644
2062, 14.5805544, -16.55, -0.690534016
2063, 15.1527658, -16.55, 1.86828571
2064, 18.8183853, -16.55, 2.69478389
2065, 20.4201699, -16.55, 0.687464926
2066, 19.8462032, -16.55, -1.86958032
2067, 17.5052744, -16.55, -2.99999536
2068, 15.1441725, -16.55, -1.8574382
2069, 14.5793943, -16.55, 0.685611061
2070, 16.1857455, -16.55, 2.6968009
2071, 18.4398477, -16.55, 6.74611416
2072, 18.6719206, -16.55, 5.74192606
2073, 18.0227579, -16.55, 4.91984991
2074, 16.9902199, -16.55, 4.91366474
2075, 16.3296558, -16.55, 5.73486921
2076, 16.574959, -16.55, 6.76439463
2077, 17.969062, -16.55, 7.10452742
2078, 18.6687655, -16.55, 6.27200604
2079, 18.4388678, -16.55, 5.25265323
2080, 17.482764, -16.55, 4.80012379
2081, 16.5466309, -16.55, 5.2712426
2082, 16.3329063, -16.55, 6.27909203
2083, 17.0366542, -16.55, 7.10693754
2084, 24.5049763, -16.55, 0.655761082
2085, 24.6293089, -16.55, -0.405784943
2086, 24.019511, -16.55, -1.08171544
2087, 22.9716215, -16.55, -1.0774118
2088, 22.3288724, -16.55, -0.261648921
2089, 22.5515202, -16.55, 0.735109567
2090, 24.0864003, -16.55, 1.04696449
2091, 24.6537097, -16.55, 0.330081547
2092, 24.3984162, -16.55, -0.795517684
2093, 23.6117439, -16.55, -1.19478589
2094, 22.5923184, -16.55, -0.784929389
2095, 22.340392, -16.55, 0.308721906
2096, 22.9902358, -16.55, 1.08634269
2097, 11.5, -18.0350153, 1.2
2098, 17.5, -18.0171917, 7.2
2099, 35.0751463, -19.6840836, 7.38099873
2100, 35.3660003, -19.4204689, 9.5
2101, 34.4445619, -20.1517569, 7.58141683
2102, 34.7598541, -19.9179203, 9.5
2103, 34.2216699, -20.2853532, 9.5
2104, 23.5, -18.0237249, 1.2
2105, 17.5, -17.5362946, 3
2106, 19.8765512, -18.5, 1.83084802
2107, 20.4247385, -18.5, -0.66776101
2108, 18.8159666, -18.5, -2.69596588
2109, 16.1886802, -18.5, -2.6982291
2110, 14.5717254, -18.5, -0.652079531
2111, 15.1017087, -18.5, 1.80227601
2112, 18.8041099, -18.5, 2.70172117
2113, 20.4019236, -18.5, 0.760814798
2114, 19.8647615, -18.5, -1.84605063
2115, 17.5295572, -18.5, -2.99985439
2116, 15.1159196, -18.5, -1.82103279
2117, 14.5751394, -18.5, 0.66722608
2118, 16.1768433, -18.5, 2.6924443
2119, 21.5925463, -21.5, 9.5
2120, 25.75, -21.5, 9.5
2121, 29.875, -21.5, 9.5
2122, 19.5689804, -21.5, 9.5
2123, 23.683626, -21.5, 9.5
2124, 27.8124088, -21.5, 9.5
2125, 31.9382055, -21.5, 9.5
2126, 38, -4.48212422, 9.5
2127, 38, -9, 9.5
2128, 38, -2.3502561, 9.5
2129, 38, -6.74727996, 9.5
2130, 38, -11.2504009, 9.5
2131, 20.9690692, -19, 9.5
2132, 24.5, -19, 9.5
2133, 19.3532289, -19, 9.5
2134, 22.7594532, -19, 9.5
2135, 26.25, -19, 9.5
2136, 28.2782003, -18.9870599, -7.12515125
2137, 28.2772072, -18.9871061, -4.74983366
2138, 28.278325, -18.9870541, 7.12492294
2139, 28.2776656, -18.9870847, 4.74904172
2140, 28.2784355, -18.9870489, -2.37370377
2141, 28.2786634, -18.9870383, 2.37632584
2142, 28.276674, -18.9871309, -0.000659548191
2143, 28.8326344, -18.9354024, -7.1239013
2144, 28.8335397, -18.9352753, -4.74980326
2145, 28.8335995, -18.9352669, 7.12512654
2146, 28.8332976, -18.9353093, 4.74982608
2147, 28.832735, -18.9353883, -2.37566915
2148, 28.8331507, -18.9353299, 2.37568928
2149, 28.8329123, -18.9353634, -7.6649003e-05
2150, 29.3804128, -18.8323873, -7.12506402
2151, 29.3803157, -18.8324103, -4.74941195
2152, 29.3803952, -18.8323915, 7.125
2153, 29.3803032, -18.8324133, 4.74947016
2154, 29.3798113, -18.8325297, -2.37578106
2155, 29.3801684, -18.8324452, 8.79157944e-06
2156, 29.3799661, -18.832493, 2.37582815
2157, 29.9158143, -18.6790789, -7.12514276
2158, 29.9157151, -18.6791123, -4.74944489
2159, 29.9156681, -18.6791282, 7.12538633
2160, 29.9158578, -18.6790642, 4.74972137
2161, 29.9161322, -18.6789716, -2.37557073
2162, 29.9156773, -18.6791251, 2.37542326
2163, 29.916134, -18.678971, 5.89010696e-05
2164, 30.4347239, -18.4767144, -7.12508707
2165, 30.4347216, -18.4767154, -4.75008033
2166, 30.4348116, -18.4766754, 7.12504311
2167, 30.4347415, -18.4767066, 4.74994883
2168, 30.4345674, -18.476784, -2.37447647
2169, 30.4342092, -18.4769432, 2.37443799
2170, 30.4346344, -18.4767542, -2.90947827e-05
2171, 30.9323658, -18.2271897, -7.12508311
2172, 30.9323757, -18.2271841, -4.7499311
2173, 30.9328153, -18.2269375, 7.12507208
2174, 30.9328199, -18.2269349, 4.75248806
2175, 30.932537, -18.2270936, -8.10572174e-05
2176, 30.9325545, -18.2270838, -2.37448154
2177, 30.9325946, -18.2270613, 2.3750483
2178, 31.4049796, -17.9323823, -7.12481255
2179, 31.4050072, -17.9323633, -4.74834456
2180, 31.4051518, -17.9322634, 7.125
2181, 31.4048372, -17.9324806, 4.74025557
2182, 31.4051024, -17.9322975, -2.37479359
2183, 31.4052487, -17.9321965, 2.37479701
2184, 31.405148, -17.932266, -3.46973861e-05
2185, 31.8481961, -17.5949611, -7.12484688
2186, 31.8483944, -17.5947951, -4.74507149
2187, 31.8482472, -17.5949184, 7.12500571
2188, 31.8482877, -17.5948845, 4.74808818
2189, 31.8483051, -17.5948699, -0.000130154219
2190, 31.8489821, -17.5943028, -2.3746169
2191, 31.8482714, -17.5948981, 2.37486029
2192, 32.2580167, -17.2180061, -7.124892
2193, 32.2586121, -17.217405, -4.7430559
2194, 32.2579022, -17.2181216, 7.12518064
2195, 32.2583045, -17.2177155, 4.7401119
2196, 32.258305, -17.217715, -0.000315122199
2197, 32.2586839, -17.2173325, -2.37453892
2198, 32.2582807, -17.2177395, 2.37454903
2199, 32.6312976, -16.8043874, -7.12488536
2200, 32.631345, -16.8043297, 7.125
2201, 32.631345, -16.8043297, 4.75
2202, 32.631345, -16.8043297, -4.75
2203, 32.6314388, -16.8042155, -0.000325695989
2204, 32.6316044, -16.8040139, -2.37448944
2205, 32.6312675, -16.8044241, 2.37478205
2206, 32.9644117, -16.3581092, -7.12465711
2207, 32.9644811, -16.3580067, 7.12487035
2208, 32.9648349, -16.3574835, -4.75003671
2209, 32.9647993, -16.3575363, 4.75050286
2210, 32.9645093, -16.357965, -0.000702207821
2211, 32.9646304, -16.357786, -2.37457274
2212, 32.9648475, -16.357465, 2.37428832
2213, 33.2546684, -15.8828356, -7.1248158
2214, 33.2547917, -15.8826109, 7.12493097
2215, 33.2546055, -15.8829504, 4.74979125
2216, 33.2547159, -15.882749, -4.75036401
2217, 33.2555247, -15.8812747, -2.37622415
2218, 33.2549279, -15.8823625, 2.37632178
2219, 33.2548207, -15.8825579, 2.84860315e-05
2220, 33.4996802, -15.3823934, -7.12447895
2221, 33.4990606, -15.3838239, -4.74895214
2222, 33.4996783, -15.382398, 7.12439601
2223, 33.4990208, -15.3839157, 4.75019974
2224, 33.4996202, -15.3825321, 0.000640040081
2225, 33.499042, -15.3838667, -2.37625059
2226, 33.4997522, -15.3822273, 2.37626964
2227, 33.6970755, -14.8616153, -7.12535333
2228, 33.6973783, -14.8606888, -4.74821315
2229, 33.6970715, -14.8616277, 7.12526328
2230, 33.6974079, -14.8605983, 4.74855396
2231, 33.6967585, -14.8625854, -2.37655512
2232, 33.6970992, -14.8615428, -0.00128184906
2233, 33.6967469, -14.8626211, 2.37614188
2234, 33.8452833, -14.3247431, -7.12511127
2235, 33.8453596, -14.3244065, -4.7490182
2236, 33.8453113, -14.3246197, 7.12501938
2237, 33.8453883, -14.3242799, 4.75017953
2238, 33.8450911, -14.3255914, -2.37448573
2239, 33.8450254, -14.3258811, 2.37803689
2240, 33.8453202, -14.3245803, 0.00380113592
2241, 33.9430812, -13.7759297, -7.12529922
2242, 33.9430253, -13.7763577, -4.74999471
2243, 33.9430157, -13.7764316, 7.125
2244, 33.9430157, -13.7764316, 4.75
2245, 33.9430511, -13.7761607, -2.37496754
2246, 33.9430157, -13.7764316, 2.375
2247, 33.9430593, -13.776098, 3.31595705e-05
2248, 33.9899006, -13.5, -7.12511679
2249, 33.9895652, -13.5, 7.125
2250, 33.9895652, -13.5, 4.75
2251, 33.9897065, -13.5, -4.74982582
2252, 33.9894047, -13.5, -2.37526489
2253, 33.9895652, -13.5, 2.375
2254, 33.9895652, -13.5, 0
2255, 34, 7.80296891, 3.34115031
2256, 34, -7.93472105, 4.02688813
2257, 34, -10.411578, 2.12238586
2258, 34, 3.36597438, 7.69520451
2259, 34, 4.53768764, 6.76748389
2260, 34, 2.0800256, 1.53523318
2261, 34, 1.35400884, -0.123686503
2262, 34, -0.109279672, 1.40020227
2263, 34, -0.135735967, -0.914369613
2264, 34, -2.10643482, 2.1824165
2265, 34, -1.92889766, 0.409348309
2266, 34, 2.76501185, 3.11560527
2267, 34, -6.96071938, 6.67568264
2268, 34, -10.2282753, 6.09371131
2269, 34, -5.72842731, 4.63530295
2270, 34, -3.33476507, -2.95220344
2271, 34, -4.48637041, -5.3154274
2272, 34, 5.55498043, 6.33825037
2273, 34, 4.96182236, 5.37869994
2274, 34, 3.21656204, -7.99584518
2275, 34, 6.16053875, 5.49059203
2276, 34, 6.41231949, 4.44268636
2277, 34, 4.45928595, 3.8271663
2278, 34, 4.32250443, -6.84282934
2279, 34, 3.98210951, -4.75787703
2280, 34, 5.56221711, -5.91826071
2281, 34, 5.90699833, -4.24268714
2282, 34, -9.96372733, -6.42752965
2283, 34, -4.30310104, 6.27085678
2284, 34, -11.1366697, -1.31735492
2285, 34, -9.54949718, -3.30773765
2286, 34, -7.02459285, -7.03218322
2287, 34, 1.63535911, -2.04472721
2288, 34, 7.37374852, -4.38119542
2289, 34, -3.62197878, 3.78760886
2290, 34, -1.7912411, -1.89378623
2291, 34, 3.19278907, -2.85066656
2292, 34, 6.58921904, -5.38638311
2293, 34, -7.18848273, -4.4307645
2294, 34, -11.7318637, -7.96376483
2295, 34, -11.7320479, -5.58945884
2296, 34, -9.48186366, -7.96376483
2297, 34, -11.8601071, 7.79528338
2298, 34, -11.8671028, 5.42590351
2299, 34, -9.62299207, 7.80153199
2300, 34, 1.21279699, -8.89211254
2301, 34, 0.610588741, -9.02245687
2302, 34, -2.83094767, -8.9579994
2303, 34, -0.629526959, -9.01859334
2304, 34, 1.81173284, -8.78515179
2305, 34, 3.43212222, -8.38303401
2306, 34, 2.87398688, -8.6161029
2307, 34, 2.26324165, -8.2796716
2308, 34, 3.9759104, -8.10878094
2309, 34, 4.53987732, -7.53981569
2310, 34, 5.05346726, -7.1920971
2311, 34, 3.78323756, -7.41115416
2312, 34, 5.67562983, -6.72886723
2313, 34, 6.13964263, -6.32100404
2314, 34, 4.95524488, -6.39132515
2315, 34, 7.06357017, -5.58622238
2316, 34, 6.65510934, -6.05057563
2317, 34, 6.07404189, -5.65330458
2318, 34, 7.80083282, -4.56528816
2319, 34, 7.45529781, -5.08098089
2320, 34, 6.98133347, -4.88664357
2321, 34, 8.0705003, -4.01011321
2322, 34, 8.20348854, -2.50869557
2323, 34, 7.94611837, -3.04161072
2324, 34, 7.25900089, -3.38892035
2325, 34, 8.40309458, -1.94867484
2326, 34, 8.9992179, -0.916156212
2327, 34, 9.0793407, -0.317511371
2328, 34, 8.75447654, 1.49337517
2329, 34, 8.90884458, 0.886169967
2330, 34, 8.60352866, 2.06450692
2331, 34, 8.29055693, 3.4768938
2332, 34, 8.51044524, 2.8984704
2333, 34, 7.99517859, 2.54841143
2334, 34, 8.01188085, 4.04005633
2335, 34, 7.32825168, 4.61647684
2336, 34, 6.97809696, 5.12472775
2337, 34, 7.10159667, 3.91908225
2338, 34, 6.8468956, 5.64338759
2339, 34, 6.44061576, 6.10556281
2340, 34, 6.29054532, 4.96843187
2341, 34, 5.67204465, 6.93539872
2342, 34, 6.13679016, 6.53120459
2343, 34, 5.86110777, 5.91652309
2344, 34, 4.64647137, 7.50101457
2345, 34, 5.15756492, 7.15377399
2346, 34, 5.04823542, 6.55611633
2347, 34, 3.50497387, 8.23406154
2348, 34, 4.06051742, 7.95464149
2349, 34, 3.96912375, 7.22992551
2350, 34, 2.92048759, 8.42782985
2351, 34, 2.30357629, 8.40440597
2352, 34, 1.74127108, 8.61714603
2353, 34, 2.7161754, 7.67324781
2354, 34, -0.0320398831, 9.05504049
2355, 34, 0.625600472, 9.09151143
2356, 34, -1.18402179, 8.72873592
2357, 34, -3.2819893, 8.53707885
2358, 34, -1.97256393, -3.06990906
2359, 34, -0.908096237, -2.538853
2360, 34, 1.92194901, -3.13518115
2361, 34, 0.82838991, -2.61703637
2362, 34, -0.0652666254, -2.14367596
2363, 34, 0.74541363, -1.45810779
2364, 34, -0.953239685, -1.3860299
2365, 34, -6.97306878, 3.38336121
2366, 34, -8.07024557, 2.87765461
2367, 34, -3.75084319, 2.72913815
2368, 34, -4.80072864, 3.32962307
2369, 34, -5.88108038, 3.63387342
2370, 34, -6.81739294, 4.33291303
2371, 34, -4.67957531, 4.27665318
2372, 34, 4.1183211, 2.81798466
2373, 34, 5.23618713, 3.29770399
2374, 34, 6.9079519, 3.09544026
2375, 34, 6.19560318, 3.5331386
2376, 34, 5.44505271, 4.16017033
2377, 34, -11.9716162, 1.05197658
2378, 34, -11.9700404, 3.42809847
2379, 34, -10.3330128, 4.10608242
2380, 34, -12.3262125, -0.663283511
2381, 34, -12.3180877, -3.03753148
2382, 34, -10.8453707, 0.373545754
2383, 34, -9.76367932, -4.87090063
2384, 34, -11.5306327, -4.03436719
2385, 34, -10.4004901, -2.32262124
2386, 34, -5.76775957, -8.26636555
2387, 34, -8.01605466, -8.26636838
2388, 34, -8.49716953, -6.72884157
2389, 34, -3.54391887, -8.03714074
2390, 34, -3.54692737, -5.95963359
2391, 34, -4.50480111, -7.40672549
2392, 34, -5.77200303, -6.17865628
2393, 34, -5.75118189, 8.09040789
2394, 34, -7.982551, 8.08784746
2395, 34, -4.44741975, 7.90841664
2396, 34, -3.28495309, 7.01707355
2397, 34, -5.6306108, 6.480547
2398, 34, -8.59549945, 6.38255361
2399, 34, -3.37513813, -4.76608932
2400, 34, -3.94138466, -4.09195277
2401, 34, -2.68439803, -3.65352132
2402, 34, -2.53537747, -2.4319025
2403, 34, 2.95143889, -7.28365012
2404, 34, 3.070951, -4.51077974
2405, 34, 3.384391, -5.6920441
2406, 34, 3.44160553, -6.70633807
2407, 34, 4.22386473, -5.82058158
2408, 34, 2.62623724, -3.60956645
2409, 34, 3.60524996, -3.79020147
2410, 34, 2.42238146, -2.4244027
2411, 34, -9.62223892, 0.753675515
2412, 34, -9.2624223, 1.88550228
2413, 34, -9.21379994, 3.06498097
2414, 34, -9.17359063, -1.96943472
2415, 34, -8.37023997, -2.86444696
2416, 34, -9.84562517, -0.935443775
2417, 34, -5.99430973, -3.55538416
2418, 34, -7.16115164, -3.42270533
2419, 34, -8.38086437, -3.89629039
2420, 34, -4.07949112, -2.70593335
2421, 34, -3.25316558, -1.81363337
2422, 34, -4.68528955, -3.83633931
2423, 34, -5.81606748, -4.92559953
2424, 34, -2.81811248, 1.08111453
2425, 34, -2.62130426, -0.105267064
2426, 34, -1.84250516, -0.75091751
2427, 34, -2.59767058, -1.22021444
2428, 34, -1.97684938, 1.31977277
2429, 34, -3.03227406, 1.91919089
2430, 34, -2.86893059, 2.94334981
2431, 34, 2.98353329, 1.62496968
2432, 34, 2.60512138, 0.482771954
2433, 34, 2.40648368, 2.335525
2434, 34, 3.35163158, 2.38800668
2435, 34, 3.60954012, 3.50053194
2436, 34, 3.99192427, -2.67635553
2437, 34, 3.19243181, -1.76240498
2438, 34, 2.38358411, -0.363965713
2439, 34, 1.64672963, 0.70287463
2440, 34, 2.51660904, -1.29917386
2441, 34, 1.48730401, -1.07867206
2442, 34, 6.55280292, -3.40794364
2443, 34, 5.34865383, -3.37856025
2444, 34, 4.42402155, -3.56818168
2445, 34, 4.93857636, -4.51958393
2446, 34, 6.6530606, -4.3399047
2447, 34, -3.44581971, 5.83916615
2448, 34, -2.43266501, 3.62323816
2449, 34, -3.1344394, 4.6073827
2450, 34, -3.95568102, 5.04004328
2451, 34, -0.641484058, 2.4740683
2452, 34, 0.551121195, 2.41969234
2453, 34, -1.62463732, 2.90822666
2454, 34, -1.11409314, 1.78880198
2455, 34, 1.97074055, 3.33093239
2456, 34, 2.80197471, 4.21643933
2457, 34, 1.00243727, 1.45097727
2458, 34, 1.59795382, 2.58169437
2459, 34, 3.13993592, 6.56935512
2460, 34, 3.61514084, 6.07446646
2461, 34, 4.75462056, 6.06739748
2462, 34, 3.7662626, 5.39207382
2463, 34, 3.54560512, 4.6285335
2464, 34, 4.7203658, 4.60327296
2465, 34, -9.08320346, 5.05186016
2466, 34, -7.44091188, 5.34547609
2467, 34, -6.34751968, 5.65785146
2468, 34, 5.26199693, 5.85935764
2469, 34, 0.610623998, 0.644770899
2470, 34, 0.604929365, -0.505875897
2471, 34, -0.124774733, 0.244192715
2472, 34, -1.03292803, -0.247254548
2473, 34, -1.02807622, 0.916739477
2474, 34, -5.01642261, 5.46763641
2475, 34, -7.10589661, -5.74267285
2476, 34, 5.56136794, 5.44025083
2477, 34, 5.69018294, 4.91856437
2478, 34, 4.78735703, -5.33961423
2479, 34, 5.73968465, -5.0750376
2480, 34, 6.25000014, -4.8163183
2481, 34, -8.57070056, -5.44676505
2482, 36.3792341, 0.615220947, -9.45967629
2483, 35.1978146, 0.93701809, -9.43858459
2484, 35.248207, 0.298529677, -9.48043333
2485, 37.2025715, 0.306851127, -9.47988791
2486, 37.2105028, 0.932661407, -9.43887014
2487, 37.2177995, 0.621011073, -9.45929678
2488, 36.394, 1.84938988, -9.29751077
2489, 35.197, 2.1540854, -9.23690306
2490, 35.197, 1.54469435, -9.35811847
2491, 37.1791265, 1.54416665, -9.35822344
2492, 37.192, 2.1540854, -9.23690306
2493, 37.2050792, 1.84615532, -9.29815416
2494, 37.99, 0.613653452, -9.47009098
2495, 37.9936519, 0.203404603, -9.4978222
2496, 38.2008741, 0.309470077, -9.49495804
2497, 38.2175272, 0.643659172, -9.47816981
2498, 38.216339, 0.921666252, -9.45518542
2499, 38.2198278, 1.22800665, -9.42029722
2500, 38.245, 3.63549261, -8.77685556
2501, 38.245, 3.92071678, -8.65320634
2502, 38.2484324, -2.48150022, 9.17017757
2503, 37.9939062, 0.196599707, 9.4979655
2504, 38.2005767, 0.312928092, 9.49484471
2505, 38.2601205, -4.71900676, 8.24505762
2506, 38.245, 3.63549261, 8.77685556
2507, 38.2159938, 1.24215018, 9.4184427
2508, 38.2150335, 0.921933775, 9.45515934
2509, 38.2152808, 0.64407518, 9.47814155
2510, 38.2441243, -0.00161449256, -9.49999986
2511, 38.2633749, -2.47061936, -9.17311506
2512, 38.245, 4.20174256, -8.52029104
2513, 38.245, 4.478269, -8.37825201
2514, 38.245, 4.75, -8.22724134
2515, 38.245, 5.01664458, -8.06742072
2516, 38.245, 5.27791721, -7.89896132
2517, 38.245, 5.53353812, -7.7220435
2518, 38.2378888, 5.83028154, -7.50052113
2519, 38.2388501, 7.53413537, -5.7867784
2520, 38.2158804, 7.7261968, -5.5277376
2521, 38.2218236, 7.90186017, -5.2735762
2522, 38.2005027, 8.07309164, -5.0075135
2523, 38.2276569, 8.22487968, -4.75408817
2524, 38.2019178, 8.36959085, -4.49443534
2525, 38.2185673, 8.53353726, -4.17477446
2526, 38.2193614, 8.65080243, -3.92601799
2527, 38.2227212, 8.77132498, -3.64881598
2528, 38.2234074, 9.42045905, -1.22676456
2529, 38.2151656, 9.45515382, -0.921990325
2530, 38.2235432, 9.48034773, -0.610742869
2531, 38.2021758, 9.49507035, -0.306005083
2532, 38.2273763, 9.49998911, -0.0143847051
2533, 38.2045665, 9.49574295, 0.284369191
2534, 38.2188508, 9.47977061, 0.619636355
2535, 38.2184121, 9.45458517, 0.927803414
2536, 38.2369431, 9.41520785, 1.26643637
2537, 38.2216232, 8.76988143, 3.65228417
2538, 38.2191894, 8.65014404, 3.9274684
2539, 38.2168985, 8.53747816, 4.16670933
2540, 38.2033762, 8.3704521, 4.49283115
2541, 38.2247659, 8.23009845, 4.7450479
2542, 38.2001832, 8.078074, 4.99947202
2543, 38.2214509, 7.90124761, 5.27449393
2544, 38.2138338, 7.7261007, 5.52787193
2545, 38.2390915, 7.52431908, 5.7995364
2546, 38.2329933, 5.83674188, 7.49549493
2547, 38.245, 5.53353812, 7.7220435
2548, 38.245, 5.27791721, 7.89896132
2549, 38.245, 5.01664458, 8.06742072
2550, 38.245, 4.75, 8.22724134
2551, 38.245, 4.478269, 8.37825201
2552, 38.245, 4.20174256, 8.52029104
2553, 38.245, 3.92071678, 8.65320634
2554, 38.2564517, -6.72098503, 6.71404202
2555, 38.2531589, -9.17454092, 2.46531922
2556, 38.2433771, -9.49999683, 0.00775938556
2557, 38.2500225, -8.22785001, 4.74894559
2558, 38.2563093, -9.17158593, -2.47628985
2559, 38.2553368, -8.22096457, -4.76085512
2560, 38.2611113, -6.72402505, -6.71099748
2561, 38.2567936, -4.73005262, -8.23872576
2562, 37.99, 0.605813987, 9.47072209
2563, 37.99, 1.84364684, 9.30910327
2564, 37.99, 3.05040584, 8.98620584
2565, 37.99, 4.19724443, 8.51116975
2566, 37.99, 5.272267, 7.89050518
2567, 37.99, 6.25707962, 7.13483187
2568, 37.99, 7.12907725, 6.26360434
2569, 37.99, 7.89269687, 5.26934749
2570, 37.99, 8.51187862, 4.19655038
2571, 37.99, 8.98698816, 3.04849521
2572, 37.99, 9.30568004, 1.85992434
2573, 37.99, 9.46960461, 0.619910648
2574, 37.99, 9.46995674, -0.616797287
2575, 37.99, 9.30804021, -1.84839855
2576, 37.99, 8.9855095, -3.05281374
2577, 37.99, 8.51144147, -4.1975335
2578, 37.99, 7.89327917, -5.26857894
2579, 37.99, 7.1284314, -6.26421377
2580, 37.99, 6.25707962, -7.13483187
2581, 37.99, 5.272267, -7.89050518
2582, 37.99, 4.19724443, -8.51116975
2583, 37.99, 3.05040584, -8.98620584
2584, 37.99, 1.84696187, -9.30844674
2585, 38.5, 0.0121146799, 8.78491334
2586, 38.5, -2.4092673, 8.33713668
2587, 38.5, 2.4167769, 8.36154151
2588, 38.5, -4.76230624, 7.35501544
2589, 38.5, 4.72614101, 7.34968865
2590, 38.5, -6.59333614, 5.78080834
2591, 38.5, -8.7206668, 1.30922661
2592, 38.5, -8.02321619, 3.61382371
2593, 38.5, -8.6834715, -1.30336091
2594, 38.5, -7.99926502, -3.60047218
2595, 38.5, -6.57492333, -5.75748118
2596, 38.5, -4.7665147, -7.36061279
2597, 38.5, -2.39522856, -8.34183078
2598, 38.5, 0.00653706794, -8.76491545
2599, 38.5, 2.41337492, -8.35687412
2600, 38.5, 6.60863424, -5.75137952
2601, 38.5, 4.72614101, -7.34968865
2602, 38.5, 8.02127613, -3.64679062
2603, 38.5, 8.71025398, -1.31515421
2604, 38.5, 8.67521864, 1.31631467
2605, 38.5, 8.01033415, 3.65744058
2606, 38.5, 6.59323641, 5.75503838
2607, 36.394, 3.04713677, -8.97657545
2608, 35.200833, 3.34275848, -8.8762254
2609, 35.197, 2.75295885, -9.0764354
2610, 37.192, 2.75295885, -9.0764354
2611, 37.1699544, 3.35309553, -8.87271645
2612, 37.1795744, 3.06031806, -8.97210101
2613, 36.3872334, 4.19627163, -8.50030995
2614, 35.191082, 4.46990219, -8.36537029
2615, 35.1910641, 3.91495534, -8.63903979
2616, 37.1702773, 3.92148572, -8.63581936
2617, 37.1920517, 4.47782272, -8.36146432
2618, 37.1841169, 4.20033786, -8.49830471
2619, 36.3818357, 0.599128938, 9.46073101
2620, 35.1966816, 0.299488513, 9.48037049
2621, 35.2019614, 0.905836533, 9.44062834
2622, 37.179264, 0.905769041, 9.44063276
2623, 37.1883505, 0.304668791, 9.48003095
2624, 37.2049755, 0.604393408, 9.46038596
2625, 36.394, 5.26661679, -7.88204903
2626, 35.197, 5.52492518, -7.70945288
2627, 35.1971506, 5.00764994, -8.05508515
2628, 37.1789276, 5.00805162, -8.05481676
2629, 37.192, 5.52492518, -7.70945288
2630, 37.192, 5.26661679, -7.88204903
2631, 36.3876009, 1.88596798, 9.29023493
2632, 35.2108111, 1.54839953, 9.35738147
2633, 35.1950241, 2.16895863, 9.23394459
2634, 37.1898485, 2.18900116, 9.22995788
2635, 37.1975001, 1.52931712, 9.3611772
2636, 37.201388, 1.85294365, 9.29680388
2637, 36.394, 6.250374, -7.12718558
2638, 35.1963062, 6.48368289, -6.92257917
2639, 35.197, 6.01680379, -7.33202115
2640, 37.192, 6.01680379, -7.33202115
2641, 37.1578525, 6.48474855, -6.92164461
2642, 37.192, 6.250374, -7.12718558
2643, 36.3935535, 3.05211975, 8.97488396
2644, 35.1963675, 2.75935197, 9.07426523
2645, 35.1981113, 3.34406209, 8.87578289
2646, 37.1849708, 3.34752687, 8.87460676
2647, 37.1861279, 2.75732554, 9.07495311
2648, 37.1908417, 3.05271544, 8.97468175
2649, 36.394, 7.12718558, -6.250374
2650, 35.197, 7.33202115, -6.01680379
2651, 35.197, 6.92235, -6.48394421
2652, 37.1790905, 6.92229819, -6.48400329
2653, 37.1747298, 7.33321724, -6.01543991
2654, 37.2114747, 7.12823973, -6.24917197
2655, 36.394, 4.1927463, 8.50204845
2656, 35.197, 3.91411946, 8.639452
2657, 35.197, 4.47137315, 8.36464489
2658, 37.192, 4.47137315, 8.36464489
2659, 37.1820946, 3.91470845, 8.63916154
2660, 37.192, 4.1927463, 8.50204845
2661, 36.394, 7.88204903, -5.26661679
2662, 35.1989705, 8.05426603, -5.00887584
2663, 35.197, 7.70945288, -5.52492518
2664, 37.188841, 7.70713552, -5.52839337
2665, 37.1779483, 8.05309794, -5.01062401
2666, 37.1950666, 7.881118, -5.26801018
2667, 36.394, 5.26661679, 7.88204903
2668, 35.197, 5.00830839, 8.05464519
2669, 35.197, 5.52492518, 7.70945288
2670, 37.192, 5.52492518, 7.70945288
2671, 37.1867931, 5.00587007, 8.05627442
2672, 37.1889228, 5.26505107, 7.88309521
2673, 36.394, 8.50204845, -4.1927463
2674, 35.197, 8.639452, -3.91411946
2675, 35.197, 8.36464489, -4.47137315
2676, 37.184979, 8.36239109, -4.4759434
2677, 37.1897989, 8.64127539, -3.910422
2678, 37.1915346, 8.50156911, -4.19371831
2679, 36.3966971, 6.25316291, 7.12473976
2680, 35.196355, 6.01708645, 7.33177327
2681, 35.1949928, 6.48635797, 6.92023319
2682, 37.17601, 6.48509693, 6.92133909
2683, 37.1918254, 6.01968639, 7.32949318
2684, 37.1993403, 6.2525707, 7.12525912
2685, 36.3986487, 8.9781941, -3.04236838
2686, 35.2081395, 9.07680836, -2.75186014
2687, 35.2004531, 8.87602563, -3.34334701
2688, 37.1669941, 8.87764925, -3.33856395
2689, 37.1750892, 9.07440759, -2.75893259
2690, 37.2037677, 8.9755901, -3.05003954
2691, 36.3984181, 7.12804047, 6.24939918
2692, 35.1964739, 6.92255531, 6.4837101
2693, 35.1964597, 7.33169174, 6.01717941
2694, 37.1789116, 7.33252621, 6.01622789
2695, 37.1835497, 6.92239808, 6.48388938
2696, 37.2075857, 7.12760508, 6.24989565
2697, 36.3959391, 9.29839511, -1.844944
2698, 35.1796422, 9.35940463, -1.53822841
2699, 35.2332642, 9.23720376, -2.15257369
2700, 37.1716391, 9.2344229, -2.166554
2701, 37.2069423, 9.3594005, -1.53824917
2702, 37.1878519, 9.29721504, -1.85087659
2703, 36.3949097, 7.87795983, 5.27273671
2704, 35.1954079, 7.70931737, 5.52512798
2705, 35.1967776, 8.05441932, 5.00864642
2706, 37.1813466, 8.05211437, 5.01209603
2707, 37.1812817, 7.70462784, 5.53214638
2708, 37.1931017, 7.87998917, 5.2696996
2709, 36.3937249, 9.45793667, -0.641762459
2710, 35.2007383, 9.47928205, -0.316094874
2711, 35.192246, 9.43877317, -0.934140943
2712, 37.2102771, 9.43852488, -0.937929158
2713, 37.1991938, 9.47894166, -0.321288208
2714, 37.2179858, 9.45899092, -0.625677661
2715, 36.3937839, 8.50081332, 4.19525089
2716, 35.1873795, 8.36583217, 4.4689656
2717, 35.1879902, 8.64095726, 3.9110671
2718, 37.1798053, 8.63672585, 3.91964754
2719, 37.1831642, 8.36153297, 4.4776835
2720, 37.1971554, 8.49877455, 4.19938511
2721, 36.3986909, 9.45765119, 0.646117938
2722, 35.2155787, 9.43836447, 0.940376398
2723, 35.195564, 9.47906871, 0.319349782
2724, 37.2075774, 9.48080326, 0.292885633
2725, 37.1797332, 9.43768027, 0.950815308
2726, 37.1815415, 9.45872198, 0.629780837
2727, 36.3784427, 8.98505143, 3.02216734
2728, 35.1940856, 8.87632025, 3.34247908
2729, 35.1895243, 9.07848921, 2.74690851
2730, 37.2057359, 9.08078957, 2.74013189
2731, 37.1883291, 8.87435063, 3.34828139
2732, 37.2003873, 8.97770308, 3.0438149
2733, 36.3938971, 9.29834127, 1.84521465
2734, 35.1911402, 9.23624507, 2.15739332
2735, 35.1989447, 9.35669437, 1.55185379
2736, 37.1885969, 9.35806297, 1.54497338
2737, 37.1989343, 9.23788476, 2.14915006
2738, 37.2277615, 9.29786276, 1.84762029
2739, 34.2703725, -1.12336313, -3.64412324
2740, 34.2730893, 1.12625604, -3.64550487
2741, 34.2756154, -2.04278863, -4.3754648
2742, 34.2766003, 2.04325496, -4.37605137
2743, 34.2781269, -2.54414744, -5.41740767
2744, 34.278522, -2.54559431, -6.57623746
2745, 34.2770017, -2.04321312, -7.62400128
2746, 34.2739046, 0.013529055, -8.60996494
2747, 34.275, 1.13243656, -8.35152875
2748, 34.2690821, -1.12361323, -8.35575748
2749, 34.2810977, 2.05333413, -7.61118558
2750, 34.2800863, 2.54382725, -6.5839888
2751, 34.278812, 2.54366115, -5.41528814
2752, 34.2737381, -7.14113351, 2.34732067
2753, 34.2737008, -4.8653126, 2.35044347
2754, 34.2756223, -8.04941173, 1.61617188
2755, 34.275, -3.95941983, 1.62730838
2756, 34.2731765, -8.53809249, 0.608429538
2757, 34.2778716, -8.54415231, -0.582571057
2758, 34.2731216, -8.03906429, -1.62920742
2759, 34.2717653, -6.03099808, -2.60981592
2760, 34.2783993, -4.85627354, -2.34605835
2761, 34.2756668, -7.12001109, -2.3574722
2762, 34.2758736, -3.96481454, -1.63405023
2763, 34.2769161, -3.45275823, -0.568910664
2764, 34.2751109, -3.4541377, 0.575052322
2765, 34.2772991, 4.87602046, 2.35558273
2766, 34.2741622, 7.1323944, 2.35154905
2767, 34.2732337, 3.95192553, 1.61786618
2768, 34.2746274, 8.0294687, 1.64114497
2769, 34.2799381, 3.4598336, 0.599712158
2770, 34.2754584, 3.45405693, -0.574694619
2771, 34.272586, 3.96672104, -1.63642191
2772, 34.275617, 4.86368604, -2.34965755
2773, 34.2770873, 5.99470424, -2.60999463
2774, 34.275184, 8.0429135, -1.62437816
2775, 34.2690392, 8.54275438, -0.58864264
2776, 34.2741045, 7.12928891, -2.35304198
2777, 34.2660723, 8.55082699, 0.552613497
2778, 34.2595346, -1.08405186, 8.37422231
2779, 34.2729267, 1.13324366, 8.35113989
2780, 34.2796502, -2.03481093, 7.63451658
2781, 34.275, 2.04058017, 7.62730838
2782, 34.2750538, -2.54713745, 6.56937755
2783, 34.275, -2.54456185, 5.41922036
2784, 34.275, -2.04058017, 4.37269162
2785, 34.275, -1.13243656, 3.64847125
2786, 34.2730068, 0.00648330413, 3.39000805
2787, 34.2745268, 1.13633123, 3.65035081
2788, 34.2797386, 2.03148976, 4.36135747
2789, 34.2777264, 2.54328068, 6.58636454
2790, 34.2756703, 2.54396991, 5.41663295
2791, 39.4822572, -2.47185037, 7.60854492
2792, 39.473454, 2.46683913, 7.61017114
2793, 39.4820168, -4.6947467, 6.47760399
2794, 39.4770125, 4.6981539, 6.4751332
2795, 39.4777689, -6.47178062, 4.70277106
2796, 39.45811, -7.62946859, 2.4064931
2797, 39.4972369, -7.99999997, -0.000657631387
2798, 39.4597745, -4.68824779, -6.48230921
2799, 39.4695081, -6.47253355, -4.70173472
2800, 39.4840348, -7.63175471, -2.39923321
2801, 39.4953965, -0.00602503101, -7.99999773
2802, 39.4614989, -2.47334389, -7.60805954
2803, 39.4870892, 2.47080723, -7.60888373
2804, 39.4779025, 6.47374398, -4.70006797
2805, 39.475, 4.70228202, -6.47213595
2806, 39.525444, 7.63100658, 2.40161167
2807, 39.4881681, 7.99999783, -0.00589443
2808, 39.4746593, 7.63562624, -2.3868833
2809, 39.4847342, 6.47265316, 4.70157006
2810, 34.55, 1.12128395, -3.7344047
2811, 34.55, -0.000950024353, -3.49124502
2812, 34.55, -1.07722894, -3.73269209
2813, 34.55, -1.97487075, -4.43405401
2814, 34.55, 1.96612447, -4.43405144
2815, 34.55, -2.44907033, -6.56841642
2816, 34.55, -2.44299621, -5.40183725
2817, 34.55, -1.08775882, -8.2677322
2818, 34.55, -1.98536555, -7.54151812
2819, 34.55, 1.09201954, -8.26980839
2820, 34.55, -0.0337031032, -8.51643884
2821, 34.55, 2.4480192, -6.56288501
2822, 34.55, 1.95022238, -7.58634072
2823, 34.55, 2.45412674, -5.47108947
2824, 34.55, -4.88291581, 2.26750569
2825, 34.55, -6.00250441, 2.51474558
2826, 34.55, -7.06591509, 2.27837523
2827, 34.55, -7.96639598, 1.56991522
2828, 34.55, -4.03483838, 1.57268956
2829, 34.55, -8.447479, -0.579818138
2830, 34.55, -8.45426152, 0.603976586
2831, 34.55, -7.09004976, -2.26812121
2832, 34.55, -7.99323522, -1.53594289
2833, 34.55, -4.90341271, -2.26667086
2834, 34.55, -6.03986274, -2.51466873
2835, 34.55, -3.54628571, -0.560470151
2836, 34.55, -4.05962627, -1.60238212
2837, 34.55, -3.54139704, 0.529769114
2838, 34.55, 7.13373867, 2.2594189
2839, 34.55, 5.99917708, 2.50906848
2840, 34.55, 4.92134138, 2.26630133
2841, 34.55, 4.02537909, 1.56525839
2842, 34.55, 7.96286386, 1.57701974
2843, 34.55, 3.54680115, -0.561967898
2844, 34.55, 3.55619708, 0.60512074
2845, 34.55, 4.91129598, -2.26919152
2846, 34.55, 4.01485124, -1.54386869
2847, 34.55, 7.09703328, -2.26586776
2848, 34.55, 5.96447594, -2.51476011
2849, 34.55, 8.45619237, -0.554165687
2850, 34.55, 7.94075804, -1.60170162
2851, 34.55, 8.46322865, 0.518901453
2852, 34.55, 1.11511612, 8.25144765
2853, 34.55, 0.000910547957, 8.51479337
2854, 34.55, -1.05716296, 8.28047779
2855, 34.55, -1.96308005, 7.57219469
2856, 34.55, 1.96444342, 7.57091333
2857, 34.55, -2.44875559, 5.43230333
2858, 34.55, -2.45743335, 6.59367385
2859, 34.55, -1.09293188, 3.73177073
2860, 34.55, -1.99210845, 4.46364441
2861, 34.55, 1.09150133, 3.73206364
2862, 34.55, -0.029916828, 3.48354909
2863, 34.55, 2.44814302, 5.43224217
2864, 34.55, 1.9489048, 4.41428806
2865, 34.55, 2.45541381, 6.53020717
2866, 40.45, -4.29439944, -2.79093741
2867, 40.45, 2.36624962, 4.42973459
2868, 40.45, -2.36630294, 4.42991561
2869, 40.45, -0.603525506, -3.90588385
2870, 40.45, 4.26542033, -3.85502422
2871, 40.45, 2.5556402, -5.02791502
2872, 40.45, -2.23089865, -4.6412992
2873, 40.45, 4.48752487, -1.95678797
2874, 40.45, -4.04640536, 1.19341408
2875, 40.45, 4.74130548, 3.80490466
2876, 40.45, 4.06478264, 1.1980192
2877, 40.45, -4.74133886, 3.80581332
2878, 40.45, -0.00460143445, 7.63714542
2879, 40.45, -0.577472549, 7.41198
2880, 40.45, 0.545960771, 7.43315794
2881, 40.45, -2.83735272, 6.91093947
2882, 40.45, 2.87342723, 6.91153699
2883, 40.45, 6.87288138, 1.80682209
2884, 40.45, 7.39594661, 1.52412116
2885, 40.45, 6.26277647, 3.25520235
2886, 40.45, 5.41925753, 2.54217723
2887, 40.45, 4.91575929, 2.33741069
2888, 40.45, -0.836667537, -4.54238765
2889, 40.45, -0.295122562, -4.35662532
2890, 40.45, 1.23113862, -4.01953936
2891, 40.45, 0.755644202, -3.84257286
2892, 40.45, 0.416849812, -3.46811842
2893, 40.45, -2.44900159, 3.19275513
2894, 40.45, -1.19594152, 3.77313323
2895, 40.45, 2.43681714, 3.19179751
2896, 40.45, 1.19947132, 3.79022482
2897, 40.45, -0.280307253, 3.96421277
2898, 40.45, 0.280250056, 3.96421271
2899, 40.45, -1.45622035, 4.68139551
2900, 40.45, 1.48527875, 4.69157893
2901, 40.45, -6.94933584, 1.79047079
2902, 40.45, -7.39030819, 1.51342851
2903, 40.45, -5.42435125, 2.54224829
2904, 40.45, -6.27082681, 3.25580632
2905, 40.45, -4.9123295, 2.33241662
2906, 40.45, -4.82124045, 5.17761657
2907, 40.45, -2.9833428, 6.34160723
2908, 40.45, -3.52798101, 5.54250646
2909, 40.45, -1.8180139, 5.10987394
2910, 40.45, -3.55617194, 4.15121302
2911, 40.45, -7.53203633, -1.26406675
2912, 40.45, -7.533064, 1.00611474
2913, 40.45, -4.60969017, -4.71131866
2914, 40.45, -5.9997049, -2.7093199
2915, 40.45, -7.16751113, -1.76659981
2916, 40.45, -6.63449617, -1.82506754
2917, 40.45, -4.90124851, -1.9450877
2918, 40.45, -2.6712444, -7.08620549
2919, 40.45, -0.20426467, -7.58703137
2920, 40.45, -2.91368824, -6.61985655
2921, 40.45, -1.78272023, -5.48644223
2922, 40.45, -3.47285027, -5.69657065
2923, 40.45, -3.30058148, -3.79025678
2924, 40.45, 2.65544171, -7.09429033
2925, 40.45, 0.306798277, -7.56586478
2926, 40.45, 4.55768038, -5.20645975
2927, 40.45, 6.0476249, -3.27737113
2928, 40.45, 2.94513522, -6.60762787
2929, 40.45, 1.92886249, -5.71659166
2930, 40.45, 3.62755514, -5.85803181
2931, 40.45, 3.41934552, -4.47756024
2932, 40.45, 7.50301079, -1.22958382
2933, 40.45, 7.58331008, 0.966879389
2934, 40.45, 6.61125384, -1.83608154
2935, 40.45, 7.13906673, -1.7822841
2936, 40.45, 4.98602837, -1.53278951
2937, 40.45, 6.05806198, -2.28175595
2938, 40.45, 4.40865764, -2.91874207
2939, 40.45, 4.82276369, 5.17635013
2940, 40.45, 2.98696068, 6.35246471
2941, 40.45, 1.79843228, 5.1139226
2942, 40.45, 3.54319059, 5.55149066
2943, 40.45, 3.5512141, 4.15402978
2944, 40.45, 4.56773494, 0.97347427
2945, 40.45, 4.37816762, 0.459408944
2946, 40.45, 4.40304405, 2.53001559
2947, 40.45, 4.5991237, -1.1668533
2948, 40.45, 3.67313951, -1.32685184
2949, 40.45, 3.89880749, -0.523153835
2950, 40.45, 3.5426356, 0.177406199
2951, 40.45, -1.60920853, -4.96680012
2952, 40.45, -1.47670031, -4.2395866
2953, 40.45, 1.79031298, -5.15773927
2954, 40.45, 1.98511686, -3.85944313
2955, 40.45, -3.25813848, 1.62542377
2956, 40.45, -3.58054573, 0.196963071
2957, 40.45, -3.54341661, 2.8772141
2958, 40.45, -4.39345636, 2.52528962
2959, 40.45, -2.85900682, -2.85594541
2960, 40.45, -3.63242023, -1.75121113
2961, 40.45, -4.55273115, -1.58254553
2962, 40.45, -3.90181584, -0.52740058
2963, 40.45, -4.38758251, 0.440798053
2964, 40.45, -1.02049299, -3.34754006
2965, 40.45, -1.83207704, -3.64687827
2966, 40.45, 3.02002906, -2.47081579
2967, 40.45, 2.81686103, -3.334723
2968, 40.45, 3.28738655, 1.61836508
2969, 40.45, 3.54183931, 2.8759208
2970, 40.45, -4.52028769, 0.986757555
2971, 35.9847972, -2.19506291, -4.98112865
2972, 35.9857009, -1.86142534, -7.54644615
2973, 36.0334866, 0.0974789794, -8.41803595
2974, 36.0112158, 1.96765738, -7.40880249
2975, 35.9919136, 2.14287498, -4.87550597
2976, 35.5243308, -1.2974933, -3.95722954
2977, 36.7797683, -1.31908351, -3.97110407
2978, 36.7840883, 1.21718476, -3.9083831
2979, 35.188418, 1.22888604, -3.91523644
2980, 35.1926591, -2.03396106, -4.68874014
2981, 35.2792248, 2.02671865, -4.67757363
2982, 36.7524757, -2.07901129, -4.76140723
2983, 36.7550153, 2.03963717, -4.69758677
2984, 35.2677803, -2.40768119, -5.7561326
2985, 35.2433699, -1.53951007, -7.86716597
2986, 35.2687401, -2.18063157, -7.04940267
2987, 35.9036336, -2.40136036, -6.29978064
2988, 35.2463468, -0.491919833, -8.36947565
2989, 35.2348623, 0.583319002, -8.34864619
2990, 36.0092783, -1.04526494, -8.18261797
2991, 35.2242441, 1.56973933, -7.84182476
2992, 35.2911326, 2.21354459, -6.97806971
2993, 36.0412589, 1.16553774, -8.12083045
2994, 35.2627586, 2.40297879, -5.71348132
2995, 35.9109084, 2.41334889, -6.17929617
2996, 36.7732243, -2.40934834, -5.77319488
2997, 36.8337588, -2.19154289, -7.02642086
2998, 36.7346794, -1.52924585, -7.87558181
2999, 36.7818786, 0.586582146, -8.34783334
3000, 36.7634548, -0.494492557, -8.36894008
3001, 36.7759836, 2.21554716, -6.97352493
3002, 36.7485405, 1.58005572, -7.83298225
3003, 36.8127281, 2.40639078, -5.74371226
3004, 36.251387, -8.41617762, 0.135962113
3005, 35.7478885, -7.86984679, 1.5362529
3006, 36.0491384, -7.75659879, -1.66456021
3007, 36.0279006, -5.75213954, -2.40727339
3008, 36.0254526, -4.00258929, -1.36629077
3009, 36.0154066, -3.83403374, 1.07934711
3010, 35.1140674, -7.02072896, 2.19419971
3011, 36.5952059, -7.04860867, 2.18101349
3012, 36.7777408, -4.78804053, 2.09464895
3013, 35.1968298, -4.75391226, 2.07452774
3014, 35.13138, -7.88951244, 1.51199959
3015, 35.2517076, -3.9747153, 1.32462141
3016, 36.6056047, -7.87605424, 1.52866625
3017, 36.7592413, -3.94814845, 1.28308426
3018, 35.0588363, -8.3533931, 0.563862485
3019, 35.2353736, -8.13081334, -1.14718547
3020, 35.2504308, -7.43676597, -1.94733242
3021, 36.0710762, -8.25480897, 0.878769874
3022, 35.4241965, -8.41237992, -0.191893543
3023, 36.0829157, -8.25165849, -0.88681116
3024, 35.2442585, -6.41513375, -2.38412751
3025, 35.2431302, -5.35230836, -2.33171515
3026, 36.0272664, -6.8320698, -2.27245679
3027, 35.240236, -3.78538242, -0.975637717
3028, 35.2372521, -4.4249593, -1.83729334
3029, 36.0242051, -4.7607098, -2.07859563
3030, 35.2382411, -3.59996716, 0.310229573
3031, 36.020863, -3.58521046, -0.158718235
3032, 36.8826426, -8.41280205, -0.186510782
3033, 36.8449796, -8.25271627, 0.884120691
3034, 36.7455655, -7.4435086, -1.94233955
3035, 36.7306482, -8.11897326, -1.16891074
3036, 36.776009, -5.36074049, -2.33404098
3037, 36.7996747, -6.40443359, -2.38596594
3038, 36.7377825, -4.44309681, -1.8526879
3039, 36.7698564, -3.77958797, -0.962377485
3040, 36.7644393, -3.60238061, 0.328361499
3041, 35.9912427, 3.79407822, 0.995142746
3042, 36.0165538, 4.09649022, -1.49433949
3043, 36.0297035, 7.88661008, -1.51561948
3044, 36.0001919, 8.20567271, 0.995694685
3045, 36.0361356, 5.9782993, -2.4199027
3046, 35.5256201, 4.69117643, 2.03552963
3047, 36.7725647, 4.66981268, 2.02163342
3048, 36.7837187, 7.31890104, 2.02901455
3049, 35.2016253, 7.30094453, 2.04057427
3050, 35.2023911, 3.96005307, 1.301928
3051, 35.2362935, 8.04974441, 1.28644777
3052, 36.7494837, 3.91040132, 1.22064629
3053, 36.7432803, 8.05865148, 1.27214547
3054, 35.2313249, 3.59326632, 0.253047448
3055, 35.2482104, 4.48646488, -1.88828267
3056, 35.2410955, 3.82084044, -1.052456
3057, 36.0142251, 3.59972467, -0.308347763
3058, 35.2485419, 6.52964791, -2.36132867
3059, 35.238052, 5.47280777, -2.36187814
3060, 36.0520303, 5.0109166, -2.20864529
3061, 35.2379131, 7.51406855, -1.88785498
3062, 35.233559, 8.16858112, -1.07408375
3063, 36.0324145, 7.09183145, -2.1597
3064, 35.2316795, 8.40701772, 0.250331181
3065, 36.0342686, 8.39721679, -0.331287908
3066, 36.7280554, 3.59321112, 0.25252187
3067, 36.7655394, 3.81407005, -1.03832088
3068, 36.7540108, 4.49801727, -1.89748462
3069, 36.746673, 5.4384292, -2.353941
3070, 36.7727609, 6.53746424, -2.35956186
3071, 36.7663223, 8.17904178, -1.05269983
3072, 36.7385673, 7.50898674, -1.8919194
3073, 36.7379783, 8.40707692, 0.24976127
3074, 36.2522647, -2.41650728, 6.1299714
3075, 35.75067, -1.863189, 7.5443208
3076, 36.0215116, -1.73941256, 4.3174888
3077, 36.0520066, 0.255216251, 3.59349534
3078, 35.9947984, 1.96733592, 4.59074864
3079, 36.025, 2.14743986, 7.11575179
3080, 35.1414678, -0.968642189, 8.21768625
3081, 36.6160602, -0.91431137, 8.24063266
3082, 35.2763364, 1.2143503, 8.0932638
3083, 36.7478612, 1.22164897, 8.08901263
3084, 35.1294362, -1.88985225, 7.51157484
3085, 35.2850825, 2.03336213, 7.31218842
3086, 36.6229476, -1.87529124, 7.52960216
3087, 36.7625, 2.02927678, 7.31849754
3088, 35.0639423, -2.35387931, 6.56182933
3089, 35.2452344, -2.13291353, 4.85672405
3090, 35.2420383, -1.42380266, 4.0431694
3091, 36.0652952, -2.24773981, 6.89669714
3092, 35.4301228, -2.41353527, 5.82323036
3093, 36.1484155, -2.27242671, 5.16784806
3094, 35.2449995, 0.64226958, 3.66678552
3095, 35.2392372, -0.406052156, 3.61430898
3096, 36.0201952, -0.825625208, 3.72519385
3097, 35.2876953, 2.22161289, 5.04039792
3098, 35.2372105, 1.57254034, 4.16056616
3099, 36.0205402, 1.17488194, 3.88433168
3100, 35.263631, 2.40179376, 6.29628824
3101, 35.9112938, 2.41339887, 5.82137781
3102, 36.8707888, -2.41218119, 5.80562434
3103, 36.8704543, -2.25499244, 6.87829899
3104, 36.759291, -1.42062811, 4.04086351
3105, 36.8124277, -2.12827056, 4.848104
3106, 36.7290059, -0.409603799, 3.6149162
3107, 36.7170725, 0.665620181, 3.67333935
3108, 36.7632356, 1.57024603, 4.15860721
3109, 36.8499698, 2.22238131, 5.04217888
3110, 36.7625, 2.40038984, 6.30745504
3111, 38.1818908, 6.23368206, -1.17702706
3112, 38.5289547, 6.93062307, -0.757588744
3113, 38.782833, 6.91624202, 0.774919713
3114, 39.5226978, 7.19863293, -0.0572633426
3115, 39.3656928, 5.04337393, -0.724476745
3116, 39.1716973, 5.06472491, 0.751838086
3117, 38.9820961, 6.00081226, -1.19999973
3118, 39.6035892, 6.75669987, -0.931345966
3119, 39.7562015, 5.74811204, -1.17326572
3120, 38.3414532, 5.26102487, -0.945471186
3121, 38.4539782, 4.80091705, 0.0469050852
3122, 38.1299001, 6.47713748, 1.10106304
3123, 39.6384146, 6.50906861, 1.08666883
3124, 39.792138, 5.51944448, 1.09957555
3125, 38.3181593, 5.55486138, 1.11438396
3126, 39.7913494, 5.05282124, 0.736785176
3127, 39.5905836, 6.99352935, 0.672978029
3128, 38.3108225, 5.10538444, 0.79978935
3129, 38.1332754, 6.98795058, 0.681141435
3130, 39.7705469, 4.8321626, 0.275963419
3131, 39.9258215, 4.92197785, -0.527132099
3132, 39.8975436, 5.24143382, -0.929826514
3133, 39.3790131, 4.80726468, 0.131842587
3134, 40.1021306, 5.60758261, -1.13402319
3135, 40.1114191, 6.21269941, -1.18099914
3136, 39.5615441, 5.35423863, -1.01143079
3137, 40.0378933, 6.65909368, -1.00279386
3138, 39.9940771, 7.01720807, -0.636622142
3139, 39.6931659, 6.35549573, -1.14613384
3140, 39.9840437, 7.19722171, -0.0816098921
3141, 40.0111159, 7.1223081, 0.424764094
3142, 39.5434672, 7.04379874, -0.592017048
3143, 39.2210552, 7.1318792, 0.39855924
3144, 37.9833478, 4.80717918, -0.131066747
3145, 37.9659686, 4.90665884, 0.494575677
3146, 38.8071872, 4.8952825, 0.468614182
3147, 37.9263557, 5.36323621, -1.0171194
3148, 37.9281489, 4.99348996, -0.653404582
3149, 38.3791088, 4.90097135, -0.481804963
3150, 37.8555127, 6.4136335, -1.12645787
3151, 37.8402236, 5.84363603, -1.18976902
3152, 38.2497718, 5.71033944, -1.16451568
3153, 38.0600789, 7.11576188, -0.44167345
3154, 38.0217264, 6.77593185, -0.915385033
3155, 38.3608482, 6.60718656, -1.03504806
3156, 38.1671436, 7.15632475, 0.320800689
3157, 38.7186971, 7.19746658, 0.0779345268
3158, 38.5869633, 6.13119244, -1.192807
3159, 38.8027212, 6.54879299, -1.06715803
3160, 38.6608871, 5.59825655, -1.13075294
3161, 39.0285555, 7.1418212, -0.369112923
3162, 39.1094039, 6.91227461, -0.779586447
3163, 39.3174327, 6.42913182, -1.1206453
3164, 38.9013608, 4.85477718, -0.358419725
3165, 39.3638476, 5.886398, -1.19461064
3166, 39.2034183, 5.45731309, -1.07027609
3167, 38.8550738, 5.15092088, -0.847976793
3168, 38.1998352, 0.235049316, -7.17675478
3169, 38.5979307, 0.901891928, -6.79157498
3170, 39.1561728, -1.04685466, -5.41340362
3171, 38.768171, 1.05205714, -5.4227862
3172, 39.4499359, 1.19991809, -6.01402079
3173, 38.9364014, -0.0670128663, -7.1981274
3174, 39.6153404, 0.75028885, -6.93651836
3175, 39.8292442, -0.515919252, -7.08343312
3176, 39.1495031, -0.996241285, -6.66895688
3177, 38.3231047, -0.758101628, -6.93020531
3178, 38.3763214, -1.19979451, -6.02220679
3179, 38.2957822, -0.527893393, -4.92235044
3180, 39.7810606, -0.582671436, -4.95095567
3181, 38.1039631, 0.545239588, -4.93102208
3182, 39.5859999, 0.577994317, -4.94837147
3183, 39.7789587, -1.01258766, -5.35605417
3184, 39.6078127, 0.998670039, -5.3346744
3185, 38.3123625, -1.00340674, -5.34183975
3186, 38.1647764, 0.99035207, -5.32235498
3187, 39.7900442, -1.19361339, -5.87635911
3188, 40.0744056, -0.945896104, -6.73843115
3189, 40.1711977, -0.495627269, -7.09286486
3190, 39.761261, -1.05554306, -6.57081419
3191, 39.1150561, -1.19994013, -6.01198683
3192, 39.4758845, -0.768620949, -6.92153233
3193, 40.0669351, 0.0290275036, -7.19964887
3194, 40.0413871, 0.644342937, -7.01233501
3195, 40.0528375, 1.00887597, -6.64974555
3196, 39.6414798, 0.114645218, -7.19451098
3197, 39.9386689, 1.18623112, -6.1812615
3198, 39.966487, 1.13563677, -5.61227701
3199, 39.5471819, 1.087857, -6.50652458
3200, 39.1165705, 1.16535149, -5.71372058
3201, 37.9446055, -1.19107182, -6.14610928
3202, 37.9412989, -1.13134205, -5.59991856
3203, 38.7536049, -1.1630482, -5.7045023
3204, 37.895828, -0.637905257, -7.0164039
3205, 37.9163267, -1.0200738, -6.63202012
3206, 38.3424029, -1.10536128, -6.46709361
3207, 37.8412479, 0.393132119, -7.13377561
3208, 37.85194, -0.123214435, -7.19365749
3209, 38.2699144, -0.259607202, -7.17158188
3210, 38.0336089, 1.06333047, -6.55617291
3211, 38.0329812, 0.735395647, -6.948258
3212, 38.3528225, 0.58539514, -7.04752686
3213, 38.1354271, 1.1920387, -5.86200094
3214, 38.6142724, 1.18653397, -6.17926833
3215, 38.57239, 0.0910486987, -7.1965409
3216, 38.7113671, 0.411651966, -7.12718351
3217, 38.6443138, -0.420061746, -7.12407657
3218, 39.0390573, 1.11485959, -6.44394606
3219, 39.1027631, 0.800780079, -6.89372885
3220, 39.2502953, 0.304002655, -7.16085416
3221, 38.7312174, -1.14280831, -6.36604529
3222, 39.3858002, -0.279121577, -7.16708661
3223, 39.0164254, -0.505530506, -7.0883193
3224, 38.7418227, -0.88490724, -6.81051784
3225, 39.4690395, -1.30743392, 2.70011417
3226, 39.4563648, 1.322789, 2.69262497
3227, 39.4562365, -2.35782242, 1.85490524
3228, 39.4719271, 2.34587171, 1.86999623
3229, 39.4700783, -2.91807928, 0.696285368
3230, 39.4612413, -1.29715734, -2.70506614
3231, 39.4718696, -2.34791295, -1.86743267
3232, 39.458204, -2.92130597, -0.682621003
3233, 39.4550264, -0.0199837613, -2.99993344
3234, 39.4537915, 2.92396772, -0.671127964
3235, 39.4732824, 2.34206142, -1.8747662
3236, 39.4665242, 1.32023898, -2.69387621
3237, 39.4840629, 2.91831637, 0.695291
3238, 39.7619367, -0.226897644, 4.82164629
3239, 39.3798894, -0.940051895, 5.25414315
3240, 38.8234716, 1.04400129, 6.59165979
3241, 39.1669138, -1.02638819, 6.62171318
3242, 38.4882443, -1.19679438, 6.08765393
3243, 38.1027881, 0.33428284, 4.84750055
3244, 39.0071359, 0.042453399, 4.80075119
3245, 38.7823237, 1.00750363, 5.34812852
3246, 39.6545191, 0.748609379, 5.0621386
3247, 38.347068, -0.731688509, 5.0488786
3248, 39.5741782, 1.19999353, 6.00393984
3249, 39.622414, 0.491107856, 7.09490323
3250, 38.1390736, 0.493752558, 7.09371313
3251, 39.834844, -0.484293643, 7.09793427
3252, 38.3341473, -0.483767323, 7.09816628
3253, 39.8102716, -0.964774355, 6.71358983
3254, 39.6367358, 0.99418486, 6.67200927
3255, 38.35686, -0.997060757, 6.66773486
3256, 38.1747698, 0.996819709, 6.66809465
3257, 39.8184826, -1.18136253, 6.21067172
3258, 39.9234823, -1.08953895, 5.49710352
3259, 39.9149447, -0.749351493, 5.06273145
3260, 39.2693708, -1.19994068, 5.98806881
3261, 40.1059684, -0.376924814, 4.86073371
3262, 40.1059684, 0.154711595, 4.81001499
3263, 39.570913, -0.622258942, 4.97394259
3264, 40.0522596, 0.638666822, 4.98407447
3265, 40.0562022, 1.01766335, 5.36410591
3266, 39.7082279, 0.287236699, 4.83488409
3267, 40.0120891, 1.19267361, 5.86760035
3268, 40.0120891, 1.13200785, 6.39819372
3269, 39.6338624, 1.06937433, 5.4555383
3270, 39.1988249, 1.15984131, 6.30784432
3271, 37.9933319, -1.19681181, 5.91258441
3272, 37.990602, -1.11166135, 6.45189495
3273, 38.8099438, -1.13360796, 6.3936153
3274, 37.9298582, -0.623570609, 4.97473921
3275, 37.916802, -1.01876407, 5.36587086
3276, 38.3799207, -1.10476762, 5.531504
3277, 37.801394, 0.428957175, 4.87928784
3278, 37.801394, -0.099781721, 4.80415569
3279, 38.224928, -0.222757931, 4.82085671
3280, 37.801394, 0.872735842, 5.17639078
3281, 38.1617358, 1.1873035, 6.17409879
3282, 38.1411618, 1.10558266, 5.53343062
3283, 38.8028976, 1.19948348, 5.96479515
3284, 38.4425559, 0.71606901, 5.03706429
3285, 39.3845363, -0.0928120209, 4.80359458
3286, 39.1935126, -0.502803971, 4.91041835
3287, 39.3308275, 0.41656443, 4.8746227
3288, 38.9280188, -1.16348761, 5.7062372
3289, 38.8634787, -0.842147481, 5.14513883
3290, 38.677102, -0.366269111, 4.8572634
3291, 39.1782509, 1.15142653, 5.66204003
3292, 38.554962, 0.189812866, 4.81510715
3293, 38.8372072, 0.570172838, 4.94411036
3294, 39.2074372, 0.886373933, 5.19108638
3295, 38.2083713, -5.75035268, -1.17374453
3296, 38.5632634, -5.04646385, -0.728538822
3297, 38.824034, -5.0753216, 0.764833219
3298, 39.4631052, -4.8002129, -0.0226032322
3299, 39.3769991, -6.94684779, -0.737210464
3300, 39.1528501, -6.92452481, 0.765018877
3301, 38.9644133, -6.01574939, -1.19989664
3302, 39.6199199, -5.26272703, -0.946799115
3303, 39.7636033, -6.24199874, -1.17534532
3304, 38.3553138, -6.73413554, -0.949233907
3305, 38.573773, -7.19997941, 0.00702932507
3306, 38.1436083, -5.53583141, 1.10659275
3307, 39.6372979, -5.52284697, 1.1010563
3308, 39.7746382, -6.50996141, 1.08625014
3309, 38.309274, -6.50756494, 1.08737198
3310, 39.781418, -6.99015122, 0.677938466
3311, 39.6389755, -5.06807146, 0.755982276
3312, 38.3312412, -6.9867474, 0.682883278
3313, 38.1873712, -5.07215989, 0.760994561
3314, 39.8741142, -7.1640973, 0.291337389
3315, 39.8882263, -7.12542433, -0.416437358
3316, 39.9501847, -6.82461164, -0.871788757
3317, 39.2768885, -7.19616227, 0.0958948895
3318, 40.1112689, -6.38737031, -1.13575712
3319, 40.1134115, -5.84283144, -1.189663
3320, 39.5913229, -6.65170346, -1.00761232
3321, 40.0296169, -5.37584237, -1.02490353
3322, 40.0328215, -4.99291659, -0.652520503
3323, 39.697387, -5.68820616, -1.15878583
3324, 39.9502478, -4.81218864, -0.170599463
3325, 39.9699147, -4.87641059, 0.421363066
3326, 39.5242965, -4.91481804, -0.512230528
3327, 39.1581372, -4.86216949, 0.381237107
3328, 38.0630341, -7.19686272, -0.0867157758
3329, 38.0106396, -7.12792809, 0.409607405
3330, 38.797821, -7.11265235, 0.449449391
3331, 37.9356065, -6.65352527, -1.00643168
3332, 37.8942441, -7.03273184, -0.611117777
3333, 38.3835155, -7.07672891, -0.529768674
3334, 37.8657354, -5.61564751, -1.13678193
3335, 37.8548371, -6.16428963, -1.18870052
3336, 38.2404479, -6.28593765, -1.1654354
3337, 38.0552336, -4.91683661, -0.516485307
3338, 38.0270432, -5.25437446, -0.940235368
3339, 38.3772701, -5.37307425, -1.02321264
3340, 38.1534363, -4.82171787, 0.227269028
3341, 38.6437058, -4.80032907, -0.0281007148
3342, 38.5810968, -5.89345152, -1.1952604
3343, 38.7442529, -5.4858189, -1.0842591
3344, 38.6496096, -6.41405613, -1.12630259
3345, 39.0248806, -4.86859122, -0.399892694
3346, 39.0953909, -5.15696417, -0.853985124
3347, 39.2952193, -5.60904949, -1.13452973
3348, 38.9757966, -7.15489234, -0.325919734
3349, 39.3615684, -6.13370092, -1.19252843
3350, 39.1320532, -6.57568783, -1.05289293
3351, 38.8220754, -6.91437233, -0.777124985
3352, 37.5, 0.990187119, -4.54805614
3353, 37.5, 0.00655868085, -4.16334507
3354, 37.5, -0.544656809, -4.34274251
3355, 37.5, -1.42389837, -4.85783075
3356, 37.5, 1.40764348, -4.88783261
3357, 37.5, -1.77268228, -6.40787547
3358, 37.5, -1.63368389, -5.40573592
3359, 37.5, -1.49181915, -6.88517452
3360, 37.5, -0.794450224, -7.65217349
3361, 37.5, -0.245285365, -7.7449857
3362, 37.5, 0.800537817, -7.64583052
3363, 37.5, 1.75603661, -6.4139485
3364, 37.5, 1.19241698, -7.3111689
3365, 37.5, 1.73385328, -5.86762634
3366, 37.5, -5.01349828, 1.45273062
3367, 37.5, -6.02601804, 1.81079001
3368, 37.5, -6.56441666, 1.67737731
3369, 37.5, -7.43911685, 1.13113061
3370, 37.5, -4.61327538, 1.10181197
3371, 37.5, -7.81143742, -0.369236993
3372, 37.5, -7.61642116, 0.586137473
3373, 37.5, -7.52945769, -0.88489156
3374, 37.5, -6.78522931, -1.62873124
3375, 37.5, -5.22523893, -1.64273189
3376, 37.5, -6.23739978, -1.69717482
3377, 37.5, -4.80671919, -1.27440006
3378, 37.5, -4.25646233, -0.403384242
3379, 37.5, -4.26429644, 0.154742556
3380, 37.5, 6.9796822, 1.43803777
3381, 37.5, 6.03073034, 1.83039426
3382, 37.5, 5.46722978, 1.65925255
3383, 37.5, 4.55377445, 1.16141417
3384, 37.5, 7.4022609, 1.12824056
3385, 37.5, 4.23456989, -0.375748147
3386, 37.5, 4.37570346, 0.630905138
3387, 37.5, 5.20635037, -1.62825611
3388, 37.5, 4.51252788, -0.886385267
3389, 37.5, 6.8034063, -1.63412402
3390, 37.5, 5.77647154, -1.71552335
3391, 37.5, 7.64994791, -0.398467186
3392, 37.5, 7.17418054, -1.3269773
3393, 37.5, 7.73009312, 0.168883897
3394, 37.5, 0.978609328, 7.45412616
3395, 37.5, 0.00607004829, 7.81620891
3396, 37.5, -0.515310589, 7.66904645
3397, 37.5, -1.43807007, 7.13468926
3398, 37.5, 1.45895886, 7.13253637
3399, 37.5, -1.77611655, 5.61318253
3400, 37.5, -1.64614718, 6.6347962
3401, 37.5, -0.785329568, 4.36924635
3402, 37.5, -1.49402015, 5.1141865
3403, 37.5, 0.764234995, 4.32571622
3404, 37.5, -0.264669081, 4.36924635
3405, 37.5, 1.10995607, 4.77631511
3406, 37.5, 1.76461952, 5.59723711
3407, 37.5, 1.74472807, 6.1621708
3408, 38.5, 0.676402814, -0.152529082
3409, 38.5, -1.16903041, 0.270165451
3410, 38.5, -0.619125575, 1.67773838
3411, 38.5, -1.76172298, 1.06164414
3412, 38.5, 0.358364154, 1.44585566
3413, 38.5, 1.54018645, 0.864697728
3414, 38.5, -0.249279599, 0.0545489218
3415, 38.5, -2.09875225, -0.198105858
3416, 38.5, -1.2947704, -1.2448142
3417, 38.5, 1.00864144, -1.46026904
3418, 38.5, -0.300228588, -1.45661197
3419, 38.5, 1.80627516, -0.419335193
3420, 35.2437611, -16.0188394, -9.5
3421, 34.9107156, -14.634217, -9.5
3422, 34.2100655, -15.5952398, -9.5
3423, 33.7306244, -19.5157668, -9.5
3424, 32.4514179, -19.7024342, -9.5
3425, 36.2555154, -12.9520684, -9.5
3426, 34.2845482, -16.5235215, -9.5
3427, 34.3056151, -19.4632702, -9.5
3428, 34.9656742, -16.681826, -9.5
3429, 37.0168811, -14.6683767, -9.5
3430, 37.0751799, -15.604622, -9.5
3431, 36.136611, -15.138714, -9.5
3432, 30.892288, -19.1156519, -9.5
3433, 34.5536933, -17.2880191, -9.5
3434, 34.0471179, -18.705504, -9.5
3435, 34.8625012, -18.9949832, -9.5
3436, 34.7128185, -18.4644427, -9.5
3437, 34.2491595, -17.9359959, -9.5
3438, 32.7661999, -17.7540357, -9.5
3439, 32.2896625, -18.3165808, -9.5
3440, 33.1350338, -18.6534186, -9.5
3441, 33.5251802, -17.9261902, -9.5
3442, 33.8338832, -17.3270566, -9.5
3443, 33.4784449, -16.6482872, -9.5
3444, 33.1309123, -17.1923936, -9.5
3445, 35.6440366, -16.8727449, -9.5
3446, 35.7406874, -17.7975613, -9.5
3447, 36.2919943, -17.1064404, -9.5
3448, 35.3774555, -18.4957441, -9.5
3449, 34.9502359, -17.9183689, -9.5
3450, 33.7064161, -16.0909509, -9.5
3451, 34.1907974, -14.8234955, -9.5
3452, 35.1507513, -17.3351708, -9.5
3453, 36.404746, -16.376174, -9.5
3454, 31.6887344, -18.5998388, -9.5
3455, 35.9938447, -2.23716172, -9.5
3456, 29.2177343, -20.2382802, -9.5
3457, 28.9385373, -20.250314, -9.5
3458, 29.4924331, -20.1972881, -9.5
3459, 26.8814894, -20.2523859, -9.5
3460, 25.1303518, -20.2545716, -9.5
3461, 29.7634987, -20.1333305, -9.5
3462, 30.2717014, -18.9420043, -9.5
3463, 30.5360944, -18.8529267, -9.5
3464, 30.3835809, -20.3079014, -9.5
3465, 30.790903, -18.7397486, -9.5
3466, 31.034011, -18.6031508, -9.5
3467, 31.4322342, -18.3452442, -9.5
3468, 31.661652, -18.186858, -9.5
3469, 31.2905112, -18.8577453, -9.5
3470, 31.962116, -18.045229, -9.5
3471, 32.1758408, -17.8662306, -9.5
3472, 31.9891984, -18.4582098, -9.5
3473, 32.6102958, -17.3868932, -9.5
3474, 32.4141096, -17.5849581, -9.5
3475, 32.5279312, -18.0353083, -9.5
3476, 32.9696054, -16.8906512, -9.5
3477, 32.7926519, -17.1060722, -9.5
3478, 32.9485561, -17.4732147, -9.5
3479, 33.1433717, -16.618598, -9.5
3480, 33.2995643, -16.3876811, -9.5
3481, 33.3046786, -16.9203404, -9.5
3482, 33.4135499, -16.109013, -9.5
3483, 33.5476329, -15.8645944, -9.5
3484, 33.5924305, -16.369619, -9.5
3485, 33.9102731, -15.3609291, -9.5
3486, 33.7994576, -15.6167388, -9.5
3487, 33.9582408, -15.8430954, -9.5
3488, 33.9006391, -14.9750569, -9.5
3489, 33.9872302, -14.7100651, -9.5
3490, 34.2004315, -15.2093677, -9.5
3491, 34.0488492, -14.4381794, -9.5
3492, 33.951625, -13.7761359, -9.5
3493, 34.4554115, -14.0668205, -9.5
3494, 34.4088083, -14.3435401, -9.5
3495, 34.5507565, -14.7288563, -9.5
3496, 35.1277577, -10.9760342, -9.5
3497, 35.1277577, -13.2260342, -9.5
3498, 35.5831155, -13.7931427, -9.5
3499, 36.9834921, -1.13888457, -9.5
3500, 35.0043646, -1.14421249, -9.5
3501, 35.0031811, -3.38250662, -9.5
3502, 37.9942546, -2.26824307, -9.5
3503, 36.9553629, -3.37490118, -9.5
3504, 37.1084966, -13.6181028, -9.5
3505, 37.1277577, -13.2260342, -9.5
3506, 37.1253301, -10.9767657, -9.5
3507, 37.4891794, -14.4762569, -9.5
3508, 37.4315817, -14.8645496, -9.5
3509, 36.6361982, -13.8102226, -9.5
3510, 37.4607311, -15.3326723, -9.5
3511, 37.3653513, -15.7134497, -9.5
3512, 37.0460305, -15.1364994, -9.5
3513, 37.2332007, -16.0830465, -9.5
3514, 36.897615, -16.4687606, -9.5
3515, 36.7299814, -16.8237235, -9.5
3516, 36.7399629, -15.990398, -9.5
3517, 36.4718756, -17.5255011, -9.5
3518, 36.6736822, -17.1888072, -9.5
3519, 36.3483226, -16.7413123, -9.5
3520, 35.9623855, -18.1863538, -9.5
3521, 36.1962221, -17.8710616, -9.5
3522, 36.0163408, -17.4520009, -9.5
3523, 35.7807696, -18.5354452, -9.5
3524, 35.5171549, -18.8262992, -9.5
3525, 35.5590714, -18.1466527, -9.5
3526, 35.2597652, -19.076215, -9.5
3527, 34.9688238, -19.3395334, -9.5
3528, 35.1199784, -18.7453636, -9.5
3529, 34.3750885, -19.8075136, -9.5
3530, 34.6903807, -19.5736769, -9.5
3531, 34.5840582, -19.2291267, -9.5
3532, 34.0875931, -19.8337619, -9.5
3533, 33.8654705, -19.9676835, -9.5
3534, 34.0181198, -19.4895185, -9.5
3535, 33.2261817, -20.5996005, -9.5
3536, 33.226022, -20.0595082, -9.5
3537, 33.0910212, -19.6091005, -9.5
3538, 31.1641027, -20.6018598, -9.5
3539, 19.2888958, -19.0054177, -9.5
3540, 19.2513626, -20.2600079, -9.5
3541, 21.3064629, -20.274075, -9.5
3542, 35.9934906, -4.50364374, -9.5
3543, 35.993951, -6.75286946, -9.5
3544, 36, -9, -9.5
3545, 31.671853, -19.4090431, -9.5
3546, 23.0652546, -20.2584274, -9.5
3547, 34.7269133, -15.8070396, -9.5
3548, 34.5603906, -15.1147284, -9.5
3549, 35.0772384, -15.3265282, -9.5
3550, 35.5236633, -14.8864655, -9.5
3551, 35.6901861, -15.5787767, -9.5
3552, 34.7641547, -16.2711805, -9.5
3553, 34.2473069, -16.0593807, -9.5
3554, 35.1047176, -16.3503327, -9.5
3555, 34.6251112, -16.6026738, -9.5
3556, 35.4438989, -16.4457921, -9.5
3557, 35.3048554, -16.7772854, -9.5
3558, 36.2706785, -15.757444, -9.5
3559, 35.8242536, -16.1975067, -9.5
3560, 36.0243913, -16.6244594, -9.5
3561, 36.1960632, -14.0453912, -9.5
3562, 33.9954822, -16.3072362, -9.5
3563, 33.4328291, -19.0845927, -9.5
3564, 32.7932258, -19.1779264, -9.5
3565, 34.1763665, -19.0843871, -9.5
3566, 33.8888712, -19.1106354, -9.5
3567, 33.5910759, -18.6794613, -9.5
3568, 32.0700761, -19.1511365, -9.5
3569, 32.7123481, -18.4849997, -9.5
3570, 32.3705402, -19.0095075, -9.5
3571, 36.576746, -14.9035454, -9.5
3572, 34.4191207, -16.9057703, -9.5
3573, 34.7596837, -16.9849225, -9.5
3574, 34.0592157, -16.9252891, -9.5
3575, 34.1937882, -17.3075379, -9.5
3576, 33.8814966, -16.5859044, -9.5
3577, 33.656164, -16.9876719, -9.5
3578, 34.4548096, -18.8502436, -9.5
3579, 35.0582127, -17.0084984, -9.5
3580, 34.8522223, -17.3115949, -9.5
3581, 35.397394, -17.1039578, -9.5
3582, 36.6058955, -15.371668, -9.5
3583, 34.4014264, -17.6120075, -9.5
3584, 34.0415213, -17.6315263, -9.5
3585, 34.7519646, -17.603194, -9.5
3586, 34.5996977, -17.9271824, -9.5
3587, 35.0504936, -17.6267698, -9.5
3588, 34.7876598, -18.7297129, -9.5
3589, 34.3799682, -18.5849734, -9.5
3590, 34.1481387, -18.3207499, -9.5
3591, 34.480989, -18.2002193, -9.5
3592, 33.8871698, -17.931093, -9.5
3593, 33.7861491, -18.3158471, -9.5
3594, 33.330107, -18.2898044, -9.5
3595, 35.045137, -18.4800934, -9.5
3596, 34.8315272, -18.1914058, -9.5
3597, 35.1638457, -18.2070565, -9.5
3598, 33.6795317, -17.6266234, -9.5
3599, 32.9506169, -18.2037272, -9.5
3600, 33.1456901, -17.840113, -9.5
3601, 33.3280463, -17.5592919, -9.5
3602, 33.4823977, -17.2597251, -9.5
3603, 35.9680155, -16.9895926, -9.5
3604, 35.692362, -17.3351531, -9.5
3605, 35.4457193, -17.5663661, -9.5
3606, 35.3454617, -17.8579651, -9.5
3607, 17.2940645, -19.0061639, -9.49776766
3608, 17.4988595, -18.7575502, -9.49999993
3609, 19.8985188, -18.7369486, -9.19223082
3610, 17.1874007, -18.797421, -9.49485554
3611, 19.8984341, -18.7381304, 9.19225292
3612, 17.2984881, -19.0061647, 9.49786255
3613, 17.1893, -18.7991954, 9.49491788
3614, 13.8645074, -18.755, 8.77685556
3615, 16.2656802, -18.7834576, 9.4194721
3616, 16.5798008, -18.7848642, 9.45532831
3617, 16.860292, -18.7829597, 9.4784373
3618, 22.1667549, -18.7431225, 8.27474463
3619, 24.1135311, -18.7317787, 6.81991245
3620, 25.6494953, -18.7400191, 4.88218461
3621, 26.3997672, -18.7678515, 3.32327316
3622, 25.6433013, -18.7444813, -4.89250889
3623, 24.112019, -18.7407685, -6.82137849
3624, 26.4100544, -18.7319652, -3.29559261
3625, 22.166054, -18.7473703, -8.27513986
3626, 16.848674, -18.7865566, -9.47764604
3627, 16.5842926, -18.7835394, -9.45576438
3628, 16.2753758, -18.7804709, -9.42073753
3629, 13.9409142, -18.7631555, -8.80811603
3630, 13.5792832, -18.755, -8.65320634
3631, 13.2982574, -18.755, -8.52029104
3632, 13.021731, -18.755, -8.37825201
3633, 12.75, -18.755, -8.22724134
3634, 12.4833554, -18.755, -8.06742072
3635, 12.2220828, -18.755, -7.89896132
3636, 11.9664619, -18.755, -7.7220435
3637, 11.6674273, -18.7611835, -7.49873958
3638, 9.96181264, -18.766933, -5.78149906
3639, 9.7758232, -18.7836521, -5.5305599
3640, 9.60182341, -18.7793028, -5.27909145
3641, 9.42362205, -18.7992744, -5.00221144
3642, 9.27148904, -18.7765547, -4.74780027
3643, 9.12800746, -18.7949298, -4.48996001
3644, 8.9677288, -18.7823893, -4.17736139
3645, 8.84969067, -18.7807249, -3.92710435
3646, 8.72765838, -18.7764864, -3.64637114
3647, 8.0803581, -18.7754798, -1.23302331
3648, 8.04532021, -18.7847871, -0.926838778
3649, 8.0196641, -18.7764746, -0.61092648
3650, 8.00498523, -18.7983704, -0.307724669
3651, 8.00001357, -18.7717512, -0.0160571953
3652, 8.00426516, -18.7937117, 0.284639803
3653, 8.0200341, -18.7811987, 0.616641395
3654, 8.04580676, -18.7816366, 0.931788698
3655, 8.08649574, -18.7638481, 1.27903777
3656, 8.73281035, -18.7770405, 3.65874099
3657, 8.84901869, -18.7806199, 3.92562382
3658, 8.96457126, -18.780138, 4.17090592
3659, 9.12925505, -18.8001568, 4.49228549
3660, 9.27271482, -18.7664, 4.74992407
3661, 9.42773649, -18.8001194, 5.00884835
3662, 9.60549136, -18.7792448, 5.28457504
3663, 9.77515371, -18.7815473, 5.52962475
3664, 9.96188043, -18.7664701, 5.78158745
3665, 11.7039686, -18.754528, 7.52701933
3666, 11.9740139, -18.7686533, 7.72744961
3667, 12.2220828, -18.755, 7.89896132
3668, 12.4833554, -18.755, 8.06742072
3669, 12.75, -18.755, 8.22724134
3670, 13.021731, -18.755, 8.37825201
3671, 13.2982574, -18.755, 8.52029104
3672, 13.5792832, -18.755, 8.65320634
3673, 26.9628576, -18.7631415, 0.839241419
3674, 26.9610771, -18.7571559, -0.859080916
3675, 16.890987, -19.01, 9.47046147
3676, 16.8932486, -19.994228, 9.46023141
3677, 16.5852746, -19.5046359, 9.44004573
3678, 16.5736912, -20.7658067, 9.43928652
3679, 16.894096, -19.4813325, 9.46028695
3680, 17.1980527, -19.518319, 9.48020933
3681, 17.2013219, -20.7527547, 9.4804236
3682, 15.6427115, -20.0153836, 9.29593963
3683, 15.3359553, -19.526041, 9.23492202
3684, 15.3457855, -20.7513704, 9.23687738
3685, 15.6569705, -19.5026532, 9.29877593
3686, 15.9693241, -19.5136414, 9.36090691
3687, 15.9491081, -20.744909, 9.35688571
3688, 14.4519787, -20.0064473, 8.9762752
3689, 14.1556254, -19.5076131, 8.87567679
3690, 14.1570023, -20.7544178, 8.87614419
3691, 14.4518066, -19.5080617, 8.97621679
3692, 14.7484367, -19.5100532, 9.07690914
3693, 14.7438381, -20.7543363, 9.07534812
3694, 13.3072537, -20.006, 8.50204845
3695, 13.0286268, -19.508, 8.36464489
3696, 13.0287738, -20.7546681, 8.36471738
3697, 13.3072537, -19.508, 8.50204845
3698, 13.5881835, -19.5198, 8.64058768
3699, 13.5851333, -20.7520254, 8.63908351
3700, 12.2370805, -20.0090623, 7.88451951
3701, 11.9756288, -19.5307818, 7.70982307
3702, 11.9759727, -20.7580524, 7.71005282
3703, 12.2333307, -19.5162639, 7.88201394
3704, 12.4916643, -19.5158669, 8.05462693
3705, 12.4923364, -20.756661, 8.05507599
3706, 11.249626, -20.006, 7.12718558
3707, 11.0074521, -19.5537499, 6.91480479
3708, 11.0160558, -20.753, 6.92235
3709, 11.249626, -19.508, 7.12718558
3710, 11.4831962, -19.508, 7.33202115
3711, 11.4831962, -20.753, 7.33202115
3712, 10.3728144, -20.006, 6.250374
3713, 10.1679788, -19.508, 6.01680379
3714, 10.1679788, -20.753, 6.01680379
3715, 10.3733883, -19.4939366, 6.25102834
3716, 10.5785709, -19.5236859, 6.48499425
3717, 10.57765, -20.753, 6.48394421
3718, 9.61745925, -20.0004963, 5.26588088
3719, 9.4446615, -19.5248179, 5.00727078
3720, 9.44541146, -20.7564247, 5.00839317
3721, 9.61664591, -19.5007152, 5.26466363
3722, 9.79180584, -19.5120791, 5.52680899
3723, 9.79001956, -20.7568281, 5.52413563
3724, 9.00190561, -20.0108418, 4.20076433
3725, 8.86596389, -19.529753, 3.9251018
3726, 8.85950365, -20.7620759, 3.91200173
3727, 9.00214303, -19.5076194, 4.20124579
3728, 9.13935738, -19.5177693, 4.47948896
3729, 9.1351324, -20.7563721, 4.47092155
3730, 8.52130341, -20.0048999, 3.04088812
3731, 8.42117925, -19.5125912, 2.74593184
3732, 8.42134976, -20.7575668, 2.74643414
3733, 8.52324779, -19.5020324, 3.04661607
3734, 8.62610765, -19.5262667, 3.34963144
3735, 8.62476184, -20.7672473, 3.34566681
3736, 8.20391421, -19.9949771, 1.8565537
3737, 8.14086997, -19.5171667, 1.53960891
3738, 8.14326711, -20.7585912, 1.55166017
3739, 8.20289537, -19.4802942, 1.85143166
3740, 8.26498702, -19.5181973, 2.16358746
3741, 8.26469824, -20.7572454, 2.16213568
3742, 8.04082266, -20.0018204, 0.622833397
3743, 8.01848408, -19.5102971, 0.282012499
3744, 8.02015797, -20.7589478, 0.307551178
3745, 8.04078302, -19.4971183, 0.622228618
3746, 8.06210588, -19.5003104, 0.947552656
3747, 8.06176125, -20.7633876, 0.942294561
3748, 8.04096666, -19.9976575, -0.625030451
3749, 8.06201072, -19.4923261, -0.946100822
3750, 8.06174571, -20.7545517, -0.942057506
3751, 8.0404759, -19.4937033, -0.617542941
3752, 8.01933269, -19.5003445, -0.294959863
3753, 8.02058184, -20.7499699, -0.314018251
3754, 8.19977567, -20.0061888, -1.83574788
3755, 8.26485273, -19.5270198, -2.16291236
3756, 8.26319758, -20.7540898, -2.15459137
3757, 8.19895541, -19.4934545, -1.83162417
3758, 8.13792651, -19.5133213, -1.52481112
3759, 8.13888252, -20.7532276, -1.52961732
3760, 8.52225392, -20.0035179, -3.04368821
3761, 8.62559095, -19.5319174, -3.34810928
3762, 8.62157854, -20.7618444, -3.33628912
3763, 8.52475214, -19.4978693, -3.05104775
3764, 8.42379908, -19.5281377, -2.75364962
3765, 8.42325449, -20.7589412, -2.75204531
3766, 8.99797488, -20.0016882, -4.19279361
3767, 9.13546465, -19.5161054, -4.47159527
3768, 9.13608362, -20.752672, -4.47285042
3769, 8.99827632, -19.5016177, -4.19340487
3770, 8.86028389, -19.5110689, -3.91358391
3771, 8.8621033, -20.751554, -3.91727329
3772, 9.61753767, -20.0024155, -5.26599825
3773, 9.79152289, -19.5008955, -5.52638553
3774, 9.78964984, -20.7504251, -5.52358231
3775, 9.61720361, -19.5020391, -5.26549829
3776, 9.44504505, -19.5055198, -5.0078448
3777, 9.44558866, -20.7476261, -5.00865837
3778, 10.3716766, -19.9926689, -6.24907655
3779, 10.5779456, -19.5182291, -6.48428125
3780, 10.576134, -20.7473547, -6.48221558
3781, 10.3723448, -19.4889487, -6.24983844
3782, 10.1688947, -19.5212449, -6.01784812
3783, 10.1688815, -20.7522317, -6.0178331
3784, 11.2507366, -20.000602, -7.12815958
3785, 11.4837119, -19.5066085, -7.33247337
3786, 11.4843883, -20.7539921, -7.33306662
3787, 11.2478881, -19.4993623, -7.12566151
3788, 11.0137984, -19.5214246, -6.92037032
3789, 11.0158913, -20.7532413, -6.92220573
3790, 12.2333832, -20.006, -7.88204903
3791, 12.4916916, -19.508, -8.05464519
3792, 12.4916916, -20.753, -8.05464519
3793, 12.2313636, -19.5106975, -7.8806996
3794, 11.9725715, -19.5335789, -7.7077802
3795, 11.9750748, -20.753, -7.70945288
3796, 13.3072537, -20.006, -8.50204845
3797, 13.5858805, -19.508, -8.639452
3798, 13.5858805, -20.753, -8.639452
3799, 13.3067867, -19.5058607, -8.50181816
3800, 13.0286268, -19.508, -8.36464489
3801, 13.0286268, -20.753, -8.36464489
3802, 14.4528632, -20.006, -8.97657545
3803, 14.7530195, -19.5340582, -9.07846479
3804, 14.7470412, -20.753, -9.0764354
3805, 14.4587432, -19.5050341, -8.97857142
3806, 14.1586853, -19.508, -8.87671551
3807, 14.1586853, -20.753, -8.87671551
3808, 15.6506101, -20.006, -9.29751077
3809, 15.9388048, -19.5256968, -9.35483625
3810, 15.9404819, -20.7454074, -9.35516986
3811, 15.6411106, -19.496772, -9.2956212
3812, 15.3459146, -19.508, -9.23690306
3813, 15.3459146, -20.753, -9.23690306
3814, 16.8652853, -19.9996477, -9.4583986
3815, 17.1813369, -19.487571, -9.47911372
3816, 17.1901889, -20.773125, -9.47969391
3817, 16.5713779, -20.7402782, -9.43913489
3818, 16.8731336, -19.4863556, -9.45891301
3819, 16.5631331, -19.4848741, -9.4385945
3820, 15.6561354, -19.01, 9.30904754
3821, 14.4495942, -19.01, 8.98620584
3822, 13.3027556, -19.01, 8.51116975
3823, 12.227733, -19.01, 7.89050518
3824, 11.2326459, -19.01, 7.1261534
3825, 10.3696901, -19.01, 6.262367
3826, 9.60578762, -19.01, 5.26713508
3827, 8.9885845, -19.01, 4.19719823
3828, 8.51331196, -19.01, 3.04936261
3829, 8.19427565, -19.01, 1.8599586
3830, 8.03036325, -19.01, 0.620268127
3831, 8.0300147, -19.01, -0.616270914
3832, 8.19201469, -19.01, -1.84886871
3833, 8.51407842, -19.01, -3.0515846
3834, 8.98837786, -19.01, -4.19724584
3835, 9.60785817, -19.01, -5.27012119
3836, 10.369581, -19.01, -6.26218792
3837, 11.2429204, -19.01, -7.13483187
3838, 12.227733, -19.01, -7.89050518
3839, 13.3027556, -19.01, -8.51116975
3840, 14.4495942, -19.01, -8.98620584
3841, 15.6506712, -19.01, -9.30799824
3842, 16.888006, -19.01, -9.47033399
3843, 17.4941342, -18.5, 8.76684037
3844, 19.8956519, -18.5, 8.34312066
3845, 15.084416, -18.5, 8.3660821
3846, 22.254547, -18.5, 7.34046819
3847, 12.773859, -18.5, 7.34968865
3848, 24.0695551, -18.5, 5.74587269
3849, 25.4490466, -18.5, 3.58140774
3850, 26.1785734, -18.5, 1.28712252
3851, 26.1968611, -18.5, -1.29897692
3852, 25.4915029, -18.5, -3.59587972
3853, 24.06949, -18.5, -5.74317035
3854, 22.2648216, -18.5, -7.36958821
3855, 17.4913865, -18.5, -8.7690286
3856, 19.8975314, -18.5, -8.34665907
3857, 15.0910347, -18.5, -8.36226029
3858, 12.773859, -18.5, -7.34968865
3859, 10.8745643, -18.5, -5.75959668
3860, 8.75140464, -18.5, -1.2817966
3861, 9.46560861, -18.5, -3.64999594
3862, 8.79133909, -18.5, 1.32372268
3863, 9.50293961, -18.5, 3.65019321
3864, 10.8896626, -18.5, 5.75432443
3865, 15.0164921, -17.5046228, 7.60474777
3866, 19.9723155, -17.5098027, 7.60839379
3867, 22.1952563, -17.519482, 6.47723465
3868, 12.8000915, -17.5185161, 6.47385979
3869, 23.9742229, -17.5188087, 4.69940827
3870, 25.4999508, -17.473486, 0.0280606773
3871, 25.1345485, -17.4888399, 2.39032828
3872, 25.1263032, -17.527108, -2.4165055
3873, 23.9735224, -17.5213533, -4.70037321
3874, 19.9694357, -17.5253598, -7.60932896
3875, 22.1819986, -17.5246378, -6.48682429
3876, 17.4924213, -17.5232051, -7.99999641
3877, 15.0323808, -17.5127782, -7.60991825
3878, 9.86655738, -17.5174062, -2.3938575
3879, 11.0249178, -17.5108591, -4.69822414
3880, 12.8111016, -17.5225061, -6.48183859
3881, 9.88796465, -17.550564, 2.46108063
3882, 9.50000475, -17.495665, 0.00871634697
3883, 11.0277437, -17.5752015, 4.70211636
3884, 33.6661215, -23.3451229, -5
3885, 34.7304066, -22.7921704, -5
3886, 36.4999812, -19.3739366, -5
3887, 36.5954383, -19.2752899, -5
3888, 36.8282798, -18.9582523, -5
3889, 36.4787083, -20.8861144, -5
3890, 36.4802722, -19.5662686, -5
3891, 36.0407723, -22.0118395, -5
3892, 35.8972281, -22.1361269, -5
3893, 35.2821945, -22.7819727, -5
3894, 35.3354423, -22.1338178, -5
3895, 36.167004, -21.8583795, -5
3896, 36.2726447, -21.6759204, -5
3897, 36.3681965, -21.4786181, -5
3898, 36.4143198, -21.2720337, -5
3899, 36.4555453, -21.079796, -5
3900, 33.3255957, -22.1667432, -5
3901, 21.7369788, -22.7549223, -5
3902, 23.9534792, -22.7592588, -5
3903, 33.5333426, -23.6646307, -5
3904, 33.3133172, -23.6739939, -5
3905, 32.4467172, -22.7164706, -5
3906, 30.2550262, -22.7482014, -5
3907, 32.8068071, -22.4397315, -5
3908, 33.7447926, -23.6366798, -5
3909, 33.9329333, -23.5731982, -5
3910, 34.1292436, -23.507447, -5
3911, 34.8039213, -23.1718432, -5
3912, 34.6189171, -23.2483865, -5
3913, 34.1880773, -23.065689, -5
3914, 34.9902984, -23.0632639, -5
3915, 35.1389135, -22.9288662, -5
3916, 28.2167837, -22.7290179, -5
3917, 25.999482, -22.6688855, -5
3918, 36.075251, -18.6952246, -7.19016842
3919, 35.8660526, -18.9260394, -8.34508421
3920, 36.1296673, -18.6351854, -8.34508421
3921, 36.1296412, -18.6352143, -6.09589881
3922, 35.8644857, -18.9277683, -6.10431856
3923, 36.0373613, -18.7370294, -6.09966084
3924, 36.4178817, -18.259906, -7.2500918
3925, 36.8830321, -17.5587025, -6.80134871
3926, 36.9692115, -17.4149209, -8.15106665
3927, 36.767408, -17.7516096, -8.15066876
3928, 36.9691245, -17.4150661, -5.90047383
3929, 36.7672837, -17.7518171, -5.89953532
3930, 36.9415293, -17.4611059, -5.90185425
3931, 37.7003105, -18.5430926, -4.71383839
3932, 37.2730295, -17.7985748, -4.96200567
3933, 37.2109964, -19.3076688, -4.97748684
3934, 37.6448603, -19.3174811, -4.76430048
3935, 37.3314662, -17.8250134, -4.94346711
3936, 37.6955899, -17.0384896, -4.71843909
3937, 37.8945732, -16.7077713, -4.44692146
3938, 37.8526667, -17.7975817, -4.52245519
3939, 37.9073711, -19.3066662, -4.42033036
3940, 37.9906665, -15.5176158, -4.13630806
3941, 37.9040828, -16.3102703, -4.42735737
3942, 37.9563707, -15.889988, -4.29215576
3943, 37.2471169, -20.1517888, -4.96681653
3944, 37.6945997, -20.2025077, -4.70930254
3945, 37.9373851, -20.2299141, -4.31605196
3946, 37.2225212, -20.5706919, -4.96381295
3947, 37.6518134, -20.6654135, -4.70908426
3948, 37.8894838, -20.7099302, -4.32195894
3949, 37.1694007, -20.9932107, -4.95647868
3950, 37.5623425, -21.1223765, -4.70985012
3951, 37.7922808, -21.1950461, -4.32690434
3952, 37.04002, -21.4001586, -4.95953811
3953, 37.4281655, -21.5691751, -4.71022498
3954, 37.6557537, -21.6638006, -4.31183111
3955, 36.8849207, -21.7758005, -4.96081167
3956, 37.253332, -21.9965811, -4.7095672
3957, 37.4708532, -22.1122195, -4.31006205
3958, 36.692119, -22.1473672, -4.96092001
3959, 37.0389622, -22.4006088, -4.70968841
3960, 37.2406377, -22.5410482, -4.31316464
3961, 36.4601436, -22.4994684, -4.96168189
3962, 36.7858812, -22.7835138, -4.70919904
3963, 36.9743678, -22.9425646, -4.30873362
3964, 36.2091982, -22.8306828, -4.95857147
3965, 36.4953068, -23.1423557, -4.70806089
3966, 36.6680385, -23.3210246, -4.29941258
3967, 35.9154639, -23.1284949, -4.95941721
3968, 36.1765447, -23.465026, -4.7075386
3969, 36.3259239, -23.6510214, -4.32763274
3970, 35.5866574, -23.4185158, -4.9562134
3971, 35.8068626, -23.7671671, -4.71031319
3972, 35.9451849, -23.9725925, -4.30831745
3973, 35.2452229, -23.6352252, -4.96048417
3974, 35.4276275, -24.0227791, -4.70967878
3975, 35.5411986, -24.2414196, -4.31088706
3976, 34.8763793, -23.8343807, -4.96158215
3977, 35.027147, -24.2388119, -4.70962425
3978, 35.1143716, -24.4683045, -4.31427338
3979, 34.4983302, -23.9963093, -4.96187306
3980, 34.6092172, -24.4161824, -4.70803034
3981, 34.6802402, -24.6440297, -4.32811659
3982, 34.082032, -24.1550752, -4.9541001
3983, 34.1490595, -24.5556305, -4.70987731
3984, 34.2026187, -24.7990176, -4.30160714
3985, 33.6812784, -24.2219078, -4.95935587
3986, 33.7010435, -24.6463901, -4.70922017
3987, 33.7271547, -24.8916554, -4.30786799
3988, 33.2481884, -24.265339, -4.96046467
3989, 33.2332508, -24.694004, -4.70839354
3990, 33.2245361, -24.9312956, -4.33449978
3991, 30.7329292, -24.349929, -4.93677623
3992, 21.5549055, -24.9496648, -4.313268
3993, 22.8126604, -24.5873915, -4.80930292
3994, 20.5289443, -24.4659819, -4.88479427
3995, 20.4586885, -24.8373312, -4.54669602
3996, 29.5730174, -24.2635982, -4.96463257
3997, 31.9473799, -24.2332747, -4.97241087
3998, 31.9492212, -24.5754602, -4.8178298
3999, 31.887164, -24.8807123, -4.47365167
4000, 29.6283919, -24.7868821, -4.61710336
4001, 22.6068531, -24.972301, -4.23373238
4002, 20.162212, -24.9751293, -4.22163686
4003, 26.2321612, -24.7090311, -4.70517716
4004, 28.4102636, -24.7998307, -4.60022573
4005, 23.8741521, -24.5156467, -4.85680129
4006, 16.188663, -24.3958545, -3.9660887
4007, 18.7987052, -21.8772297, -3.95799982
4008, 18.9794632, -22.94369, -4.08490503
4009, 18.7486069, -20.4981113, -3.92698751
4010, 19.5736702, -20.4960132, -4.75248579
4011, 19.912362, -20.5235077, -5.80788156
4012, 19.7132774, -20.4657065, -6.97867411
4013, 18.8504616, -24.2641161, -3.99185322
4014, 19.3102427, -24.5171448, -4.39394228
4015, 16.307853, -24.6928136, -3.89401196
4016, 16.8320094, -24.6946362, -3.6740188
4017, 16.8062631, -23.3451127, -3.68156752
4018, 16.3221207, -20.5289783, -3.88599899
4019, 16.3006259, -21.8738536, -3.89811948
4020, 15.607413, -20.501218, -4.49185063
4021, 16.3603216, -23.1260278, -3.86516202
4022, 15.1261642, -20.4705499, -5.52957099
4023, 15.2114937, -20.501562, -6.78685372
4024, 15.8237537, -24.2028196, -4.25454925
4025, 15.8462173, -24.3819699, -4.23325076
4026, 15.8918986, -24.5355765, -4.19157249
4027, 16.0814856, -24.6435264, -4.0393325
4028, 19.0899534, -20.52007, -7.82440353
4029, 16.8685661, -20.4872377, -8.3361702
4030, 17.9264083, -20.5416996, -8.38213685
4031, 15.7301832, -20.4567693, -7.65049951
4032, 35.8545357, -20.3551563, -5.00529698
4033, 35.5331711, -20.4699951, -5.05524531
4034, 35.135948, -20.6748615, -5.19627768
4035, 34.5046964, -20.8906452, -5.67181807
4036, 34.139363, -20.9099833, -6.26649469
4037, 35.3702504, -19.4166169, -7.36416323
4038, 37.2225511, -16.9176993, -7.23988893
4039, 37.9807389, -13.8920686, -8.19372064
4040, 37.9807389, -13.8920686, -6.81872064
4041, 37.9805366, -13.8961871, -5.50235421
4042, 37.90388, -14.6724298, -8.19372064
4043, 37.9038328, -14.6727482, -5.71002722
4044, 37.7506715, -15.4424221, -7.12796544
4045, 37.5230119, -16.1926203, -7.2089846
4046, 37.9877581, -20.249189, -1.99373473
4047, 37.9880002, -20.2442606, 0.00105547188
4048, 37.9879368, -20.2455518, 2.00335893
4049, 37.9401223, -20.7314388, -1.99329383
4050, 37.9399532, -20.7325783, 0.00205714826
4051, 37.9399802, -20.7323967, 1.99912361
4052, 37.842963, -21.2188313, -1.9901519
4053, 37.8440684, -21.2144182, -0.00055718918
4054, 37.8443, -21.2134936, 1.99963582
4055, 37.7014942, -21.6839728, -1.99411906
4056, 37.7021628, -21.6821042, -0.000376656832
4057, 37.70203, -21.6824752, 2.00003785
4058, 37.5124196, -22.1396032, -1.98976706
4059, 37.5142155, -22.1358061, -0.000999418931
4060, 37.5145703, -22.1350561, 2.00018579
4061, 37.2839465, -22.5666344, -1.98834681
4062, 37.2831497, -22.5679638, 0.000358194555
4063, 37.2833585, -22.5676155, 2.00079958
4064, 37.0109384, -22.9752617, -2.00015133
4065, 37.0111309, -22.9750021, 8.33307577e-05
4066, 37.0112719, -22.974812, 2.00059677
4067, 36.700601, -23.3534104, -2.0007909
4068, 36.7003553, -23.3536815, 6.83717739e-06
4069, 36.7000121, -23.3540602, 1.99868111
4070, 36.3543684, -23.6997327, -1.98473581
4071, 36.354437, -23.6996706, 0.000772849928
4072, 36.3539937, -23.7000724, 1.9991261
4073, 35.9770316, -24.0096258, -1.99405795
4074, 35.9754644, -24.0107881, 0.00195972184
4075, 35.9749594, -24.0111627, 2.00007995
4076, 35.5643799, -24.2852978, -1.99440291
4077, 35.5664398, -24.2840631, 0.00048590194
4078, 35.5673679, -24.2835069, 2.00125992
4079, 35.1329387, -24.5155717, -1.99014767
4080, 35.1353331, -24.5144392, 0.000655928065
4081, 35.1352112, -24.5144969, 1.99988496
4082, 34.6828082, -24.7019109, -1.99972036
4083, 34.682609, -24.7019821, 0.000367695233
4084, 34.682816, -24.7019081, 1.9992418
4085, 34.215557, -24.8437831, -1.99108182
4086, 34.2135224, -24.8442928, 0.00262461959
4087, 34.2134793, -24.8443036, 1.99995891
4088, 33.7319643, -24.9400443, -1.98579796
4089, 33.7325324, -24.9399601, 0.00130603323
4090, 33.7327109, -24.9399336, 2.00084522
4091, 33.2439481, -24.9880156, -1.99685616
4092, 33.2449998, -24.9879639, 0.000917865087
4093, 33.2454097, -24.9879438, 2.00028477
4094, 16.2747354, -25, 0.657391888
4095, 15.2924847, -25, 2.15498257
4096, 14.6809362, -25, 1.26991936
4097, 16.7171735, -25, 2.60979598
4098, 14.8556996, -25, -0.120651716
4099, 14.5861453, -25, -1.42190579
4100, 15.1893827, -25, -2.28096647
4101, 15.8390242, -25, -1.19701848
4102, 17.5134068, -25, -1.19731616
4103, 19.4117931, -25, -1.71436121
4104, 19.0715522, -25, 1.05038806
4105, 29.9323331, -25, -0.0612426036
4106, 16.2424052, -25, -2.73625067
4107, 27.4263921, -25, 1.23497975
4108, 31.465194, -25, -2.03743606
4109, 29.1311189, -25, -2.0378278
4110, 31.4634725, -25, -0.0322595386
4111, 19.1228566, -25, -2.84424073
4112, 18.4408659, -25, -2.64497505
4113, 20.6516334, -25, -3.08706809
4114, 22.9601496, -25, -3.12822216
4115, 20.8272801, -25, -2.04735635
4116, 16.8850425, -25, -3.11480717
4117, 16.329701, -25, -3.27025126
4118, 17.5106413, -25, -2.40868676
4119, 18.4514285, -25, -1.45963329
4120, 16.8893864, -25, -1.95693926
4121, 16.0993105, -25, -3.21284946
4122, 31.4631778, -25, 1.97250605
4123, 29.1218685, -25, 1.96943319
4124, 15.762684, -25, -3.01028058
4125, 15.2368154, -25, -2.79456303
4126, 14.9386654, -25, -2.55162363
4127, 15.7090695, -25, -2.50665902
4128, 14.6904011, -25, -2.2508072
4129, 14.3759786, -25, -1.81732798
4130, 14.1961634, -25, -1.47392579
4131, 14.8884104, -25, -1.85209056
4132, 14.1285368, -25, -1.24177164
4133, 14.3342797, -25, -0.6364808
4134, 14.351223, -25, 0.521919136
4135, 14.7612698, -25, -0.788931693
4136, 14.254396, -25, 1.40907569
4137, 14.1851372, -25, 1.17457177
4138, 14.82303, -25, 0.585860703
4139, 14.4381932, -25, 1.75368955
4140, 14.7437008, -25, 2.19167924
4141, 14.9899683, -25, 2.490833
4142, 14.9856988, -25, 1.71414997
4143, 15.287431, -25, 2.73267117
4144, 15.9903764, -25, 2.95425729
4145, 16.3278493, -25, 3.14304554
4146, 15.9889423, -25, 2.39652059
4147, 16.5641473, -25, 3.16445307
4148, 17.8478358, -25, 3.04808679
4149, 23.5481693, -25, 3.19096972
4150, 21.1117169, -25, 3.27546514
4151, 20.2340415, -25, 2.74514683
4152, 18.9932116, -25, 2.50049373
4153, 20.292957, -25, 1.32465224
4154, 17.9132578, -25, 1.78136822
4155, 24.5874741, -25, 2.87283741
4156, 26.447043, -25, -2.97296697
4157, 24.0799842, -25, -3.11825465
4158, 27.1405569, -25, -2.26632627
4159, 27.9188767, -25, -0.315730332
4160, 26.8478644, -25, 2.7266094
4161, 27.8780137, -25, 2.60810961
4162, 26.4582451, -25, 1.40934539
4163, 28.6898982, -25, 0.582624828
4164, 26.7459602, -25, 0.335211807
4165, 20.2634154, -25, -1.13187202
4166, 20.040917, -25, 0.25051732
4167, 19.2184591, -25, -0.350508868
4168, 15.790445, -25, 1.42173509
4169, 15.4966191, -25, 0.967569681
4170, 16.4928317, -25, 1.64637843
4171, 15.5624967, -25, 0.273381127
4172, 17.6613348, -25, 0.828541452
4173, 15.3473849, -25, -0.662261372
4174, 16.0596515, -25, -0.266813466
4175, 16.895727, -25, -0.277950679
4176, 16.672008, -25, -1.19821565
4177, 18.2915997, -25, -0.072782753
4178, 15.2268448, -25, -1.3096206
4179, 15.516263, -25, -1.75227711
4180, 16.0424067, -25, -1.96948901
4181, 15.9943526, -24.9828038, -3.89105791
4182, 15.4420411, -24.930255, -3.82428943
4183, 15.1222723, -24.4213988, -4.26562567
4184, 14.9026333, -24.2200601, -4.22602322
4185, 15.3226745, -24.2134047, -4.45221537
4186, 15.3469895, -24.3785147, -4.40696574
4187, 15.7211319, -24.9829073, -3.76617749
4188, 15.5888779, -24.8252246, -4.1271616
4189, 15.3833454, -24.5235053, -4.34297499
4190, 15.1417642, -24.8342595, -3.87294327
4191, 15.3106474, -24.6856946, -4.16336405
4192, 14.996295, -24.5713341, -4.10059606
4193, 15.3386549, -24.9784565, -3.5870841
4194, 15.1279667, -22.7497687, -4.37426221
4195, 16.4999838, -19.5, -4.5493191
4196, 17.4897924, -19.5, -4.16118372
4197, 18.0437244, -19.5, -4.34129149
4198, 18.9181455, -19.5, -4.84654668
4199, 16.0919755, -19.5, -4.88252379
4200, 19.2759747, -19.5, -6.40492124
4201, 19.1426612, -19.5, -5.39270632
4202, 18.3013303, -19.5, -7.65245776
4203, 18.9926438, -19.5, -6.88860605
4204, 16.7162212, -19.5, -7.62975285
4205, 17.7538078, -19.5, -7.74662234
4206, 15.7250114, -19.5, -6.43075377
4207, 16.3147201, -19.5, -7.30259383
4208, 15.7674484, -19.5, -5.86827933
4209, 14.3385734, -22.7422773, -3.8425558
4210, 13.6555899, -22.7472475, -3.15916712
4211, 13.1282915, -22.7476596, -2.37681108
4212, 13.4488335, -24.4457839, -1.43472925
4213, 13.9189598, -23.8470476, 0.0709483653
4214, 13.9153945, -21.5546841, 0.149230053
4215, 13.4083157, -24.386821, 1.48819726
4216, 13.6503864, -22.6915995, 1.11006222
4217, 13.6509444, -22.68501, -1.10898079
4218, 13.8458152, -24.4070074, 0.594601553
4219, 13.8611415, -24.4155112, -0.530481541
4220, 13.4193608, -24.6817964, -1.47392467
4221, 13.5668785, -24.7247053, -1.25873483
4222, 13.8065335, -24.1615253, -0.732327142
4223, 13.3966243, -24.6453893, 1.50306891
4224, 13.5565555, -24.6919317, 1.27553098
4225, 13.7788618, -24.1285373, 0.814364109
4226, 13.3164335, -23.3577793, -1.59905263
4227, 13.3029545, -22.0471085, -1.61423512
4228, 13.1949895, -24.2135136, -1.72725522
4229, 13.2204028, -24.3890827, -1.70194429
4230, 13.6583508, -23.9014151, -1.09449621
4231, 13.8619761, -23.2404552, -0.526753334
4232, 12.7647785, -20.4924287, -2.0631857
4233, 13.485588, -20.5508806, -1.38341614
4234, 13.9107809, -20.5418959, -0.211034576
4235, 13.6304708, -21.5243075, -1.14782146
4236, 11.6598619, -20.4791691, -2.4147141
4237, 13.8708412, -22.1437021, -0.485295669
4238, 12.2489923, -20.5063867, 2.30117591
4239, 10.4343743, -20.4744775, 2.17274984
4240, 9.58228724, -20.4802696, 1.47606835
4241, 13.1664389, -20.4703881, 1.75481665
4242, 13.3078049, -23.3622296, 1.60880127
4243, 13.3226481, -22.0967307, 1.59196538
4244, 13.7597685, -20.5738769, 0.865936665
4245, 13.6304264, -21.527843, 1.14790391
4246, 13.8426421, -22.1228899, 0.606982716
4247, 13.1575765, -24.1967391, 1.7631903
4248, 13.1906293, -24.37648, 1.73152315
4249, 13.630057, -23.9102192, 1.14858919
4250, 13.8514181, -23.2319846, 0.572042941
4251, 13.2487526, -24.53129, 1.67280135
4252, 13.2778198, -24.5358238, -1.64187594
4253, 10.6103812, -20.4988141, -2.2505507
4254, 9.1639994, -20.5010743, -0.632061075
4255, 9.68205422, -20.4714945, -1.59733313
4256, 9.12866774, -20.4824256, 0.482890561
4257, 13.9169174, -22.7042103, 0.122108439
4258, 13.128028, -22.7510008, 2.37631795
4259, 13.6546041, -22.748419, 3.15796601
4260, 14.3390455, -22.7454865, 3.84294328
4261, 15.1247715, -22.7460321, 4.37255436
4262, 18.3236946, -23.7980838, 3.72449409
4263, 16.2112377, -24.4913656, 3.95171004
4264, 17.4368085, -21.6094109, 3.58082517
4265, 17.3633206, -24.4694786, 3.58386285
4266, 18.5978486, -24.4182488, 3.84335252
4267, 16.3430811, -24.7415527, 3.87445567
4268, 16.1039821, -24.6826245, 4.02325168
4269, 17.2700248, -24.2271813, 3.59095218
4270, 18.9580562, -24.2730294, 4.06855695
4271, 16.372873, -21.5716625, 3.85850879
4272, 16.3220918, -22.725301, 3.88601505
4273, 15.8591233, -24.4195707, 4.22125787
4274, 15.8936083, -24.25976, 4.19005368
4275, 16.7813089, -23.6660122, 3.68918129
4276, 17.7079498, -22.6190118, 3.58895108
4277, 15.2985256, -20.478477, 4.99505687
4278, 15.9389359, -20.5009486, 4.15081673
4279, 16.9173143, -20.6057305, 3.65119661
4280, 15.0835479, -20.5007516, 5.86900737
4281, 18.5457516, -20.526468, 8.18238483
4282, 16.6419541, -20.4979994, 8.26277646
4283, 19.4578822, -20.5141781, 7.42235619
4284, 15.7338661, -20.5059852, 7.65443983
4285, 19.1482066, -23.8743228, 4.22804773
4286, 19.0935598, -22.6663453, 4.17874571
4287, 19.2246864, -20.4700257, 4.30239674
4288, 19.7948692, -20.5051835, 5.23190161
4289, 19.8848125, -20.5059751, 6.41118048
4290, 17.9711803, -20.5793549, 3.62631318
4291, 18.7102771, -21.568233, 3.90437851
4292, 15.8936703, -24.5714664, 4.18999861
4293, 15.2506139, -20.478069, 6.89255933
4294, 34.6908584, -22.7890639, 5
4295, 33.6565996, -23.3319404, 5
4296, 21.7438618, -22.7579979, 5
4297, 23.9500233, -22.7532248, 5
4298, 36.5919526, -19.2721968, 5
4299, 36.4939624, -19.3631621, 5
4300, 36.8276345, -18.9607668, 5
4301, 36.4863109, -19.5647524, 5
4302, 36.4777803, -20.8825581, 5
4303, 35.9050339, -22.1690344, 5
4304, 36.0399015, -21.9988536, 5
4305, 35.3485913, -22.1403282, 5
4306, 35.2631798, -22.7833073, 5
4307, 36.1673381, -21.8446906, 5
4308, 36.273227, -21.6675732, 5
4309, 36.3629595, -21.4759161, 5
4310, 36.4065947, -21.2793914, 5
4311, 36.4533175, -21.0795471, 5
4312, 33.3179341, -22.1612283, 5
4313, 33.322153, -23.6530915, 5
4314, 33.5405014, -23.6581683, 5
4315, 32.4607159, -22.7494802, 5
4316, 30.248857, -22.745328, 5
4317, 32.7918315, -22.4292797, 5
4318, 33.7383942, -23.6297749, 5
4319, 33.929078, -23.5705769, 5
4320, 34.1142644, -23.4956728, 5
4321, 34.6328064, -23.235369, 5
4322, 34.8101578, -23.150638, 5
4323, 34.191864, -23.0767279, 5
4324, 34.9836206, -23.0496632, 5
4325, 35.1321342, -22.9238231, 5
4326, 25.9987401, -22.7420856, 5
4327, 28.2095071, -22.7398751, 5
4328, 34, -20.959744, -8.25164605
4329, 34.7756123, -19.9062332, -7.64690049
4330, 34.2329992, -20.2785627, -8.26428819
4331, 37.6976588, -18.5395909, 4.71643021
4332, 37.6431566, -19.3167605, 4.76573467
4333, 37.9066888, -19.3044868, 4.42180028
4334, 37.8517436, -17.7966197, 4.52395878
4335, 37.272778, -17.7982389, 4.962077
4336, 37.2102367, -19.3069597, 4.97765052
4337, 37.3301897, -17.8229956, 4.94391459
4338, 37.9907692, -15.5207997, 4.13555926
4339, 37.9563019, -15.8854838, 4.29238103
4340, 37.9061911, -16.3154252, 4.42286848
4341, 37.8932948, -16.7074993, 4.44947118
4342, 37.6956921, -17.0378678, 4.71834012
4343, 37.9369976, -20.2318747, 4.31692354
4344, 37.694251, -20.2021896, 4.70966406
4345, 37.2475569, -20.1515216, 4.96670378
4346, 37.8895817, -20.7096194, 4.32180809
4347, 37.651994, -20.6660807, 4.70880923
4348, 37.2263661, -20.5690072, 4.96282233
4349, 37.7925672, -21.1931385, 4.32744084
4350, 37.561993, -21.1223695, 4.71018802
4351, 37.1720633, -20.9923523, 4.95575112
4352, 37.6555844, -21.6646194, 4.31147604
4353, 37.4272453, -21.569168, 4.71108507
4354, 37.045267, -21.4016123, 4.95792793
4355, 37.4705903, -22.1124303, 4.31051399
4356, 37.2532109, -21.9956643, 4.71006483
4357, 36.8880435, -21.7775356, 4.95977602
4358, 37.2418701, -22.5408001, 4.3103316
4359, 37.0388585, -22.4006929, 4.70973374
4360, 36.6922737, -22.1499874, 4.96049248
4361, 36.9743494, -22.9463633, 4.30171966
4362, 36.7864107, -22.7840888, 4.70843498
4363, 36.4679225, -22.5010308, 4.95960624
4364, 36.6679997, -23.3232817, 4.2946319
4365, 36.4933695, -23.1451094, 4.70764801
4366, 36.2206898, -22.8396505, 4.9541311
4367, 36.3270737, -23.6494698, 4.3287194
4368, 36.1775014, -23.4639196, 4.70771568
4369, 35.9157125, -23.1272547, 4.95963792
4370, 35.9455938, -23.9722037, 4.30852924
4371, 35.8072563, -23.7661586, 4.71088303
4372, 35.5886022, -23.4199729, 4.95549747
4373, 35.5411008, -24.2418473, 4.30991758
4374, 35.4282816, -24.0218486, 4.71013692
4375, 35.2466669, -23.6396916, 4.95914708
4376, 35.1145141, -24.4723217, 4.30289194
4377, 35.026601, -24.2399498, 4.70883378
4378, 34.8824487, -23.8418313, 4.95886938
4379, 34.6782337, -24.6456859, 4.32556226
4380, 34.6091453, -24.4168644, 4.70741348
4381, 34.4993988, -24.0061749, 4.95907707
4382, 34.2019651, -24.797812, 4.30577425
4383, 34.1515134, -24.5543917, 4.71047744
4384, 34.0839481, -24.1549322, 4.95399746
4385, 33.7243752, -24.8918647, 4.30848766
4386, 33.7039754, -24.6452298, 4.7099327
4387, 33.6814397, -24.223825, 4.95878897
4388, 33.2249706, -24.9374508, 4.31658256
4389, 33.2320847, -24.6931384, 4.70931081
4390, 33.2528922, -24.2842303, 4.95472143
4391, 21.530642, -24.9374123, 4.34822138
4392, 30.7603983, -24.3996877, 4.91665138
4393, 29.5516448, -24.7854189, 4.61896452
4394, 31.8788562, -24.869117, 4.49460661
4395, 31.9657522, -24.5612176, 4.82766832
4396, 22.5974275, -24.982249, 4.18758184
4397, 20.2166162, -24.9836381, 4.1801555
4398, 20.5266795, -24.8611716, 4.50831432
4399, 20.622808, -24.5952593, 4.80353367
4400, 22.7935077, -24.5777734, 4.81619719
4401, 29.6611277, -24.2127376, 4.97710938
4402, 31.8951349, -24.1869674, 4.98236612
4403, 23.8046341, -24.5976124, 4.80178516
4404, 26.1766525, -24.5754389, 4.81784479
4405, 28.4340221, -24.6654983, 4.74639935
4406, 15.9974517, -24.9830885, 3.89040776
4407, 15.4442858, -24.9301838, 3.8256938
4408, 15.1228022, -24.4129818, 4.27029007
4409, 15.7199049, -24.9828654, 3.76577511
4410, 15.3392907, -24.9785678, 3.58682482
4411, 15.1418567, -24.8335069, 3.87428185
4412, 15.5949571, -24.8298303, 4.12271313
4413, 14.9046153, -24.2212649, 4.22677358
4414, 15.3421687, -24.2064063, 4.46433883
4415, 14.994478, -24.5711381, 4.09977953
4416, 15.3522308, -24.3717097, 4.41288968
4417, 15.3755218, -24.5196101, 4.34149303
4418, 15.3115325, -24.6905042, 4.15866552
4419, 14.3821631, -24.3784441, 3.78211315
4420, 14.7697429, -24.9262551, 3.39033454
4421, 14.7163575, -24.9814523, 3.10695187
4422, 15.0233384, -24.9812496, 3.36022294
4423, 14.4616236, -24.8342737, 3.36314803
4424, 14.8257323, -24.8360612, 3.65845289
4425, 14.1583058, -24.1925909, 3.6703959
4426, 14.5447675, -24.1932058, 3.98740049
4427, 14.2618109, -24.5546397, 3.56234361
4428, 14.6228627, -24.5466223, 3.86549281
4429, 14.5271862, -24.7080664, 3.61720381
4430, 13.7037484, -24.3791809, 3.10013372
4431, 14.1137252, -24.9254262, 2.73840473
4432, 14.38982, -24.9804854, 2.78740979
4433, 14.1416617, -24.9806058, 2.4840797
4434, 13.8415735, -24.8332755, 2.68095464
4435, 14.1423656, -24.8357112, 3.04165634
4436, 13.5078434, -24.1956567, 2.94867136
4437, 13.8205032, -24.1966511, 3.32933484
4438, 13.6300993, -24.5502071, 2.86806025
4439, 13.9296332, -24.5507696, 3.23245868
4440, 13.8841493, -24.7074365, 2.97545746
4441, 13.6687347, -24.925398, 2.0705405
4442, 13.238097, -24.4254061, 2.38071934
4443, 13.7123027, -24.9791523, 1.77896916
4444, 13.9256523, -24.9817517, 2.15062569
4445, 13.3791637, -24.8239296, 1.92695991
4446, 13.6261055, -24.8326461, 2.36161828
4447, 13.2737593, -24.2187357, 2.59759169
4448, 13.0526376, -24.2061086, 2.18972521
4449, 13.0979504, -24.3774802, 2.16310388
4450, 13.1570723, -24.5253434, 2.11434141
4451, 13.337623, -24.6820329, 2.19848003
4452, 13.4028443, -24.5744946, 2.50545489
4453, 13.6078327, -24.9819394, 1.51763835
4454, 13.5949982, -24.9792367, -1.52192031
4455, 13.6729385, -24.9241102, -2.08504351
4456, 13.2299822, -24.4270202, -2.36392436
4457, 13.7376545, -24.9808441, -1.8087218
4458, 13.9222507, -24.9808441, -2.15407714
4459, 13.6211339, -24.8319721, -2.354464
4460, 13.3623125, -24.8001046, -1.96579551
4461, 13.2741117, -24.229074, -2.59321247
4462, 13.0450115, -24.2113903, -2.17306606
4463, 13.3983045, -24.5760596, -2.49462665
4464, 13.0917565, -24.3801988, -2.14915522
4465, 13.1522839, -24.5300985, -2.09911603
4466, 13.3354896, -24.6679284, -2.22186298
4467, 13.7220349, -24.3783086, -3.12297862
4468, 14.1581303, -24.9259419, -2.79052356
4469, 14.160969, -24.9805456, -2.50808
4470, 14.4104369, -24.9803407, -2.81366685
4471, 14.1626839, -24.8348647, -3.06844134
4472, 13.8680232, -24.83466, -2.70988552
4473, 13.8298443, -24.1966167, -3.34072789
4474, 13.515115, -24.1970707, -2.95708549
4475, 13.9392242, -24.5502507, -3.24468473
4476, 13.6427418, -24.5519161, -2.88168611
4477, 13.8841331, -24.7072532, -2.97572676
4478, 14.4036006, -24.3782485, -3.7998099
4479, 14.7704147, -24.9262515, -3.39089732
4480, 14.7164834, -24.9814507, -3.10706564
4481, 15.0231672, -24.9810815, -3.36118723
4482, 14.826346, -24.835762, -3.65954605
4483, 14.4620958, -24.8344718, -3.36314766
4484, 14.5559457, -24.1941483, -3.99633348
4485, 14.1682701, -24.1926583, -3.67855626
4486, 14.6320472, -24.5466305, -3.87302333
4487, 14.2732223, -24.5549255, -3.57146217
4488, 14.5281612, -24.7091882, -3.61654646
4489, 21.761339, -22.3075961, 1.68328787
4490, 25.3260289, -22.323115, 1.58808641
4491, 25.8691563, -22.2433732, -0.493455527
4492, 25.8945779, -20.7600029, 0.349852102
4493, 25.8190095, -23.5749877, 0.691805448
4494, 21.1411616, -22.2982891, -0.540630667
4495, 21.1083542, -23.74644, 0.369364925
4496, 22.4596432, -22.2526458, -2.18496174
4497, 21.7614369, -23.7655825, -1.68338897
4498, 21.1788681, -21.0061127, 0.684650921
4499, 24.5695449, -22.2433875, -2.17082329
4500, 25.2467419, -20.7376511, -1.67490079
4501, 25.5236451, -23.7641271, -1.32712494
4502, 21.4654451, -20.7381087, -1.31033823
4503, 23.2828293, -20.7196099, -2.41023585
4504, 23.7231989, -23.7875616, -2.40968509
4505, 24.5475183, -20.8734142, 2.1815374
4506, 24.4411837, -23.6736164, 2.22947824
4507, 25.3630539, -23.6675368, 1.54448373
4508, 22.472523, -23.6405377, 2.19104792
4509, 21.6881163, -23.6786244, 1.60420623
4510, 22.5375974, -22.3638396, 2.22040112
4511, 24.4121661, -22.3043088, 2.24150688
4512, 22.5814341, -20.907393, 2.23889186
4513, 24.0312098, -20.2603826, 2.3609778
4514, 24.0354162, -21.5752759, 2.36002744
4515, 25.0495992, -20.1858941, 1.8588013
4516, 21.6835847, -20.9248475, 1.59907328
4517, 25.9190857, -24.2626927, 0.0665174452
4518, 25.6454488, -24.2707249, 1.11957566
4519, 25.6293996, -22.9818159, 1.14980759
4520, 25.0283253, -24.3766725, -1.87633201
4521, 25.735084, -24.369601, -0.927792923
4522, 25.9184876, -22.9145766, 0.0855433192
4523, 25.856789, -23.6201981, -0.5494958
4524, 25.7372086, -23.0181884, -0.922658052
4525, 23.0544365, -24.3542361, -2.37862842
4526, 24.1769678, -24.3534762, -2.32338429
4527, 25.0773921, -23.0268676, -1.83527493
4528, 24.5986608, -23.6408616, -2.15623386
4529, 24.161772, -23.034584, -2.32775812
4530, 21.3655774, -24.3872866, -1.14045621
4531, 22.1015453, -24.3706039, -1.97502515
4532, 22.4633241, -23.6174615, -2.18671058
4533, 22.0974244, -23.0360714, -1.97210081
4534, 23.0865496, -23.0372082, -2.38442001
4535, 21.281471, -24.3603929, 0.966710455
4536, 21.0827671, -24.3774422, -0.115694747
4537, 21.13556, -23.6547638, -0.515580516
4538, 21.08271, -23.0423181, -0.114495206
4539, 21.3581483, -23.0434448, -1.12644183
4540, 21.3201965, -23.0726895, 1.05112159
4541, 24.9821251, -21.5870103, 1.91303556
4542, 25.7219558, -20.1631818, 0.958807785
4543, 25.9171426, -20.1211253, -0.117565694
4544, 25.6988222, -21.5137396, 1.0107329
4545, 25.3327989, -20.9235224, 1.58026843
4546, 25.641152, -20.1290908, -1.12777136
4547, 24.8807219, -20.1250347, -1.98746247
4548, 25.8691793, -20.8882474, -0.493344981
4549, 25.9182169, -21.475695, -0.0928814051
4550, 25.6267796, -21.4686273, -1.15464642
4551, 23.9090726, -20.1277735, -2.38517497
4552, 22.8441539, -20.117428, -2.32943467
4553, 24.5847771, -20.8747698, -2.16325188
4554, 24.9025173, -21.4923042, -1.97214228
4555, 23.9310306, -21.4808655, -2.38130481
4556, 21.9245022, -20.1492308, -1.83690138
4557, 21.2579663, -20.1373047, -0.910870514
4558, 21.8987973, -21.4784353, -1.81453847
4559, 22.4623926, -20.8799843, -2.18626871
4560, 22.8401105, -21.4784768, -2.32829248
4561, 21.0805365, -20.2700825, 0.0509522965
4562, 21.3591057, -20.2993764, 1.12826047
4563, 21.0804154, -21.6476022, 0.0448384935
4564, 21.1392395, -20.9129346, -0.53217448
4565, 21.2732142, -21.535951, -0.947536245
4566, 21.4287956, -21.658077, 1.25160389
4567, 21.1619039, -22.3297217, 0.624264931
4568, 25.85228, -22.2880308, 0.568488308
4569, 25.3805904, -22.2438317, -1.52308233
4570, 21.5470412, -22.2556727, -1.42910872
4571, 23.5222171, -22.2425164, -2.41989801
4572, 17.5222859, -17.2359458, -7.19979304
4573, 18.3087887, -17.6109384, -6.88648788
4574, 16.3427727, -17.9780159, -5.68247036
4575, 16.6818612, -17.4261232, -6.87786613
4576, 16.6096568, -18.3806625, -6.8045427
4577, 17.4282353, -18.0397554, -7.19785218
4578, 18.2370309, -18.6127555, -6.94698756
4579, 17.1402659, -18.8716128, -7.14481062
4580, 18.4894251, -17.8171521, -5.3210023
4581, 18.6989034, -18.5053338, -6.05129069
4582, 16.8367869, -17.3133136, -4.99992579
4583, 16.8690827, -18.7946578, -4.97924375
4584, 18.0694961, -17.1877204, -4.94374521
4585, 18.0239598, -18.6874454, -4.92043245
4586, 18.4978615, -18.6582625, -5.33346237
4587, 16.4424041, -18.7069165, -5.43299836
4588, 18.4859874, -17.1875807, -5.31601986
4589, 16.417146, -17.2718111, -5.48286635
4590, 18.6895533, -19.00445, -6.1579965
4591, 18.6329252, -19.0167357, -5.60442395
4592, 18.6553652, -18.2079767, -5.67576055
4593, 18.142012, -19.0717497, -7.01381487
4594, 18.5087446, -19.0714916, -6.64994948
4595, 18.5788116, -18.596947, -6.5255146
4596, 17.0560688, -19.1545821, -7.11486548
4597, 17.6092651, -19.1923228, -7.19501512
4598, 17.7091283, -18.7476597, -7.18163673
4599, 16.5799672, -19.2221652, -6.77041526
4600, 16.300354, -18.7667106, -5.97085541
4601, 16.442022, -18.9609032, -6.56628842
4602, 16.323645, -18.2028486, -6.23704224
4603, 16.8544062, -18.6161157, -7.01153778
4604, 18.6876144, -17.1377426, -5.82803478
4605, 18.5516601, -17.0643338, -6.57793695
4606, 18.2468997, -17.0891195, -6.93922356
4607, 18.6956159, -17.703939, -6.10248178
4608, 17.8053671, -16.9285948, -7.160496
4609, 17.233597, -16.9331006, -7.17005532
4610, 17.9029416, -17.3869509, -7.13032655
4611, 16.8041729, -16.9875423, -6.97766283
4612, 16.4613764, -16.9628299, -6.60104997
4613, 17.1452575, -17.3462735, -7.1463672
4614, 16.3006886, -17.2920092, -6.04064591
4615, 16.3150801, -17.7027128, -6.18964378
4616, 17.4577881, -17.6496529, -7.19925734
4617, 17.8818683, -17.8455322, -7.13761882
4618, 17.0749712, -17.7322635, -7.12220789
4619, 17.8266649, -18.3208424, -7.1546818
4620, 18.2938933, -18.1246008, -6.89985189
4621, 18.6007945, -18.084682, -6.47775667
4622, 16.6832915, -17.9248346, -6.87919696
4623, 17.0483168, -18.2011293, -7.11174741
4624, 17.2661096, -18.4472625, -7.17698568
4625, 10.5042203, -19.5, 1.4519694
4626, 11.467419, -19.5, 1.81871478
4627, 12.0328258, -19.5, 1.65353937
4628, 12.9609778, -19.5, 1.16256084
4629, 10.0466088, -19.5, 1.14108308
4630, 13.1127446, -19.5, 0.591756304
4631, 13.2725653, -19.5, -0.372784719
4632, 12.2939265, -19.5, -1.62333364
4633, 12.9917258, -19.5, -0.886771209
4634, 11.7250166, -19.5, -1.71155512
4635, 10.699866, -19.5, -1.61505859
4636, 10.2639834, -19.5, -1.26917028
4637, 9.71295034, -19.5, -0.384406198
4638, 9.78346633, -19.5, 0.0833799403
4639, 16.5315674, -19.5, 7.449734
4640, 17.4969626, -19.5, 7.81124805
4641, 18.0136796, -19.5, 7.65760781
4642, 18.94266, -19.5, 7.14095953
4643, 16.0436017, -19.5, 7.12969933
4644, 19.2701295, -19.5, 5.61748022
4645, 19.1463114, -19.5, 6.63144418
4646, 18.280224, -19.5, 4.39150186
4647, 18.9985031, -19.5, 5.11986434
4648, 16.7135637, -19.5, 4.37741716
4649, 17.728875, -19.5, 4.28830986
4650, 15.7295257, -19.5, 5.59693389
4651, 16.2861718, -19.5, 4.72366158
4652, 15.7646512, -19.5, 6.17082921
4653, 36.075251, -18.6952246, 7.19016842
4654, 36.1296596, -18.635194, 6.09535164
4655, 36.037405, -18.7369812, 6.10202614
4656, 36.1296729, -18.6351793, 8.34533538
4657, 35.8642071, -18.9280757, 6.10276125
4658, 35.8658277, -18.9262875, 8.34313921
4659, 36.4178162, -18.2599943, 7.250024
4660, 36.8829634, -17.5588171, 6.80161977
4661, 36.9415102, -17.4611377, 5.90138781
4662, 36.7673601, -17.7516895, 5.90080988
4663, 36.96919, -17.4149567, 5.90100359
4664, 36.7673601, -17.7516895, 8.15080988
4665, 36.9691668, -17.4149955, 8.15080988
4666, 35.84724, -20.3520117, 5.00584244
4667, 35.5225207, -20.6073388, 5.05783277
4668, 35.1111939, -20.7943858, 5.20834609
4669, 34.5826318, -20.8011994, 5.58894815
4670, 34.1654517, -20.9746971, 6.20348717
4671, 34, -20.9584256, 8.25080081
4672, 37.9807389, -13.8920686, 5.51244127
4673, 37.9807389, -13.8920686, 6.81872064
4674, 37.9807389, -13.8920686, 8.19372064
4675, 37.9038373, -14.672718, 5.70657673
4676, 37.90388, -14.6724298, 8.19372064
4677, 37.7509025, -15.4415, 7.12758774
4678, 37.5232795, -16.1918724, 7.21018764
4679, 37.2227729, -16.9172304, 7.24027647
4680, 22.5010983, -19.5, 1.45097747
4681, 23.5195699, -19.5, 1.81472826
4682, 24.061078, -19.5, 1.67668414
4683, 24.9452733, -19.5, 1.13446743
4684, 22.1035122, -19.5, 1.11594994
4685, 25.1138843, -19.5, 0.588719837
4686, 25.3034821, -19.5, -0.369161804
4687, 24.2892796, -19.5, -1.62990227
4688, 25.0154108, -19.5, -0.88357744
4689, 22.7323996, -19.5, -1.61761669
4690, 23.732123, -19.5, -1.69649286
4691, 21.7419365, -19.5, -0.409541627
4692, 22.2842038, -19.5, -1.30106681
4693, 21.7641455, -19.5, 0.151891742
4694, 15.1473594, -16.55, 4.40705654
4695, 18.1059226, -16.55, -3.9097505
4696, 19.860277, -16.55, 4.45465355
4697, 21.7990593, -16.55, -2.79083911
4698, 13.2280177, -16.55, -3.86434842
4699, 14.9632618, -16.55, -5.01434654
4700, 21.5520525, -16.55, 1.19432455
4701, 12.7686481, -16.55, 3.79908114
4702, 13.0201183, -16.55, -1.94360178
4703, 13.44497, -16.55, 1.1929352
4704, 22.2356035, -16.55, 3.8023598
4705, 19.7505745, -16.55, -4.6261494
4706, 17.4952976, -16.55, 7.63433761
4707, 18.0460598, -16.55, 7.4345416
4708, 16.9257807, -16.55, 7.39640676
4709, 20.3241199, -16.55, 6.87543637
4710, 14.6502914, -16.55, 6.90693241
4711, 18.3355438, -16.55, -4.54063783
4712, 17.7890051, -16.55, -4.35582864
4713, 16.2675766, -16.55, -4.01728448
4714, 16.7436713, -16.55, -3.84420826
4715, 17.0774209, -16.55, -3.46765517
4716, 10.6003556, -16.55, 1.84891623
4717, 10.1105385, -16.55, 1.52873296
4718, 11.2165951, -16.55, 3.27395929
4719, 12.0776853, -16.55, 2.55662703
4720, 12.5904067, -16.55, 2.33455612
4721, 19.9412955, -16.55, 3.20435044
4722, 18.6814155, -16.55, 3.7524168
4723, 15.0593435, -16.55, 3.19307674
4724, 16.3089968, -16.55, 3.77834001
4725, 17.7586159, -16.55, 3.93708363
4726, 17.2404601, -16.55, 3.95197117
4727, 18.9692124, -16.55, 4.6543166
4728, 16.0195929, -16.55, 4.69286798
4729, 24.3695547, -16.55, 1.816758
4730, 24.8742751, -16.55, 1.52920769
4731, 22.9231467, -16.55, 2.54029006
4732, 23.7641477, -16.55, 3.25771139
4733, 22.4071928, -16.55, 2.33318551
4734, 22.3243594, -16.55, 5.18281982
4735, 20.4848039, -16.55, 6.33298853
4736, 21.0310068, -16.55, 5.54780712
4737, 19.3079219, -16.55, 5.11540781
4738, 21.0510431, -16.55, 4.14927868
4739, 25.0227895, -16.55, -1.29294613
4740, 25.0250801, -16.55, 0.995911945
4741, 22.1097036, -16.55, -4.70645931
4742, 23.5007183, -16.55, -2.71859288
4743, 24.6513395, -16.55, -1.76464373
4744, 24.1103289, -16.55, -1.8300135
4745, 22.4018553, -16.55, -1.95178498
4746, 20.1663818, -16.55, -7.10241836
4747, 17.772338, -16.55, -7.53991945
4748, 20.4530859, -16.55, -6.66847558
4749, 19.2329139, -16.55, -5.50811121
4750, 20.9726877, -16.55, -5.6888175
4751, 20.8137249, -16.55, -3.78970775
4752, 14.8356932, -16.55, -7.10198021
4753, 17.222606, -16.55, -7.54593028
4754, 12.9564014, -16.55, -5.198096
4755, 11.4526721, -16.55, -3.27674042
4756, 14.5432289, -16.55, -6.63762833
4757, 15.6076866, -16.55, -5.70977105
4758, 13.8867313, -16.55, -5.87031169
4759, 14.0788252, -16.55, -4.46596266
4760, 9.9538181, -16.55, -1.25908897
4761, 9.96437196, -16.55, 0.999225911
4762, 10.8707581, -16.55, -1.83207533
4763, 10.3425318, -16.55, -1.77227193
4764, 12.5148553, -16.55, -1.52385821
4765, 11.4374382, -16.55, -2.28287496
4766, 13.102833, -16.55, -2.92914308
4767, 12.6771081, -16.55, 5.17625384
4768, 14.5218815, -16.55, 6.34454705
4769, 13.968074, -16.55, 5.55606048
4770, 15.6967739, -16.55, 5.11705578
4771, 13.9525347, -16.55, 4.15579582
4772, 19.1128821, -16.55, -4.94429359
4773, 18.9914194, -16.55, -4.237881
4774, 15.7302521, -16.55, -5.1655931
4775, 15.5153828, -16.55, -3.85879809
4776, 12.9605874, -16.55, 0.983373584
4777, 13.1086211, -16.55, 0.455485299
4778, 13.1158883, -16.55, 2.51028272
4779, 12.8940893, -16.55, -1.15541153
4780, 13.8181643, -16.55, -1.33634665
4781, 13.602012, -16.55, -0.516740522
4782, 13.92621, -16.55, 0.236894883
4783, 20.7716635, -16.55, 1.62090859
4784, 21.0808402, -16.55, 0.198593963
4785, 21.044184, -16.55, 2.87641714
4786, 21.8875164, -16.55, 2.52170917
4787, 20.368877, -16.55, -2.85848077
4788, 21.1178641, -16.55, -1.74924527
4789, 22.0505514, -16.55, -1.58152522
4790, 21.4016261, -16.55, -0.524568816
4791, 21.8863558, -16.55, 0.441528748
4792, 18.5143608, -16.55, -3.34740149
4793, 19.3310285, -16.55, -3.64217362
4794, 14.4847715, -16.55, -2.48247745
4795, 14.685529, -16.55, -3.33511347
4796, 14.2394463, -16.55, 1.62745402
4797, 13.9593138, -16.55, 2.87551393
4798, 22.0242029, -16.55, 0.979868274
4799, 11.5326463, -17.2293351, -1.19955584
4800, 12.4033576, -17.6091189, -0.78990188
4801, 10.3179234, -17.9007418, 0.206627723
4802, 10.6663371, -17.4823125, -0.863137436
4803, 10.5631101, -18.3638511, -0.749824918
4804, 11.4207074, -18.0516953, -1.19737742
4805, 12.2311882, -18.6594491, -0.951506081
4806, 11.1707635, -18.9154119, -1.15395119
4807, 12.5389725, -17.8155426, 0.600446543
4808, 12.6996551, -18.5311333, -0.02876994
4809, 10.7475993, -17.2674338, 0.934822567
4810, 10.7678395, -18.7534609, 0.950758118
4811, 12.0453516, -17.1821004, 1.06892079
4812, 12.012979, -18.6691022, 1.08482834
4813, 12.4841645, -18.6610355, 0.686600487
4814, 10.383385, -18.6743457, 0.439512259
4815, 12.4985978, -17.1858622, 0.665433989
4816, 10.3962532, -17.2307207, 0.470895841
4817, 12.6872153, -19.0008359, -0.174699162
4818, 12.6085364, -19.036061, 0.459507365
4819, 12.6695856, -18.1755801, 0.268457633
4820, 12.1407618, -19.0745139, -1.01460549
4821, 12.5075723, -19.0698219, -0.651765341
4822, 12.5828174, -18.6085929, -0.517210198
4823, 11.0546521, -19.1935431, -1.11430034
4824, 11.6273918, -19.1990728, -1.19321889
4825, 11.7569835, -18.7900823, -1.17216018
4826, 10.6445003, -19.2062267, -0.84149882
4827, 10.3004736, -18.6737289, 0.033709957
4828, 10.4005747, -18.896643, -0.480899107
4829, 10.3301831, -18.2203945, -0.267448084
4830, 10.8285267, -18.6463622, -0.99454696
4831, 12.6894289, -17.169304, 0.158930302
4832, 12.5717312, -17.0852266, -0.539807536
4833, 12.2210882, -17.0915876, -0.959182873
4834, 12.6885566, -17.6759955, -0.165327343
4835, 11.7909514, -16.8904613, -1.16419383
4836, 11.2119641, -16.8796707, -1.1649186
4837, 12.0293686, -17.4290484, -1.07692565
4838, 10.7582377, -16.9871726, -0.943286123
4839, 10.4584164, -16.9717928, -0.595905727
4840, 11.0180203, -17.3372913, -1.09895204
4841, 10.3005537, -17.2380075, 0.0364498472
4842, 10.402183, -17.7296659, -0.484559371
4843, 11.4616067, -17.6418022, -1.19938566
4844, 11.9677831, -17.832078, -1.10506966
4845, 10.9737061, -17.7497757, -1.07843159
4846, 11.8620614, -18.3272021, -1.14407673
4847, 12.3149201, -18.1432931, -0.880854785
4848, 12.6169057, -18.0812203, -0.438772793
4849, 10.5698566, -17.9469737, -0.758177558
4850, 10.9378267, -18.2074057, -1.06017036
4851, 11.2901879, -18.486384, -1.18151551
4852, 17.4998827, -17.2363137, 4.80000001
4853, 18.4027264, -17.6107488, 5.20937677
4854, 16.3647961, -17.9808075, 6.38898866
4855, 16.6597853, -17.4370321, 5.14323904
4856, 16.5908713, -18.3676578, 5.21674713
4857, 17.4188666, -18.0223097, 4.8027459
4858, 18.2323074, -18.665638, 5.04935506
4859, 17.1790096, -18.8968805, 4.84372792
4860, 18.5425562, -17.8173071, 6.59420247
4861, 18.699997, -18.5017067, 6.00267879
4862, 16.9340581, -17.2650778, 7.05816339
4863, 16.9342708, -18.7366313, 7.05827715
4864, 17.9854746, -17.2153414, 7.09741258
4865, 18.0047022, -18.6565286, 7.08870365
4866, 18.5072453, -18.6366457, 6.65227058
4867, 16.4354355, -18.7271333, 6.55380726
4868, 18.4780445, -17.2073643, 6.69529056
4869, 16.4505606, -17.2844839, 6.58195955
4870, 18.6927345, -18.9977762, 5.86815006
4871, 18.6222765, -19.0094341, 6.42484758
4872, 18.6497219, -18.1828715, 6.34371434
4873, 18.1356955, -19.0659167, 4.98221258
4874, 18.5212621, -19.0802757, 5.36990179
4875, 18.5817017, -18.6093531, 5.48046029
4876, 17.0817348, -19.1833725, 4.87525371
4877, 17.6251034, -19.1961579, 4.80653901
4878, 17.7095562, -18.7789264, 4.81843908
4879, 16.6579213, -19.21455, 5.14507103
4880, 16.3011727, -18.7470489, 6.05303837
4881, 16.4164121, -18.9304969, 5.48440585
4882, 16.3257055, -18.2138795, 5.75295268
4883, 16.8889877, -18.6289869, 4.96720576
4884, 18.6851007, -17.1865125, 6.18851082
4885, 18.580323, -17.0643864, 5.47759953
4886, 18.2153305, -17.1067558, 5.03651559
4887, 18.6990565, -17.7316008, 5.95242312
4888, 17.8066726, -16.8715168, 4.83984832
4889, 17.2490662, -16.9169934, 4.82652983
4890, 18.0347503, -17.4105132, 4.9257365
4891, 16.8243303, -16.9874903, 5.00829923
4892, 16.446169, -17.0112572, 5.42603123
4893, 17.0914943, -17.3446128, 4.87167245
4894, 16.3018489, -17.2525317, 6.06658712
4895, 16.345499, -17.6980418, 5.67269672
4896, 17.4904199, -17.6147812, 4.80003824
4897, 17.8904193, -17.8501859, 4.86528736
4898, 17.0751991, -17.7418957, 4.87770584
4899, 17.824249, -18.3408695, 4.84463748
4900, 18.3308167, -18.1335522, 5.13412267
4901, 18.6414797, -18.0710848, 5.62983242
4902, 16.6312286, -17.9086296, 5.17220997
4903, 17.0322475, -18.2076699, 4.89491739
4904, 17.2976368, -18.464004, 4.81718593
4905, 35.3669321, -19.4196243, 7.36315271
4906, 34.7127351, -19.9528661, 7.59517265
4907, 34.2337558, -20.2781092, 8.25891428
4908, 22.4495197, -18.1883484, 0.580078642
4909, 24.5563041, -17.8599562, 0.569404713
4910, 23.1631937, -18.9079361, -1.15176452
4911, 23.8379564, -17.1154904, -1.15142758
4912, 23.5169515, -18.0328436, -1.19988026
4913, 24.5498914, -17.8304258, -0.581143689
4914, 24.2435518, -18.6923018, -0.941876138
4915, 22.4684194, -18.2215859, -0.613059049
4916, 22.7557565, -17.3169678, -0.9413297
4917, 24.6992949, -18.5212028, -0.0411299112
4918, 22.3000263, -17.4187272, -0.00794348292
4919, 22.949381, -17.3645022, 1.06621701
4920, 22.9733272, -18.8749968, 1.0782466
4921, 24.0776242, -18.7129186, 1.05183188
4922, 24.1000327, -17.2180363, 1.03921159
4923, 24.5415189, -18.6956973, 0.596018798
4924, 22.5151123, -18.8277745, 0.685562635
4925, 24.5586617, -17.1868286, 0.56500912
4926, 22.5117038, -17.3576636, 0.680639815
4927, 24.6964483, -19.0086078, -0.0922575993
4928, 24.6299486, -19.0338291, 0.404000184
4929, 24.6574101, -18.2530171, 0.316862625
4930, 24.1412282, -19.0932281, -1.01431082
4931, 24.5414975, -19.1396506, -0.596056191
4932, 24.5694311, -18.6678118, -0.544350229
4933, 23.0805278, -19.1865779, -1.12429669
4934, 23.6227264, -19.2036726, -1.19370776
4935, 23.7561144, -18.8426207, -1.17235038
4936, 22.6589459, -19.2166827, -0.855936923
4937, 22.3107676, -18.841291, 0.160393976
4938, 22.3840652, -18.8546404, -0.441236413
4939, 22.3009826, -18.2382397, -0.0485514893
4940, 22.78841, -18.5613573, -0.966250326
4941, 24.6813943, -17.1570547, 0.210493702
4942, 24.3302566, -16.8769344, -0.866414446
4943, 23.9153321, -16.838509, -1.12583268
4944, 24.654596, -17.2039181, -0.326968055
4945, 24.6979075, -17.8173964, 0.0708354478
4946, 24.2709895, -17.4550597, -0.91955165
4947, 23.3793046, -16.8285666, -1.19391483
4948, 22.8704298, -16.9397068, -1.02158767
4949, 22.4891061, -16.9353049, -0.646601446
4950, 23.2213712, -17.2177462, -1.16720435
4951, 22.3108572, -16.9896501, -0.161057268
4952, 22.3770906, -16.9784179, 0.423172014
4953, 22.4108725, -17.3672121, -0.503787043
4954, 22.3447233, -17.773191, 0.324554797
4955, 22.3467514, -17.8298145, -0.331689156
4956, 24.6679935, -18.175834, -0.275301816
4957, 23.9108708, -18.3717055, -1.12746848
4958, 23.3380036, -18.4853642, -1.1890152
4959, 22.9218083, -18.1677304, -1.05152001
4960, 23.6881331, -17.5744247, -1.18516072
4961, 24.1258343, -17.953584, -1.02388059
4962, 23.1056173, -17.6705394, -1.13334119
4963, 24.4442391, -18.3015965, -0.740548743
4964, 22.6103458, -17.7640276, -0.805304569
4965, 18.8145725, -17.5210573, 2.69664593
4966, 16.1866485, -17.5217992, 2.69724079
4967, 19.8453303, -17.527415, 1.87067528
4968, 15.1533445, -17.5392439, 1.86901259
4969, 20.4196993, -17.538281, -0.689460595
4970, 20.4215773, -17.5294746, 0.681458575
4971, 19.8474667, -17.5284245, -1.86799356
4972, 16.1927316, -17.5327891, -2.70019431
4973, 17.4960202, -17.5362929, -2.99999736
4974, 18.7968842, -17.538786, -2.70519709
4975, 15.1385185, -17.5237156, -1.85024459
4976, 14.580537, -17.5369691, 0.69046054
4977, 14.5792666, -17.5522783, -0.685066695
4978, 16.8261786, -18.5, -0.151996768
4979, 18.6608891, -18.5, 0.260934714
4980, 18.1155186, -18.5, 1.67938173
4981, 19.251356, -18.5, 1.05162174
4982, 17.1451489, -18.5, 1.45190219
4983, 15.9518832, -18.5, 0.865153373
4984, 17.7499964, -18.5, 0.0495497225
4985, 19.5969899, -18.5, -0.191632154
4986, 18.7964781, -18.5, -1.24364683
4987, 16.4799928, -18.5, -1.45032529
4988, 17.7946372, -18.5, -1.45806362
4989, 15.6872698, -18.5, -0.412923338
4990, 14.282258, -21.5, -8.04996153
4991, 15.6445817, -21.5, -8.33715429
4992, 9.92415082, -21.5, 3.37148737
4993, 13.1818801, -21.5, 4.46958845
4994, 14.3109897, -21.5, 5.07129868
4995, 12.7808595, -21.5, 7.04018847
4996, 13.7340892, -21.5, 7.36563321
4997, 13.3714164, -21.5, 5.97635393
4998, 11.8759283, -21.5, -3.65441425
4999, 13.0506708, -21.5, -4.20823699
5000, 14.0384257, -21.5, -4.62717514
5001, 12.0759858, -21.5, 6.33974285
5002, 12.3034215, -21.5, 5.29418315
5003, 12.9851047, -21.5, -5.50817884
5004, 12.1374467, -21.5, -4.91676469
5005, 13.2593595, -21.5, -6.90106535
5006, 14.6898799, -21.5, 7.89219395
5007, 10.4647976, -21.5, 4.74613948
5008, 11.9415916, -21.5, -6.14954871
5009, 10.8678202, -21.5, -5.08010281
5010, 14.0885179, -21.5, -5.72873212
5011, 9.14719942, -21.5, -2.41647739
5012, 12.7133552, -21.5, 3.21169528
5013, 10.1186883, -21.5, -3.59154693
5014, 11.633648, -21.5, 4.14372383
5015, 11.2381923, -21.5, 5.53070786
5016, 31.9368346, -21.5, -8.25500295
5017, 17.4128025, -21.5, -8.9690572
5018, 16.7931921, -21.5, -8.95933211
5019, 20.5775728, -21.5, -8.41520373
5020, 18.6553059, -21.5, -8.64668148
5021, 16.8913909, -21.5, 8.95506467
5022, 17.5185929, -21.5, 8.95258723
5023, 16.0233475, -21.5, 8.63666035
5024, 15.4435606, -21.5, 8.49553708
5025, 19.645633, -21.5, 8.99775211
5026, 14.2701927, -21.5, 8.33588513
5027, 14.8511125, -21.5, 8.54320598
5028, 15.2727962, -21.5, 7.87584363
5029, 13.2424696, -21.5, 7.79397834
5030, 13.7888705, -21.5, 8.07633884
5031, 14.1953202, -21.5, 7.64150744
5032, 12.7658363, -21.5, 7.63481343
5033, 12.2493444, -21.5, 7.28734633
5034, 13.2598434, -21.5, 7.20099136
5035, 11.4304321, -21.5, 6.52950533
5036, 11.893993, -21.5, 6.93839551
5037, 12.4291404, -21.5, 6.68556281
5038, 11.0103389, -21.5, 6.12411114
5039, 10.6006678, -21.5, 5.65697072
5040, 11.6583318, -21.5, 5.93796342
5041, 9.86455637, -21.5, 4.74553114
5042, 10.2139704, -21.5, 5.26468653
5043, 10.8552303, -21.5, 5.13938427
5044, 9.59470177, -21.5, 4.05928656
5045, 9.32834448, -21.5, 3.49320953
5046, 10.1956726, -21.5, 4.05081669
5047, 9.11156642, -21.5, 2.90485044
5048, 8.82035496, -21.5, 1.36714081
5049, 8.94321945, -21.5, 1.95376734
5050, 9.68333575, -21.5, 2.43306967
5051, 8.69239004, -21.5, 0.733511992
5052, 8.64640675, -21.5, -0.984587301
5053, 8.56479351, -21.5, -0.382977511
5054, 8.58418892, -21.5, -1.81569517
5055, 8.73546996, -21.5, -2.42838639
5056, 9.09417192, -21.5, -1.6006472
5057, 8.9387475, -21.5, -3.02136155
5058, 9.69920941, -21.5, -4.17922633
5059, 9.41781782, -21.5, -3.63326109
5060, 9.64067605, -21.5, -3.03190584
5061, 10.0674833, -21.5, -4.92039276
5062, 10.4110924, -21.5, -5.43268834
5063, 10.4858037, -21.5, -4.3492698
5064, 10.8206111, -21.5, -5.89800063
5065, 11.3568221, -21.5, -6.4333173
5066, 11.8312276, -21.5, -6.84257406
5067, 11.4013176, -21.5, -5.61872869
5068, 13.0069836, -21.5, -7.56418658
5069, 12.4915333, -21.5, -7.22023171
5070, 12.5978232, -21.5, -6.52189534
5071, 13.5195927, -21.5, -8.13934132
5072, 14.069796, -21.5, -8.41376056
5073, 13.7643855, -21.5, -7.47778808
5074, 14.644609, -21.5, -8.62066751
5075, 15.945002, -21.5, -8.89994291
5076, 15.3394394, -21.5, -8.73771028
5077, 14.9568452, -21.5, -8.16007715
5078, 16.4522873, -21.5, -8.51163947
5079, 33.2144425, -21.5, -5.38970903
5080, 22.8074218, -21.5, -7.24608519
5081, 20.8944707, -21.5, -7.26208791
5082, 14.3720093, -21.5, -4.38653983
5083, 14.7720756, -21.5, -4.58970003
5084, 14.7186115, -21.5, -5.11194679
5085, 14.5877816, -21.5, -6.41037544
5086, 14.0402148, -21.5, -5.16850263
5087, 32.9187852, -21.5, -6.02787624
5088, 30.89784, -21.5, -7.25382751
5089, 14.002988, -21.5, -4.07968465
5090, 13.2133869, -21.5, -3.51223889
5091, 13.5119018, -21.5, -3.88079876
5092, 13.5484048, -21.5, -4.41535419
5093, 12.4461267, -21.5, -2.89025012
5094, 12.6482992, -21.5, -3.27334397
5095, 12.4677623, -21.5, -3.93939016
5096, 11.2771738, -21.5, -3.0405989
5097, 12.8244669, -21.5, 2.6162211
5098, 12.0990888, -21.5, 2.85957413
5099, 10.7125721, -21.5, 2.95521364
5100, 11.5593846, -21.5, 3.27627233
5101, 10.7905932, -21.5, 3.76948929
5102, 12.16338, -21.5, 3.68233942
5103, 13.0357376, -21.5, 3.00068293
5104, 13.3445015, -21.5, 3.37391527
5105, 13.9347573, -21.5, 4.31051426
5106, 13.560895, -21.5, 3.99920678
5107, 12.9455064, -21.5, 3.83478281
5108, 14.4963387, -21.5, 4.6015779
5109, 14.8892884, -21.5, 4.80563322
5110, 13.7527936, -21.5, 4.77466027
5111, 14.6304209, -21.5, 5.68875637
5112, 20.6052625, -21.5, 8.35476721
5113, 20.8831774, -21.5, 7.25328018
5114, 22.8020054, -21.5, 7.24500755
5115, 33.2621412, -21.5, 5.30164641
5116, 31.9367457, -21.5, 8.25476745
5117, 32.9134645, -21.5, 6.02484407
5118, 30.8942211, -21.5, 7.25363651
5119, 28.8706323, -21.5, -7.25033204
5120, 26.8285083, -21.5, -7.24872017
5121, 24.8118631, -21.5, -7.25369533
5122, 15.3902422, -21.5, -7.70842641
5123, 14.7496282, -21.5, -7.51517685
5124, 14.2426099, -21.5, -6.96999578
5125, 13.669917, -21.5, -6.32028722
5126, 9.93248102, -21.5, -2.45190053
5127, 10.4460058, -21.5, -2.96085881
5128, 10.9790626, -21.5, -3.64771418
5129, 14.7984193, -21.5, 7.09387863
5130, 13.8330188, -21.5, 5.53002861
5131, 14.2093142, -21.5, 6.13132703
5132, 14.3835155, -21.5, 6.79838528
5133, 13.5420836, -21.5, 6.66733722
5134, 26.8261049, -21.5, 7.24975471
5135, 24.8091871, -21.5, 7.25388913
5136, 28.8690562, -21.5, 7.25036457
5137, 11.0494162, -21.5, 4.44528707
5138, 13.2770671, -21.5, 5.22359541
5139, 12.7424207, -21.5, 4.88257523
5140, 12.8444057, -21.5, 5.63838351
5141, 12.4079244, -21.5, 4.30904456
5142, 11.9644238, -21.5, 4.72068228
5143, 13.0714771, -21.5, 6.51008085
5144, 12.7259662, -21.5, 6.15993885
5145, 12.1927361, -21.5, 5.81464311
5146, 12.0031177, -21.5, -4.27968565
5147, 12.5888102, -21.5, -4.56552283
5148, 11.5017806, -21.5, -4.99627157
5149, 11.3676151, -21.5, -4.35660797
5150, 13.0110813, -21.5, -4.85233965
5151, 13.5001203, -21.5, -5.06788741
5152, 12.5601724, -21.5, -5.21521953
5153, 13.5466658, -21.5, -5.61616533
5154, 11.7707231, -21.5, 5.41180261
5155, 11.4352197, -21.5, 4.83603244
5156, 12.0402952, -21.5, -5.52992296
5157, 12.4569582, -21.5, -5.8251282
5158, 13.1183516, -21.5, -6.19942991
5159, 38, -17.9853939, -1.62905877
5160, 38, -17.9807171, 1.62535534
5161, 38, -15.6969407, 0.000346231371
5162, 38, -11.5899166, -6.91631363
5163, 38, -11.5899166, 6.91631363
5164, 38, -13.11894, 0.000923452954
5165, 38, -4.69521277, 8.88568404
5166, 38, -4.71279998, -8.8974124
5167, 38, -10.3332605, -8.21587623
5168, 38, -12.5441641, -8.21084008
5169, 38, -12.5451366, -6.84353182
5170, 38, -17.3677208, -2.73884896
5171, 38, -18.9924446, -2.74226875
5172, 38, -18.992837, -0.796199822
5173, 38, -10.94204, -4.41816968
5174, 38, -11.6261081, -1.98204927
5175, 38, -13.3604263, -1.97807009
5176, 38, -11.3211493, -0.00167899393
5177, 38, -9.93232364, -5.82635812
5178, 38, -12.5543629, -5.47683182
5179, 38, -16.2353611, -2.00979979
5180, 38, -14.6306887, -1.99888652
5181, 38, -14.4144801, -0.000120547587
5182, 38, -18.9922026, 0.800543568
5183, 38, -19.0063954, 2.74064486
5184, 38, -17.3648403, 2.73756164
5185, 38, -10.9377886, 4.41825306
5186, 38, -11.6298853, 1.98339847
5187, 38, -9.93716665, 5.82567296
5188, 38, -12.5473289, 5.47415667
5189, 38, -13.3594947, 1.97693334
5190, 38, -14.6310974, 1.99883283
5191, 38, -16.2354782, 2.00843692
5192, 38, -12.54641, 6.84117147
5193, 38, -12.5446833, 8.21110492
5194, 38, -10.3332605, 8.21587623
5195, 38, -8.75198133, 7.15811195
5196, 38, -6.91342016, 8.88696252
5197, 38, -8.75124887, -7.15693102
5198, 38, -6.91187304, -8.88774283
5199, 38, -16.8385536, -0.80023258
5200, 38, -17.9853683, -0.000913989699
5201, 38, -16.8381841, 0.800047553
5202, 36.3071013, -13.2887229, 9.5
5203, 36.7748709, -15.5283072, 9.5
5204, 34.6055758, -14.5057677, 9.5
5205, 34.0042874, -15.2511979, 9.5
5206, 30.7223651, -19.2582791, 9.5
5207, 36.2720738, -17.1206608, 9.5
5208, 35.5095338, -16.9369174, 9.5
5209, 35.958149, -16.2075561, 9.5
5210, 31.488597, -18.575368, 9.5
5211, 35.1705535, -16.1945408, 9.5
5212, 34.7668576, -19.0860644, 9.5
5213, 34.0211568, -19.4614383, 9.5
5214, 34.1690881, -18.5913973, 9.5
5215, 35.575705, -15.219571, 9.5
5216, 34.9120616, -18.5365243, 9.5
5217, 34.3687511, -18.0354619, 9.5
5218, 35.7402389, -17.7952991, 9.5
5219, 34.542659, -16.3191341, 9.5
5220, 34.7992951, -16.8915355, 9.5
5221, 34.1528896, -16.773496, 9.5
5222, 34.390876, -17.4616481, 9.5
5223, 32.2829047, -18.2978248, 9.5
5224, 32.8197991, -17.723274, 9.5
5225, 33.7043837, -17.8286321, 9.5
5226, 33.767082, -17.2110807, 9.5
5227, 35.0056615, -17.9414606, 9.5
5228, 34.6379791, -15.5925306, 9.5
5229, 33.1737103, -17.1773808, 9.5
5230, 33.4883318, -16.6926053, 9.5
5231, 35.5051571, -18.4079072, 9.5
5232, 32.4510528, -19.698382, 9.5
5233, 35.1168927, -17.4119119, 9.5
5234, 36.6903, -16.5378331, 9.5
5235, 33.2413907, -18.6001672, 9.5
5236, 33.9290939, -16.0649721, 9.5
5237, 35.9969165, -2.2609366, 9.5
5238, 28.9376955, -20.2507796, 9.5
5239, 29.2160072, -20.2375482, 9.5
5240, 29.4920546, -20.1982994, 9.5
5241, 26.875, -20.25, 9.5
5242, 25.125, -20.25, 9.5
5243, 29.7633407, -20.1340921, 9.5
5244, 30.1870763, -19.013238, 9.5
5245, 30.4511483, -18.9240573, 9.5
5246, 30.2989062, -20.3788336, 9.5
5247, 30.7057594, -18.810628, 9.5
5248, 31.0891137, -18.4694102, 9.5
5249, 31.3321655, -18.3330088, 9.5
5250, 31.1048112, -18.9166263, 9.5
5251, 31.5615833, -18.1746226, 9.5
5252, 31.9587372, -18.035851, 9.5
5253, 32.172462, -17.8568526, 9.5
5254, 31.8857508, -18.4365964, 9.5
5255, 32.6370953, -17.3715123, 9.5
5256, 32.4409091, -17.5695772, 9.5
5257, 32.5513519, -18.0105494, 9.5
5258, 32.9910044, -16.8831448, 9.5
5259, 32.8140509, -17.0985658, 9.5
5260, 32.9967547, -17.4503274, 9.5
5261, 33.1483151, -16.640757, 9.5
5262, 33.3045077, -16.4098402, 9.5
5263, 33.331021, -16.9349931, 9.5
5264, 33.5248888, -16.0960236, 9.5
5265, 33.6589812, -15.8515989, 9.5
5266, 33.7087128, -16.3787887, 9.5
5267, 33.8073841, -15.1889081, 9.5
5268, 33.6965686, -15.4447179, 9.5
5269, 33.9666907, -15.658085, 9.5
5270, 33.8939752, -14.9239162, 9.5
5271, 34.1945792, -14.5512875, 9.5
5272, 34.2562384, -14.2793155, 9.5
5273, 34.3049316, -14.8784828, 9.5
5274, 33.9534505, -13.7764316, 9.5
5275, 34.3027879, -14.0028838, 9.5
5276, 35.1535507, -11.1443614, 9.5
5277, 35.1535507, -13.3943614, 9.5
5278, 35.4563386, -13.8972453, 9.5
5279, 37.0188051, -1.14529654, 9.5
5280, 34.9857822, -1.13282057, 9.5
5281, 34.9919419, -3.38527528, 9.5
5282, 37.9938604, -2.26288651, 9.5
5283, 36.9744596, -3.37545821, 9.5
5284, 19.2763678, -19.0059865, 9.5
5285, 19.2720122, -20.251112, 9.5
5286, 21.3187721, -20.2775968, 9.5
5287, 35.8446204, -18.4915267, 9.5
5288, 35.5810057, -18.7823807, 9.5
5289, 35.2118559, -19.1214593, 9.5
5290, 34.921002, -19.385074, 9.5
5291, 35.2844579, -18.8466893, 9.5
5292, 34.8394596, -18.8112944, 9.5
5293, 35.2086094, -18.4722157, 9.5
5294, 35.9621613, -18.1852227, 9.5
5295, 36.1959979, -17.8699305, 9.5
5296, 35.622698, -18.1016031, 9.5
5297, 36.4619153, -17.5326113, 9.5
5298, 36.6637219, -17.1959173, 9.5
5299, 36.0061563, -17.4579799, 9.5
5300, 37.0405934, -16.5497107, 9.5
5301, 36.8728351, -16.9045035, 9.5
5302, 36.4811869, -16.8292469, 9.5
5303, 33.2255193, -20.5981542, 9.5
5304, 33.2253573, -20.0576471, 9.5
5305, 31.1634104, -20.6002254, 9.5
5306, 34.2328593, -19.8065976, 9.5
5307, 34.0119231, -19.940148, 9.5
5308, 33.2374849, -19.5795278, 9.5
5309, 37.1535507, -13.3943614, 9.5
5310, 37.1342896, -13.78643, 9.5
5311, 37.0766918, -14.1747227, 9.5
5312, 37.1535507, -11.1443614, 9.5
5313, 37.310334, -15.2942175, 9.5
5314, 37.2151968, -15.6752923, 9.5
5315, 36.541049, -14.4089151, 9.5
5316, 37.0829536, -16.0448873, 9.5
5317, 36.7325855, -16.0330702, 9.5
5318, 34.5481515, -19.572761, 9.5
5319, 34.3940072, -19.2737514, 9.5
5320, 35.9958271, -6.75195025, 9.5
5321, 35.9957354, -4.50430063, 9.5
5322, 36, -9, 9.5
5323, 23.0651037, -20.259163, 9.5
5324, 31.5848634, -19.4793214, 9.5
5325, 36.175288, -15.3739391, 9.5
5326, 35.9414032, -14.2541469, 9.5
5327, 35.0906404, -14.8626694, 9.5
5328, 36.36651, -15.8679317, 9.5
5329, 35.766927, -15.7135636, 9.5
5330, 36.3242245, -16.3726946, 9.5
5331, 34.3211333, -15.4218642, 9.5
5332, 34.6217775, -15.0491492, 9.5
5333, 35.1068421, -15.4060508, 9.5
5334, 34.2835365, -15.8287514, 9.5
5335, 31.9698249, -19.136875, 9.5
5336, 36.1151114, -16.6641084, 9.5
5337, 35.7338414, -16.5722367, 9.5
5338, 35.8908038, -17.0287891, 9.5
5339, 35.6248864, -17.3661082, 9.5
5340, 35.5643512, -16.2010485, 9.5
5341, 35.3400437, -16.5657291, 9.5
5342, 34.9849243, -16.5430382, 9.5
5343, 35.1544144, -16.9142264, 9.5
5344, 35.4285658, -17.6036055, 9.5
5345, 35.3132133, -17.1744146, 9.5
5346, 34.9580939, -17.1517237, 9.5
5347, 35.3731293, -15.7070559, 9.5
5348, 32.3669787, -18.9981034, 9.5
5349, 34.9042663, -15.8935357, 9.5
5350, 34.8566063, -16.2568374, 9.5
5351, 34.670977, -16.6053348, 9.5
5352, 34.5903191, -15.9558323, 9.5
5353, 34.4679729, -18.8387309, 9.5
5354, 34.0951224, -19.0264178, 9.5
5355, 34.5405749, -18.5639608, 9.5
5356, 33.7052394, -18.5957822, 9.5
5357, 33.6312737, -19.0308028, 9.5
5358, 32.8462217, -19.1492746, 9.5
5359, 34.2689196, -18.3134296, 9.5
5360, 34.6404063, -18.2859931, 9.5
5361, 34.0365674, -17.932047, 9.5
5362, 33.9367359, -18.2100147, 9.5
5363, 33.4728872, -18.2143996, 9.5
5364, 34.9588615, -18.2389924, 9.5
5365, 34.6872063, -17.9884612, 9.5
5366, 35.2554093, -18.1746839, 9.5
5367, 34.0476299, -17.6451401, 9.5
5368, 34.3798135, -17.748555, 9.5
5369, 34.6982687, -17.7015543, 9.5
5370, 35.3729502, -17.8683798, 9.5
5371, 35.0612771, -17.6766862, 9.5
5372, 34.3477743, -16.546315, 9.5
5373, 34.4760923, -16.8325157, 9.5
5374, 34.2358765, -16.1920531, 9.5
5375, 34.0409918, -16.419234, 9.5
5376, 34.2718828, -17.117572, 9.5
5377, 34.5950855, -17.1765918, 9.5
5378, 34.7538844, -17.43678, 9.5
5379, 33.9599858, -16.9922883, 9.5
5380, 34.078979, -17.3363644, 9.5
5381, 33.8206107, -16.7330506, 9.5
5382, 33.6277069, -16.951843, 9.5
5383, 33.7357329, -17.5198564, 9.5
5384, 33.0305949, -18.1617206, 9.5
5385, 32.7621477, -18.448996, 9.5
5386, 33.439047, -17.5030065, 9.5
5387, 33.2620914, -17.775953, 9.5
5388, 33.4703961, -17.1942308, 9.5
5389, 26.807807, -19, 4.92149358
5390, 26.8356588, -19, 7.26652551
5391, 25.1839323, -19, 7.35416704
5392, 26.8308462, -19, -7.26351453
5393, 26.8080559, -19, -4.92127442
5394, 25.1901672, -19, -7.35766203
5395, 21.6672497, -19, -8.96821593
5396, 21.6567382, -19, 8.96198871
5397, 27.434187, -19, 3.24876658
5398, 23.3122988, -19, 8.90904096
5399, 27.4375217, -19, -3.25029397
5400, 23.312553, -19, -8.90784406
5401, 27.4612429, -19, -0.922623863
5402, 27.4456807, -19, 0.896009113
5403, 34.1062539, -17.6256523, 6.63332648
5404, 34.1748805, -16.9960789, -6.98522614
5405, 14.6051797, -23.7600884, -2.38176402
5406, 14.6068894, -23.7672216, 2.37516528
5407, 11.3782162, -19.2346867, -4.30922316
5408, 12.0993089, -19.4055229, 4.38469526
5409, 34.4655287, -18.8255129, -7.81714439
5410, 16.3146741, -22.3591627, -0.751822449
5411, 35.6121626, -17.4239256, 8.24774118
5412, 34.793349, -16.2695651, 7.25838195
5413, 35.6193391, -17.346341, -7.95228422
5414, 34.5084052, -18.8197893, 7.72568582
5415, 29.8068206, -22.2435127, 0.283196923
5416, 32.6513912, -18.8755894, 7.27526729
5417, 32.6988356, -18.8400323, -7.17362451
5418, 39.068258, -1.08918573, 3.97210359
5419, 15.1241104, -24.0579091, -3.26314434
5420, 37.2066614, 5.64075029, -4.57700252
5421, 36.3125183, -4.54044067, 4.66804616
5422, 13.3098473, -19.651191, -4.88417929
5423, 34.7194508, -16.1936402, -8.13265985
5424, 18.8840276, -22.3356556, 0.896805051
5425, 34.3019042, -17.601872, 8.48838583
5426, 15.916567, -21.7949715, 1.51372356
5427, 35.94985, -15.3729542, -7.30404787
5428, 36.5359756, 4.55776191, 4.5698472
5429, 15.1156237, -24.028839, 3.25115524
5430, 34.5927925, -17.705447, -8.39863474
5431, 33.5203777, -17.0604667, -8.31475187
5432, 36.1789282, 1.71844266, -1.05452677
5433, 36.2021742, -1.52242032, -0.762733603
5434, 35.9083444, -15.2899105, 7.15231639
5435, 36.1630716, -1.44144232, 2.08132008
5436, 36.2460201, 0.884700954, 1.24622762
5437, 18.7172018, -20.9392459, -1.3972198
5438, 36.1355798, -7.45765204, -3.81415801
5439, 38.8704893, -2.92739285, -5.48284763
5440, 34.0553684, -20.8626744, 0.781830799
5441, 33.895181, -17.1469731, 8.99449709
5442, 34.0345568, -17.4063048, 8.99441425
5443, 34.2272896, -17.1877009, 8.99449808
5444, 16.5884531, -18.7758228, -9.44662377
5445, 16.5945761, -18.7747281, 9.44719953
5446, 13.5819198, -18.7553002, 8.64719567
5447, 13.5815648, -18.7555231, -8.64712224
5448, 9.78023114, -18.7703268, 5.52150542
5449, 9.77912966, -18.771034, -5.52038471
5450, 8.05441439, -18.7701181, 0.934958403
5451, 8.05308551, -18.7745701, -0.915403232
5452, 38.5315001, 0.958215321, 4.43639533
5453, 38.1043159, 1.11060092, 4.5840325
5454, 38.1898396, 0.577074524, 4.26823251
5455, 12.4466809, -18.5974347, -1.51056486
5456, 11.9629031, -18.7895123, -1.74324994
5457, 12.3563462, -19.1081123, -1.57998414
5458, 38.567295, 2.80680792, -6.8694875
5459, 39.033568, 2.72112632, -7.01868985
5460, 38.9869312, 2.98560247, -6.47905008
5461, 37.5563899, -20.2021378, -4.52080982
5462, 37.0410979, -19.3663684, -4.5174801
5463, 37.5750665, -19.998486, -4.49489555
5464, 37.5582452, -20.1953065, 4.5214312
5465, 37.5760375, -19.989818, 4.4954098
5466, 37.0649329, -19.3824274, 4.5002713
5467, 14.6972682, -20.4837046, 5.27127449
5468, 14.228653, -20.4714713, 5.72781855
5469, 14.1345906, -20.4900227, 4.97758966
5470, 33.7380185, -17.3891625, 8.99447154
5471, 9.96118364, -18.1843985, -1.06984396
5472, 10.1527816, -18.4122452, -1.53904251
5473, 10.1801818, -17.9749763, -1.61370623
5474, 38.2093417, -6.59217944, -1.73146852
5475, 37.8211117, -6.42969273, -1.76664801
5476, 38.1597932, -5.51457227, -1.72766191
5477, 37.8025279, -5.40556376, -1.72998488
5478, 38.0329073, 3.47417384, -6.58683866
5479, 38.4955727, 1.8494888, -6.41273417
5480, 38.0016026, 1.68738252, -6.7616369
5481, 33.8727749, -22.1274432, -2.11636978
5482, 32.9956859, -21.184335, -2.09578239
5483, 34.4004555, -21.8505064, -2.11435627
5484, 34.0581392, -24.0877115, -2.53099908
5485, 33.8279994, -24.1425626, -2.52516573
5486, 34.2578741, -22.8246081, 0.388595456
5487, 34.0203355, -22.8841712, 0.388546635
5488, 34.1409867, -16.4803384, 8.37916901
5489, 34.4730229, -16.5214085, 8.37925906
5490, 34.3611125, -16.1670311, 8.37955262
5491, 37.9848204, -4.99206175, -1.48117597
5492, 38.5133458, -5.1308403, -1.61712349
5493, 39.8326118, -0.817106138, -6.9751837
5494, 39.7936543, -0.568819355, -7.37657018
5495, 40.1200949, -0.264444128, -7.5561536
5496, 40.0501952, 0.402144897, -7.4853258
5497, 39.0413774, 0.408289669, -7.5130997
5498, 19.9123544, -20.2241146, 2.26910759
5499, 19.2657488, -18.9753435, 2.91924357
5500, 20.4772476, -19.7626863, 1.30202379
5501, 20.0372887, -21.6366051, 0.793371506
5502, 19.3806304, -20.3811324, 1.38992235
5503, 18.7456605, -20.9008887, 2.32187643
5504, 36.920123, -2.88857871, 4.21945903
5505, 36.1712777, -3.15880243, 4.46830968
5506, 36.9116045, -3.47927902, 5.08827739
5507, 14.7467964, -16.9910508, -7.00585125
5508, 17.0560286, -16.9680253, -7.44772893
5509, 14.7547647, -18.0220779, -6.9828046
5510, 34.2828171, 3.450378, -6.70738891
5511, 35.0463298, 3.35037373, -5.84902269
5512, 35.2141608, 2.50998352, -5.7468076
5513, 35.4723161, 3.95212573, -7.22374476
5514, 36.2382281, 3.81290635, -6.38670943
5515, 35.1903978, 4.79567486, -7.36405085
5516, 36.0511144, -3.169266, -3.22677401
5517, 36.0569673, -4.0236024, -3.78600138
5518, 36.7944404, -3.64869545, -3.67250123
5519, 40.0471132, 2.7249516, -7.03445101
5520, 34.7558227, -18.3798894, 8.61439048
5521, 34.7098219, -18.6773408, 8.61400499
5522, 35.0060525, -18.6117997, 8.61452977
5523, 20.5402449, -21.5901184, -1.86519784
5524, 19.9244488, -21.5873012, -0.982074431
5525, 20.1833861, -22.3603443, -1.5574417
5526, 34.2767031, -5.8790984, 3.6386317
5527, 34.2790007, -6.96279408, 3.37951441
5528, 35.4446387, -5.28389388, 3.64730999
5529, 35.1508236, -6.21435846, 4.32075123
5530, 35.1569053, -5.12820565, 4.65977303
5531, 20.5528136, -24.3770001, -1.70907995
5532, 19.6917779, -23.0235769, -2.5434847
5533, 18.4682567, -23.6266704, -2.58566418
5534, 19.0619819, -22.95764, -1.52318251
5535, 18.1059286, -21.5849954, -2.50151775
5536, 20.7209272, -19.0102453, 1.61863819
5537, 20.1393588, -19.4747787, 2.69546038
5538, 17.0301195, -17.9745144, -7.46404331
5539, 36.04241, 2.67961903, -6.59981298
5540, 36.9699588, 3.84567069, -7.20575092
5541, 34.7334884, -20.6975076, -5.31864753
5542, 33.4592089, -20.6131327, -5.00803765
5543, 19.1177642, -19.0652538, -5.31664424
5544, 19.592351, -18.0287788, -4.63498777
5545, 19.2832089, -17.5252421, -5.37250479
5546, 19.1304479, -17.1903333, -5.11259453
5547, 18.983712, -18.6891646, -5.08339945
5548, 37.7885002, 0.688824081, 4.33330663
5549, 35.0382201, -23.6178459, -2.53229001
5550, 34.8226763, -23.717795, -2.518283
5551, 34.7097579, -22.6359378, 0.390590767
5552, 34.4880926, -22.7397617, 0.3877361
5553, 37.5155061, -3.48036167, -3.42615481
5554, 38.1826948, -2.45806027, -4.95469915
5555, 37.4522961, -2.70761537, -5.1663682
5556, 38.2183226, -4.07901735, -3.88169774
5557, 37.5376894, 3.47289085, -3.41649546
5558, 36.7953493, 3.05338804, -3.06331807
5559, 38.0305183, 1.67422338, -3.58913462
5560, 37.274888, 2.73485871, -2.18392359
5561, 38.0219829, 3.19422579, -2.57269266
5562, 35.2753596, -5.32002494, -2.41100272
5563, 35.2784562, -4.39060347, -1.92104721
5564, 35.3071782, -3.56759956, -3.72352254
5565, 35.2521742, -23.5117524, -2.52648132
5566, 34.9198897, -22.5108978, 0.390176254
5567, 39.9986419, 7.55418521, 1.04883716
5568, 35.4366714, -23.3591228, -2.53757208
5569, 35.117145, -22.3668768, 0.387729236
5570, 18.0122291, -17.0336344, -7.43288198
5571, 20.27214, -17.0846895, -6.92847295
5572, 18.0069201, -18.0867906, -7.45157832
5573, 20.3329814, -18.0571917, -6.92084555
5574, 36.7962114, -3.01395567, -2.99844665
5575, 35.0282709, -21.1878655, -2.12589067
5576, 36.8471824, -18.5615238, -3.33375262
5577, 36.8453646, -19.5827424, -2.53700552
5578, 36.0241018, -20.4396378, 0.388780658
5579, 34.8682499, -20.0179877, -2.12343607
5580, 36.0290501, -19.4296748, -0.413372853
5581, 35.7687916, -6.97922006, 3.28393738
5582, 35.9981798, -6.00264185, 2.50506966
5583, 36.9509611, -5.3154019, 3.62595963
5584, 37.87167, -1.61319579, 5.21844588
5585, 37.9699971, -1.79071834, 5.81671085
5586, 38.4319117, -1.6746902, 5.43347828
5587, 14.3360422, -24.425545, -0.715463897
5588, 14.9165817, -24.4009517, -0.577161188
5589, 15.2499336, -24.3912918, -1.80008258
5590, 14.3933353, -23.8013745, -1.19484292
5591, 14.6031196, -24.3881382, -1.91757119
5592, 34.3016019, -1.99133535, -3.06899907
5593, 35.0442726, -2.87624752, -1.63086337
5594, 35.3278247, -3.05749289, -2.9222863
5595, 35.395003, -1.89198968, -2.44105333
5596, 36.1287178, -2.77486129, -1.07359827
5597, 35.0958153, -1.65794711, -1.29792702
5598, 36.0572468, 3.18288093, -3.23049754
5599, 36.8058642, 3.59238642, -3.60036479
5600, 34.5503472, -17.2468632, 8.99455597
5601, 34.3463105, -17.5317392, 8.99440319
5602, 34.709182, -17.5069587, 8.99446723
5603, 34.290352, -0.899975371, -2.55161159
5604, 35.3944204, -0.764693701, -2.03005159
5605, 39.1343433, -0.26847962, -7.58657609
5606, 38.7800869, -0.562995228, -7.39514155
5607, 34.9210495, -18.6590566, -8.65967426
5608, 34.6634328, -18.9088857, -8.65909049
5609, 34.588786, -18.6439577, -8.6593096
5610, 34.0592325, -17.8155121, -8.9492529
5611, 34.4210259, -17.8205456, -8.94939768
5612, 34.3202495, -18.2050478, -8.9491551
5613, 39.7690696, -7.42270152, 1.43283365
5614, 40.1085907, -5.27695823, -2.02865427
5615, 40.0197998, -4.81009404, -1.88783807
5616, 39.6985204, -5.20740359, -2.0282938
5617, 35.1968096, 5.28457258, -6.98558503
5618, 35.2017788, 5.90685509, -6.51999589
5619, 35.6010508, 5.58910224, -5.23693143
5620, 36.7895238, 5.94291792, -5.87386945
5621, 35.6213525, 4.99417695, -5.70331153
5622, 34.2756908, -2.69709534, -3.66739715
5623, 35.0581563, -3.61930021, -2.22398813
5624, 34.9850689, -18.1000935, -8.94940743
5625, 34.7714798, -17.8116919, -8.9494845
5626, 35.1666945, -17.751294, -8.94957004
5627, 35.256121, 5.06346864, 5.45423224
5628, 35.2593184, 5.35962836, 5.02572313
5629, 35.2590554, 4.77052692, 4.96844691
5630, 23.0097546, -18.8186279, -1.70611081
5631, 22.6049022, -18.4497275, -1.62923862
5632, 22.4268216, -18.8949745, -1.45243962
5633, 36.8893533, -1.83313573, -2.50827359
5634, 36.1224545, -2.03647623, -2.7270157
5635, 38.8247336, -2.85467949, -6.79978684
5636, 37.9892352, 2.61248344, -1.74445322
5637, 35.601043, 4.79035749, -4.68505918
5638, 13.5758797, -18.752643, 7.77673435
5639, 13.3039559, -18.7632012, 7.64308337
5640, 14.1700747, -18.9580429, 7.06157812
5641, 14.714898, -19.2709152, 8.14431931
5642, 15.0075762, -19.2754471, 8.24464619
5643, 35.5587656, -17.9155409, 8.87366345
5644, 35.6762685, -17.6094766, 8.87390732
5645, 35.3089604, -17.6824102, 8.87375699
5646, 20.2587479, -23.639219, -1.11303247
5647, 37.0758736, -20.9933038, -4.50024053
5648, 37.4960415, -20.6368049, -4.53855613
5649, 37.5609874, -20.4378325, -4.50377797
5650, 37.4973612, -20.6268433, 4.54140773
5651, 37.5562305, -20.4295078, 4.5062587
5652, 37.0846284, -21.0113014, 4.50643567
5653, 36.788714, 2.40866188, 2.43079697
5654, 36.0603337, 2.88534973, 2.83654295
5655, 36.1793765, 2.33763762, 1.12269963
5656, 36.1437353, 1.50025793, 2.83027875
5657, 36.8825553, 0.956569115, 2.50625115
5658, 33.8201015, -24.1719391, -4.55945844
5659, 34.061249, -24.126453, -4.53271572
5660, 33.5937608, -24.2218888, -4.52410263
5661, 35.1960108, 7.23594665, -5.32638291
5662, 35.1997673, 6.89288327, -4.76670535
5663, 35.1977591, 7.62561947, -4.82000616
5664, 20.1229698, -20.8322052, -1.39887347
5665, 35.0711003, 3.11509216, -4.79563534
5666, 34.2832793, 3.41962977, -5.67479709
5667, 18.6567532, -18.9743752, 2.11069808
5668, 18.7886488, -20.3845325, 0.581152053
5669, 37.0296869, 3.48911099, 5.02255139
5670, 36.2574467, 3.24161905, 4.62097736
5671, 37.0243838, 2.90378333, 4.18288439
5672, 9.67853082, -18.8799797, -0.617876372
5673, 9.36786008, -18.9340463, -1.49475149
5674, 9.51791428, -18.5476572, -0.154735195
5675, 14.5255106, -20.5149355, 4.49131354
5676, 14.1836365, -19.4689155, 3.53422432
5677, 13.6653627, -20.4721527, 2.52052065
5678, 13.0758842, -20.4434104, 3.98365222
5679, 12.7986417, -19.4119532, 3.03814577
5680, 13.6173193, -19.4314469, 4.97392825
5681, 17.0735755, -18.0096958, 4.0675148
5682, 17.4647872, -18.3014145, 3.86214704
5683, 17.0195597, -18.4902237, 4.07127801
5684, 17.4938612, -17.8844951, 3.89657433
5685, 13.4306671, -18.614407, -0.8736927
5686, 13.4769618, -18.0975879, -0.780822233
5687, 13.5737612, -18.9715907, -1.50394226
5688, 35.2396936, 1.61571672, 4.08293795
5689, 34.2883592, 1.96848152, 3.30170316
5690, 35.0610887, 2.4036102, 3.85574544
5691, 35.1495819, 1.84035652, 2.18124973
5692, 35.4076104, 1.00765776, 2.4313109
5693, 35.5514614, -17.0708646, -0.804100529
5694, 37.014133, -18.3749579, -3.32789512
5695, 34.5609257, -17.4594797, -2.50285796
5696, 34.6543027, -17.3592892, -2.5053808
5697, 37.1124304, -18.2768211, -3.32960175
5698, 12.7028812, -17.0971683, -1.39250573
5699, 12.2744407, -16.8798538, -1.62990777
5700, 12.2135695, -17.2726183, -1.66754667
5701, 14.9052511, -20.5030671, 4.78762246
5702, 36.3897364, 4.73033777, -8.1916372
5703, 35.4925166, 3.40742715, -7.53748227
5704, 36.9406858, 3.29778335, -7.51706807
5705, 36.8098449, -21.7101421, -2.52874365
5706, 36.8850826, -21.481041, -2.52654081
5707, 35.9199959, -21.1616454, 0.389822456
5708, 35.8381856, -21.3915212, 0.390087378
5709, 36.7950686, -2.94096531, 2.94478688
5710, 36.0503237, -2.80623503, 2.74344991
5711, 36.0773564, -1.6234878, 3.16780125
5712, 36.1092644, -2.66177369, 1.61125947
5713, 36.8161561, -2.74039794, 1.83463518
5714, 38.0084874, -3.19541308, -2.57011162
5715, 38.0438171, -1.64314603, -3.62995808
5716, 37.2838343, -2.68400335, -2.09990963
5717, 36.130038, 2.89633133, -1.31631104
5718, 37.3940436, 1.51010866, -1.81047539
5719, 36.871539, 1.91821091, -2.68254394
5720, 39.3653467, -7.61473166, 1.17369229
5721, 38.4967458, -7.56018145, 1.13103785
5722, 38.8468086, -7.39930624, 1.47847712
5723, 35.0781875, 5.94518034, -3.38846167
5724, 35.0423249, 6.68684761, -3.45145191
5725, 36.2028798, 6.93165685, -3.86859193
5726, 34.2947973, 3.9927533, -2.67267214
5727, 35.2626347, 4.44717453, -1.9631578
5728, 35.0753277, 3.61873895, -2.22404777
5729, 35.0155771, 2.67411647, -3.8615466
5730, 35.3158306, 3.53298075, -3.63723455
5731, 39.8089729, -2.88651437, -6.84842021
5732, 39.8181392, -2.84830728, 6.80211431
5733, 39.8327152, -0.614467838, 7.36556171
5734, 35.28764, -2.10518602, -4.64691111
5735, 9.93418949, -17.2624142, 1.24598288
5736, 38.1132562, 1.71072197, 5.44911985
5737, 38.5265535, 1.85535001, 5.83480422
5738, 39.589493, 1.71051372, 4.92282193
5739, 40.0139292, 1.78837723, 5.23991293
5740, 38.9872706, 2.34399241, 5.06937617
5741, 36.1751618, -4.08156064, 3.00968334
5742, 36.9459694, -4.26738124, 3.16066563
5743, 39.5789594, 1.81059271, -5.28448598
5744, 39.9472038, 1.88266041, -5.55329771
5745, 38.9967607, 2.44936129, -5.94497433
5746, 38.0765713, 1.81042427, -6.04692229
5747, 36.6340165, 3.88849912, -4.7663562
5748, 36.81366, 5.46942268, -6.2234622
5749, 13.2678832, -20.5789321, -5.89914672
5750, 13.1548806, -20.5759133, -5.19281541
5751, 12.6343248, -20.5674385, -5.52218693
5752, 36.6988513, -21.9232152, -2.54216559
5753, 35.7341079, -21.6125596, 0.388405975
5754, 14.982243, -18.9489915, 3.67381194
5755, 14.2773063, -19.0266591, 1.64917233
5756, 13.6172302, -18.8990779, 3.20019423
5757, 35.5607867, -17.1806623, 8.87407751
5758, 35.9421669, -17.2722213, 8.87416428
5759, 35.785078, -16.816091, 8.8743407
5760, 13.7152376, -20.5276462, -1.7448363
5761, 14.0005456, -20.4967689, -2.10853632
5762, 15.1034702, -20.8767199, -0.667466697
5763, 15.1437704, -21.9078766, -2.15179483
5764, 14.9012322, -21.9533537, -1.76585258
5765, 22.3005391, -16.9463008, -1.89103019
5766, 22.7051581, -17.3069707, -2.03760507
5767, 22.8261463, -16.8379728, -2.03445778
5768, 35.2419348, 2.31367648, -7.00287472
5769, 36.2110316, 3.09440611, -7.9253432
5770, 37.9698224, -1.79388061, 2.94494956
5771, 38.0603502, -2.48125279, 3.71341289
5772, 37.4776371, -3.4502965, 3.27183726
5773, 27.3636749, -20.2748804, -3.37108599
5774, 27.9514685, -20.2689894, -2.50228715
5775, 26.3676055, -20.6243082, -1.13162121
5776, 26.9648308, -20.6372597, -0.28370044
5777, 26.8859405, -21.9096353, -2.81795893
5778, 38.9432553, -3.86109118, -0.384481178
5779, 38.4955844, -3.98427778, -0.747053444
5780, 39.0183782, -4.09397602, -0.865353817
5781, 34.278516, 4.41501256, -3.56028488
5782, 17.9708061, -18.0966103, 4.07186955
5783, 35.4576171, -23.3741638, -4.53911992
5784, 35.6807509, -23.2426983, -4.54696903
5785, 37.2961943, -2.11157039, 3.09693527
5786, 34.6528744, -18.084535, -8.94932925
5787, 38.007435, -3.25508286, 1.62288022
5788, 12.6782257, -20.4538672, 4.42800237
5789, 39.4727367, -3.56282329, 2.88099275
5790, 39.0124043, -3.58655701, 4.73969534
5791, 38.4395616, -4.75282982, 4.28893518
5792, 35.3644491, -17.4179436, 8.87391464
5793, 35.2055295, -17.1580836, 8.87396779
5794, 14.4158464, -24.3963438, -0.0309059847
5795, 36.3953174, 5.75966315, -7.50511596
5796, 19.9119859, -19.725674, 0.468736339
5797, 12.2957796, -16.8780901, -2.57647411
5798, 12.2313245, -17.2621436, -2.56766635
5799, 14.8721022, -18.9998946, -1.76467123
5800, 15.030488, -19.9673553, -3.1181353
5801, 16.2838736, -20.3540541, -1.65441158
5802, 18.2257586, -20.3999471, 1.92081362
5803, 17.2859799, -20.1215435, 0.90434355
5804, 16.720682, -20.0896178, 2.23303738
5805, 17.4065662, -22.0539511, 1.17961925
5806, 35.1875538, 7.14100879, 4.88152125
5807, 35.4705022, 6.93198593, 4.00149978
5808, 34.2766497, 6.1977802, 3.53196882
5809, 35.1837162, 7.45743433, 4.3651574
5810, 35.4674211, 7.2438259, 3.51417592
5811, 36.3894795, 8.18826049, 4.73637918
5812, 26.0776372, -19.870917, -1.7575674
5813, 26.556208, -21.1460667, -3.36164222
5814, 34.5474394, -16.9356028, 7.8731514
5815, 35.0238855, 3.27418841, 2.0856177
5816, 13.8802211, -21.5634291, -1.39957
5817, 13.5298765, -22.0871008, -1.93909095
5818, 15.0172878, -22.5273696, -0.933011822
5819, 15.1325032, -21.9301526, -0.284977117
5820, 38.053002, -4.97236776, -4.36239095
5821, 37.289399, -3.52968923, -5.76446542
5822, 37.2907975, -5.3458226, -4.49771045
5823, 37.3916432, 4.06877116, -5.5812924
5824, 38.9928248, -4.45619845, 2.67466798
5825, 21.957612, -18.0170567, 2.71638197
5826, 21.0591203, -17.5336635, 2.87342962
5827, 19.9939351, -18.9562368, 3.66336532
5828, 21.0584641, -17.969432, 4.73990202
5829, 20.8454762, -19.4664591, 3.52653269
5830, 34.2974527, 1.92895505, -3.12156088
5831, 34.2939986, 0.818642749, -2.62738599
5832, 35.4000073, 1.96846574, -2.62389118
5833, 35.3879001, 0.845621671, -2.18212671
5834, 35.1001989, 1.67242695, -1.53268931
5835, 18.0682265, -18.9761045, 3.33224219
5836, 34.6536568, -17.7715423, 8.99437749
5837, 34.3354174, -17.8185053, 8.99434464
5838, 34.6069918, -18.068957, 8.99425346
5839, 38.2250843, 0.907317637, 9.44705273
5840, 38.2445956, 3.91818904, 8.64750322
5841, 38.2463474, 3.91642453, -8.64728619
5842, 38.2349136, 7.71909041, 5.52330478
5843, 38.233091, 7.72237099, -5.51866576
5844, 38.2306027, 9.44622782, 0.929423952
5845, 38.2276209, 9.44712896, -0.910811857
5846, 34.29972, 6.91901796, 3.0920312
5847, 35.1797594, 8.14931498, 3.79790208
5848, 36.1121666, 2.0815106, -2.88346607
5849, 22.8447729, -19.2483777, -1.70998633
5850, 39.7360759, 5.24210795, -1.65926238
5851, 40.1058843, 5.12891765, -1.60128956
5852, 40.1165221, 5.09248301, -2.54930164
5853, 39.7434902, 5.22967378, -2.56400301
5854, 38.2249692, 0.912422197, -9.44655441
5855, 12.1399028, -20.4685276, 5.35270529
5856, 12.2477115, -20.4605162, 4.83662462
5857, 12.777955, -20.4350649, 5.17795133
5858, 14.5217999, -19.9391929, 2.68856221
5859, 40.0288385, 1.58065002, 4.75222075
5860, 38.9289732, 1.75609757, 4.18156321
5861, 34.0033601, -17.7150103, 8.99434078
5862, 33.5612988, -17.6619321, 8.99447799
5863, 34.8349513, -23.7605364, -4.52633315
5864, 35.0466442, -23.6525448, -4.54666719
5865, 12.4466277, -20.455325, 3.81551823
5866, 35.2923595, -17.0144604, -8.72620491
5867, 35.6316781, -17.1097883, -8.72629108
5868, 35.3849381, -17.3408937, -8.72610235
5869, 38.8365968, -0.60393744, 7.36927527
5870, 38.8268332, -2.88931116, 6.83568224
5871, 39.4806803, 2.82199058, -3.35112235
5872, 39.0119985, 4.70982982, -3.06439305
5873, 39.0072274, 3.09450461, -4.27105302
5874, 35.2533361, -23.5209527, -4.56893669
5875, 32.577711, -17.9268151, -5.96119088
5876, 32.577528, -17.9299487, -8.33663261
5877, 32.9873548, -17.0403007, -6.53244726
5878, 32.987543, -17.0395646, -8.90750151
5879, 33.1105537, -17.950873, -7.74348432
5880, 19.2798366, -19.0213258, 5.77768242
5881, 19.1860674, -18.5687679, 5.40352166
5882, 19.1635764, -19.1364219, 5.24403803
5883, 36.1572429, 0.572477008, 2.39723796
5884, 20.4987632, -20.0909432, -2.97505376
5885, 19.1867345, -18.9578151, -3.57868494
5886, 20.176426, -19.6134576, -2.0899779
5887, 20.7095894, -18.9797373, -2.56275669
5888, 20.9939424, -19.4852923, -3.42203941
5889, 38.986267, -5.47732053, 3.19266109
5890, 34.5639697, -20.2711988, -2.21457645
5891, 26.7325375, -22.7023701, -3.23285623
5892, 26.2258366, -21.9193664, -3.60691649
5893, 36.9935182, -21.2520497, -4.56201439
5894, 36.9939923, -21.0114462, -2.52412537
5895, 36.9620905, -21.2476725, -2.52409515
5896, 15.3904556, -19.9540749, -3.38297645
5897, 15.5451531, -21.9172851, -2.37717462
5898, 14.8901842, -24.3723858, -2.34226395
5899, 15.4231212, -24.3850794, -2.55806498
5900, 15.6654951, -17.2341442, 5.45100818
5901, 15.878633, -17.0104745, 4.81821505
5902, 15.8490059, -17.4870614, 4.87756582
5903, 34.57319, -17.496729, -8.9494832
5904, 34.7791098, -17.1937233, -8.9496507
5905, 34.8716866, -17.5202787, -8.94955762
5906, 18.1211108, -18.1678329, 7.36950351
5907, 20.3950168, -18.1706404, 6.81994298
5908, 20.3688623, -17.1856841, 6.80705058
5909, 12.780749, -17.9827094, -3.09344465
5910, 11.3368021, -18.6216805, -2.77470788
5911, 11.9725145, -19.355348, -3.27304166
5912, 12.1548195, -17.8731054, -4.19569202
5913, 37.8914117, 5.14895728, -1.57980225
5914, 38.2135385, 5.52307975, -1.71371781
5915, 38.9742266, 4.77745307, -2.12279578
5916, 39.3763123, 4.87741285, -1.50512889
5917, 34.7960421, -16.5808492, 8.37934163
5918, 34.6677257, -16.2946584, 8.37956496
5919, 37.4128055, -1.40929568, -1.64596073
5920, 34.235827, -18.0962877, 8.99425073
5921, 34.2740925, 2.63085365, -3.60391906
5922, 35.116902, 2.49308362, -1.93111313
5923, 17.4266001, -20.1168117, 3.1670428
5924, 18.1495458, -21.9809445, 2.19474588
5925, 17.8946369, -18.621288, 3.98667
5926, 36.9122305, 2.69648206, -0.864505548
5927, 38.0443547, 2.50107685, 3.67043746
5928, 37.972921, 1.76143739, 2.89779288
5929, 37.568537, 3.466678, 3.21263291
5930, 16.687927, -21.652428, 2.47230051
5931, 37.3402102, -1.89778146, 1.97739445
5932, 37.9890553, -2.61349709, -1.72338536
5933, 36.7904803, 3.0606429, 3.10098073
5934, 36.2688318, 3.99849898, 2.94314149
5935, 37.0578852, 4.27733856, 3.1028617
5936, 37.4147852, 3.80464237, -4.56962376
5937, 37.3867188, 5.3031259, -3.42107197
5938, 37.8004337, 5.65277954, -1.74344118
5939, 37.9201894, -6.9220571, -1.54634136
5940, 17.8674557, -20.3895896, 0.360511143
5941, 16.3644136, -20.1041995, 0.696077373
5942, 17.7838486, -19.6977165, -0.798775087
5943, 17.3008386, -21.3348471, 0.0597369998
5944, 18.7894757, -21.6142707, -0.2444778
5945, 19.1888211, -20.1760949, -2.80190912
5946, 18.717795, -19.6380029, -1.95628459
5947, 9.46214507, -20.760645, 3.79702016
5948, 9.73943258, -20.7673247, 4.47485401
5949, 11.3131107, -20.4836428, 4.58558089
5950, 10.5668081, -19.7446399, 4.31770327
5951, 11.0427866, -20.4555529, 3.91801183
5952, 14.204268, -18.9997062, -0.558892249
5953, 15.4196744, -20.3433062, -0.715229193
5954, 35.2840701, 0.685105954, 3.58849239
5955, 35.1386099, -7.03330284, 2.28502623
5956, 34.9229243, -7.9816617, 2.8192642
5957, 35.2474433, 2.09717917, -4.62300369
5958, 10.2846185, -18.9224735, -4.56267707
5959, 10.5726474, -18.8470838, -3.47022748
5960, 11.9960305, -18.8554421, -5.44823352
5961, 35.1961852, 4.26848513, -7.67438894
5962, 35.1929596, 7.93331526, -4.2840838
5963, 36.2094544, 7.23854235, -3.36023548
5964, 36.3880113, 8.19326368, -4.72722331
5965, 33.7722231, -18.1005372, 8.99421064
5966, 35.2150826, -2.51838174, -5.79490204
5967, 35.0621135, -3.40813184, -5.15448818
5968, 34.2821659, -3.57972468, -5.95592134
5969, 36.0329977, -2.68925157, -6.55077292
5970, 35.7868138, -3.57428719, -5.94976295
5971, 35.2590918, 4.57551737, 5.67805312
5972, 14.9175455, -21.6756011, 0.90329564
5973, 14.8916659, -20.620687, 0.527254228
5974, 16.1065469, -22.0685911, 0.385273195
5975, 22.9952088, -17.9765478, 3.16442896
5976, 21.7856252, -19.4393924, 4.0647943
5977, 32.178735, -20.5933165, -7.26141193
5978, 31.4060843, -20.3060063, -7.25225535
5979, 32.3114323, -20.1569092, -6.07813431
5980, 31.7962775, -18.9768931, -8.33903894
5981, 32.5755201, -19.2712121, -8.33756143
5982, 17.6005221, -22.337349, 0.0578430834
5983, 17.5111456, -21.6417149, -1.08812773
5984, 14.363195, -20.4978176, 6.41515222
5985, 39.0201492, 3.56409672, 4.73637525
5986, 39.479743, 3.56103826, 2.88203461
5987, 38.5542558, 4.74596409, 4.23317766
5988, 37.2229101, 2.99296404, 1.50800323
5989, 37.4345029, 1.53347475, 1.51665537
5990, 20.4873987, -21.2322147, 2.87377842
5991, 19.4127819, -21.9091039, 2.81419595
5992, 35.4916037, 7.5318641, 2.99597851
5993, 35.1889539, 8.41060085, 3.21545017
5994, 35.4706244, 8.52517225, 2.35961819
5995, 34.3058085, 7.98974592, 2.53419857
5996, 38.9944877, 4.45107473, 2.67757852
5997, 37.9714117, 3.21037991, 1.63147079
5998, 35.6066349, 5.76071103, -4.40355941
5999, 35.6012023, 6.09506167, -4.96987236
6000, 15.6798443, -19.0256828, 2.95563571
6001, 15.1540797, -20.4895289, 3.62873308
6002, 34.2795166, -0.0691035326, -2.15326275
6003, 35.0935487, 0.789438067, -0.963019477
6004, 35.0979107, -0.833711436, -0.807560668
6005, 36.2035431, 0.102106696, -0.887802446
6006, 38.697392, -2.19875815, -4.086687
6007, 38.0646825, 1.49238793, -5.04285543
6008, 38.9879159, 2.22505382, -4.86220439
6009, 19.131296, -17.0767243, 4.87848852
6010, 19.8320955, -17.9990143, 5.06078587
6011, 19.0595412, -17.614919, 4.82413099
6012, 13.950889, -17.5145484, 2.876094
6013, 13.9277323, -17.9728704, 4.73354115
6014, 12.3057866, -17.9307103, 4.17481685
6015, 36.9137902, -21.4950081, -4.53216722
6016, 34.277062, 3.35070348, 2.37791303
6017, 35.2835947, 3.89012432, 1.34791649
6018, 35.5632656, 4.14666402, 3.21185706
6019, 35.2614568, 3.60707319, 3.86674266
6020, 15.5170297, -20.5124069, 3.93613649
6021, 36.6383555, 4.82450348, -3.16243194
6022, 37.2923481, 2.24666498, 3.23453635
6023, 35.4568997, 7.81101919, -3.31330246
6024, 35.2699028, 6.56333394, -2.43915722
6025, 34.2848708, 7.25900801, -3.38855625
6026, 12.7337095, -20.5690088, -4.90710903
6027, 36.5411555, -22.8723731, -4.52144924
6028, 36.4036285, -23.027036, -4.54630643
6029, 36.4765042, -22.3617236, -4.52753019
6030, 14.441004, -19.7738395, 8.00484436
6031, 13.514008, -20.7493776, 7.9337436
6032, 14.6255076, -20.497411, 7.44659521
6033, 15.1479954, -20.4811693, 7.70119674
6034, 13.9970517, -20.7650557, 8.19580776
6035, 38.990731, -4.71399987, -2.51720719
6036, 32.9178317, -18.7469674, -8.33666512
6037, 33.1130231, -18.3836221, -8.33629301
6038, 33.3738205, -18.7732711, -8.33587001
6039, 32.9267009, -20.9457234, 6.02158044
6040, 32.1771059, -20.59351, 7.26644511
6041, 33.2260806, -20.0580638, 8.24664426
6042, 33.3359131, -19.6408984, 7.15452072
6043, 32.5503331, -19.2869565, 8.38846025
6044, 32.2732097, -20.1694225, 6.15471219
6045, 28.1007914, -23.3845486, -4.49804407
6046, 27.1009856, -23.6177707, -2.28342527
6047, 26.8982176, -24.3688726, -2.69259018
6048, 18.7456175, -19.694604, -0.600541529
6049, 34.313017, -15.1229096, -8.81684731
6050, 34.8148102, -15.4142285, -8.81682199
6051, 34.4549552, -15.5084607, -8.81667636
6052, 34.2786048, 1.59762898, 2.58158577
6053, 35.1427615, 1.48529173, 1.38281567
6054, 35.878011, 5.23050758, -3.50865613
6055, 15.4731552, -23.0862791, -1.56157001
6056, 16.2860966, -23.6935264, -1.72149259
6057, 14.8665351, -23.9070555, -2.82215714
6058, 15.6732988, -24.5223425, -2.99191508
6059, 15.719984, -23.2109637, -1.97294377
6060, 19.9294198, -20.9348173, -0.39746405
6061, 15.1240118, -24.4045786, 0.364702164
6062, 14.3747033, -24.4194712, 0.698371239
6063, 14.6489721, -24.38555, 1.83507719
6064, 14.3721422, -23.800069, 1.24812937
6065, 15.4730028, -24.3901794, 1.51715937
6066, 36.8596604, 0.872024537, -2.24863182
6067, 35.9747579, 0.0137905178, -3.49557867
6068, 36.8746817, -0.783337953, -2.12817964
6069, 16.0863313, -23.6830876, -0.963785599
6070, 33.9951654, -18.3749827, -8.65940499
6071, 34.256264, -18.7643721, -8.65923708
6072, 34.5289362, -18.265526, -8.10808065
6073, 39.0654525, 0.398355021, 4.05459327
6074, 38.7440619, 0.0345228876, 3.91696413
6075, 37.9673214, 0.524290736, 3.35067687
6076, 38.0075901, 3.93148763, -1.50952328
6077, 37.9996005, 3.28887239, -0.547977042
6078, 39.9522877, 2.9945225, -6.5118172
6079, 39.0076434, 5.4699876, 3.19307071
6080, 37.019319, 5.31236221, 3.57183859
6081, 40.1029842, -0.123836871, 3.91871516
6082, 40.0557289, 0.398830444, 4.04742427
6083, 39.7241538, 0.0300938923, 3.91058097
6084, 35.1260812, -13.2344439, -7.12752744
6085, 34.454322, -14.0709066, -7.1276504
6086, 36.1017571, -14.1656075, -8.40389792
6087, 35.4295473, -15.0049969, -8.40256102
6088, 34.9725655, -14.4414165, -6.0290237
6089, 17.0688126, -17.0022942, 4.06145644
6090, 17.4888963, -16.902278, 3.89617253
6091, 35.0395216, -5.14171233, -3.89404697
6092, 34.282844, -4.68769258, -3.84111626
6093, 37.2718779, -7.76899754, -2.20230872
6094, 37.0533458, -8.11383839, -3.21789099
6095, 38.2651488, -8.03889614, -3.54908332
6096, 37.9716757, -8.06400698, -1.60790898
6097, 37.8102297, -8.51012672, -2.68510365
6098, 15.7629353, -18.0526215, 4.20091462
6099, 15.1538473, -18.0122368, 5.06275273
6100, 16.4824947, -18.9749797, 4.54821063
6101, 15.79493, -18.9947904, 5.33854641
6102, 31.3088717, -19.9346438, -2.49960938
6103, 31.0551439, -20.048564, -2.50174139
6104, 32.1164156, -19.7278456, 0.393736551
6105, 32.3714315, -19.6141149, 0.393257568
6106, 16.9210662, -23.6802564, -0.972870398
6107, 18.2068392, -23.6665331, -0.144729726
6108, 18.1184537, -22.9574535, -1.28293974
6109, 21.1177688, -21.8866468, -3.60886561
6110, 20.7925778, -22.6447084, -3.34642165
6111, 19.3886761, -21.1886237, -3.06786713
6112, 36.6332907, 5.79915589, -3.50749266
6113, 34.384671, -19.1433996, -8.65867039
6114, 38.0244683, -3.90967038, -1.52309458
6115, 38.0227102, -3.2862699, -0.564400048
6116, 38.9041438, 5.11130761, -4.30308449
6117, 38.1372836, 1.77455204, 6.11616436
6118, 39.6352081, 2.92555165, 6.82915571
6119, 38.703633, 2.89068835, 6.81782479
6120, 38.653366, 0.608538855, 7.36782125
6121, 32.9245159, -20.9433077, -5.98378876
6122, 33.2258261, -20.0635138, -8.24581453
6123, 33.3738393, -19.638922, -7.0884626
6124, 34.7770063, -24.2064678, -4.50715815
6125, 34.5728042, -24.2567625, -4.54804186
6126, 34.3056356, -24.0917987, -4.53335142
6127, 35.1979466, 6.34193505, -6.0860233
6128, 35.1943971, 6.85994785, -5.81609504
6129, 36.7887571, 6.38054666, -5.42211195
6130, 19.1401986, -23.6671431, -0.414754153
6131, 36.8490668, -21.7269299, -4.55285063
6132, 36.8535944, -1.26834999, 2.93875997
6133, 15.0660673, -20.7533775, -8.6258669
6134, 14.3584799, -20.7585757, -8.51803259
6135, 14.7938337, -20.7614828, -8.00304933
6136, 34.3132105, -24.0754409, 4.54453565
6137, 34.5657224, -24.2551014, 4.54993078
6138, 34.7602126, -24.1875594, 4.53455255
6139, 35.0626655, 2.89813501, 1.29997856
6140, 35.5964389, -15.6962261, -8.40188282
6141, 36.1775606, -15.8742476, -8.40200736
6142, 35.7968447, -16.1224502, -8.40179269
6143, 36.6295603, -22.1691291, -4.53148801
6144, 36.7533814, -21.9580971, -4.53731434
6145, 10.649924, -18.9725264, 4.65244194
6146, 12.3789654, -18.9553536, 5.47756208
6147, 10.8600199, -18.9364112, 3.52676213
6148, 18.8346056, -17.47437, -6.14455572
6149, 34.0968726, -19.168462, -8.65990685
6150, 16.0069447, -20.5380275, -3.62686117
6151, 16.8083055, -19.0249361, -3.15178903
6152, 16.9289934, -20.896383, -2.12253244
6153, 12.9593121, -20.488657, -2.46742706
6154, 13.2435618, -20.5167839, -2.88333558
6155, 35.2665149, 5.43548927, -2.44405414
6156, 20.7217713, -20.4828451, 3.27727986
6157, 35.6838314, -23.2477394, 4.53937223
6158, 36.228391, -23.1969594, 4.53540315
6159, 36.0739214, -23.3338597, 4.54580915
6160, 36.07414, -23.3381115, -4.54138859
6161, 36.2255345, -23.1975393, -4.53890394
6162, 38.3161066, -1.73545086, 4.75025362
6163, 39.2222034, -1.03928684, 4.6066484
6164, 38.6948165, -0.92769476, 4.49578189
6165, 16.5535636, -20.3824252, -0.453121964
6166, 35.0587324, -18.1211018, 7.98773434
6167, 13.6323123, -18.5415482, -0.370834916
6168, 35.0397674, -2.7013405, 4.02526148
6169, 35.0347452, -1.95261904, 3.22725382
6170, 35.0860667, -1.77475035, 2.12242169
6171, 35.0979105, -2.54390228, 2.90222565
6172, 34.279574, -3.76095838, 2.72721464
6173, 34.2797405, -3.03166618, 1.92164482
6174, 35.381735, -2.71776169, 1.86699255
6175, 38.2292666, -1.06781657, 3.96703277
6176, 38.7417876, -1.84795104, 3.09240359
6177, 13.050023, -18.0039221, 2.71502757
6178, 35.1510625, -16.6038061, 8.37967256
6179, 35.3753191, -16.2394988, 8.38018651
6180, 34.9815224, -16.2327845, 8.37981302
6181, 15.7301011, -18.8205409, 6.04078559
6182, 20.3701615, -23.6791253, 1.39804505
6183, 20.0600841, -24.3585738, 0.712756515
6184, 18.9778757, -23.6702686, 0.975703587
6185, 19.9656391, -23.0698149, 0.628767221
6186, 20.2638588, -22.3559787, 1.31080319
6187, 11.8994773, -20.4567778, 4.27825216
6188, 16.0320686, -21.8754563, -3.65077496
6189, 16.9339614, -22.2980794, -2.15720247
6190, 14.1567945, -23.2092714, 1.73181491
6191, 14.7796988, -22.2557092, 1.32989248
6192, 14.9365995, -22.8291646, 0.793659928
6193, 15.2446175, -22.790558, 1.91558334
6194, 34.553767, -17.4557391, -4.87703357
6195, 34.6494681, -17.3579005, -4.87671098
6196, 11.7034135, -20.3985257, -5.1992783
6197, 11.7856988, -20.391158, -4.60120071
6198, 11.1554262, -20.400961, -4.68151443
6199, 35.5503831, -17.0725633, 0.802222129
6200, 35.3976667, -17.303256, 0.804575108
6201, 35.3980741, -17.301774, -0.804493583
6202, 36.7859361, 6.75974825, -4.9285897
6203, 33.8754339, -18.7084031, 8.61512549
6204, 34.2651773, -19.1390192, 8.61484072
6205, 34.3389731, -18.7047703, 8.61416799
6206, 39.5063601, 6.08449758, -3.29291238
6207, 39.1062551, 6.77185546, -1.79355353
6208, 38.7185748, 6.88123673, -1.81956829
6209, 34.289855, 6.55325513, -3.41209858
6210, 10.5997708, -18.2822543, -1.8003072
6211, 10.6159365, -17.8843698, -1.78937017
6212, 11.4048126, -17.5199128, -3.29772213
6213, 34.3015899, 4.12271666, 2.80089678
6214, 35.2767689, 4.51164755, 4.19760648
6215, 21.1441584, -20.479977, -3.64635306
6216, 20.6526299, -21.0978116, -3.198532
6217, 13.3062702, -18.7676428, -7.63127046
6218, 13.5631977, -18.75594, -7.77962993
6219, 33.164056, -16.8250819, -6.5325094
6220, 33.3204248, -16.5936124, -8.90754418
6221, 33.1643488, -16.8243581, -8.90748581
6222, 18.6914318, -16.8882039, 4.59687382
6223, 15.0583295, -17.9515523, -5.93198069
6224, 15.2658429, -18.0219905, -4.83659392
6225, 15.9461162, -18.8052323, -5.17837521
6226, 15.6293173, -17.2648862, -5.43512099
6227, 15.687661, -18.8123017, -6.17633177
6228, 19.9613736, -22.3086145, 0.184400889
6229, 20.2362218, -24.3657063, -0.673928287
6230, 15.1857971, -20.5156845, -4.31384954
6231, 14.7857934, -20.4858057, -4.02729505
6232, 15.8092021, -18.9622154, -3.60079864
6233, 15.6464336, -24.3906608, 2.47914689
6234, 14.9388753, -24.3788149, 2.26854201
6235, 39.6273235, -4.5906371, 0.991022072
6236, 39.9398949, -4.40646066, 0.565563606
6237, 38.6401809, -3.95284858, 0.0451819708
6238, 39.4726549, -3.59610135, 0.254950527
6239, 34.2134413, -17.51611, -8.94947986
6240, 24.8686537, -23.9223223, -3.2358405
6241, 24.3649043, -23.1420836, -3.58203439
6242, 26.4520683, -23.708515, -3.19031173
6243, 39.8299388, 4.53507342, 0.975211658
6244, 39.8062536, 4.94239241, 2.3239999
6245, 38.2957823, 4.65282708, 1.17887014
6246, 38.9610072, 4.15536162, 1.42117069
6247, 13.793737, -20.7576474, -8.27641542
6248, 14.6861243, -20.5033097, -7.29019892
6249, 14.1793421, -19.7657381, -7.54368854
6250, 13.285734, -20.7543792, -7.69803261
6251, 14.1658882, -20.466751, -6.73136973
6252, 39.6462125, -4.95268754, 2.35126251
6253, 38.9806383, -4.19531423, 1.41406762
6254, 38.0811712, -4.68846842, 1.12705267
6255, 11.1576653, -20.7597121, -6.18715168
6256, 10.6223364, -20.7535947, -5.66167884
6257, 10.9020168, -19.6693978, -5.28080906
6258, 14.268565, -18.9598453, -2.58102359
6259, 38.0393112, -0.680508671, -3.20247784
6260, 12.7008635, -18.0191427, -2.11094425
6261, 18.6692483, -24.3762593, 2.3741312
6262, 20.0654179, -23.091214, 2.64879659
6263, 18.555517, -23.0817822, 2.31924193
6264, 34.9566567, -17.5131919, 8.36766163
6265, 15.1123866, -23.1085772, -0.343149577
6266, 14.1501132, -23.2001823, -1.7479871
6267, 17.8138231, -23.6697069, 1.70394934
6268, 17.5743747, -23.6736565, 0.75249761
6269, 16.2778026, -23.4119415, 2.02963208
6270, 16.1091783, -23.4002658, 1.08057927
6271, 27.8458978, -22.2464297, -0.109982725
6272, 28.8391196, -21.898033, -2.38069043
6273, 29.0784266, -23.6002084, -1.84577255
6274, 14.0118213, -24.7287545, -1.42767811
6275, 14.0445663, -24.1436663, -1.94822134
6276, 34.2902337, 5.3403302, -3.39997055
6277, 31.5509105, -19.797671, -2.49824743
6278, 32.6146184, -19.4770901, 0.392555556
6279, 35.2315478, 2.50854272, 6.25825354
6280, 34.2925493, 3.63218767, 6.05817349
6281, 35.0666015, 3.39008605, 6.94547676
6282, 36.2809271, 3.48004668, 5.85198908
6283, 35.5377163, 3.60099337, 4.98991194
6284, 27.9393372, -20.2576997, -4.88239983
6285, 36.8280787, -6.27310776, -3.14504452
6286, 37.3256234, -6.15122474, -5.28302103
6287, 36.1003655, -6.6108132, -3.18446269
6288, 36.8589298, -7.32975756, -3.01524518
6289, 36.8830945, -2.60394944, -0.676238199
6290, 17.5162398, -23.6248118, -2.34811436
6291, 19.9518464, -17.5297663, 3.21905575
6292, 38.9916656, -2.36426153, 5.05467224
6293, 39.467114, -2.45204343, 3.21168744
6294, 12.01488, -17.9749813, 3.19808242
6295, 11.7789809, -19.4467104, 3.41736487
6296, 13.9058096, -18.9578936, 0.495176281
6297, 13.0370463, -19.0400284, 0.712883148
6298, 12.8903824, -18.6938697, 1.07630778
6299, 13.5080682, -18.1838908, -0.0527188876
6300, 35.4983825, -17.9207922, -8.72580446
6301, 35.6800125, -17.571842, -8.72612031
6302, 35.105908, -17.5259342, -8.17532173
6303, 38.5841437, 7.32294372, -1.46264701
6304, 39.0443012, 7.28995119, -1.64761634
6305, 39.0259483, 7.55452103, -1.1349192
6306, 39.4989538, -4.72714616, -1.78935835
6307, 38.0037619, 0.671886381, -3.18862676
6308, 20.7543736, -21.9154398, 3.33313208
6309, 38.1172906, -5.5463064, 1.727264
6310, 34.2914945, 5.22750445, 3.30900435
6311, 35.551088, 5.28240232, 3.62389115
6312, 39.4595514, 2.45442569, 3.21752256
6313, 12.0270203, -18.7515645, 1.67062909
6314, 12.6210387, -17.1684078, 2.26453551
6315, 37.9818799, -1.56546178, 6.89188443
6316, 38.3823712, -1.4830685, 7.23330038
6317, 38.05125, -3.34983117, 7.11729478
6318, 38.5211161, -2.95611376, 6.4715933
6319, 17.4802808, -19.6651096, -2.06658326
6320, 10.714303, -20.5080507, 2.98499386
6321, 10.2518203, -19.7586502, 3.36335148
6322, 38.244317, 5.53378263, 1.69993443
6323, 15.0596138, -17.5424739, 3.21033964
6324, 21.5327473, -21.1102003, -3.74200946
6325, 35.575078, -17.0698487, 3.18761056
6326, 35.7137805, -16.8249963, 3.19801483
6327, 13.6971159, -20.564791, -5.306063
6328, 39.767542, -1.73438743, 4.2108968
6329, 19.9495421, -18.9719637, -0.113339274
6330, 19.967789, -20.1709582, -1.03079341
6331, 22.2217264, -18.0153522, -2.54144189
6332, 20.3710116, -17.5234589, -2.86779233
6333, 20.6722794, -18.012051, -3.75742307
6334, 26.3796033, -19.2241646, -1.1038484
6335, 17.5221968, -24.3287411, 3.0248969
6336, 17.1055462, -22.7954285, 2.54480463
6337, 21.6358392, -20.4594238, 3.80762726
6338, 35.1421451, 0.353972823, 0.155139765
6339, 36.2642823, 1.27656043, 0.0936065435
6340, 36.2491338, -0.332918744, 0.238441451
6341, 15.5786971, -23.6943005, -0.433529433
6342, 35.2614039, 5.49668756, 4.50622854
6343, 16.5891513, -23.0725791, 3.47118462
6344, 16.95018, -23.3278514, 2.90522546
6345, 16.4313051, -24.7164853, 3.27394318
6346, 15.6308458, -24.2626583, 3.57971858
6347, 15.8930228, -24.5095613, 2.90508403
6348, 16.1662112, -22.7571703, 3.19096532
6349, 35.1694823, -3.41648873, 6.1928235
6350, 37.1268487, -3.61085981, 7.21033301
6351, 36.0099029, -4.56558445, 7.25735475
6352, 35.1675965, -4.43961566, 5.47402415
6353, 37.1647747, -4.71519327, 6.46303708
6354, 36.3042778, -3.51077687, 5.42114285
6355, 14.1413941, -24.3819678, -2.27008505
6356, 14.0885124, -24.262053, -2.52231305
6357, 14.3959369, -24.4003599, -2.33068892
6358, 14.3827311, -24.3444537, -2.6060766
6359, 14.3956416, -24.2521895, -2.87736765
6360, 14.6429403, -24.3808839, -2.62589283
6361, 35.9557969, -17.2262872, -8.72637692
6362, 16.847449, -23.6331642, -3.06011035
6363, 16.2663565, -23.1656514, -3.26905976
6364, 33.7977131, -17.1579878, 8.0672937
6365, 34.4500617, -16.9468756, 6.94563937
6366, 34.2043221, -17.6137352, 7.56068807
6367, 34.2904325, 3.07821175, -4.50203849
6368, 34.6380691, -18.9520452, 8.61345199
6369, 34.2880265, 2.97286855, -7.3071183
6370, 35.2032423, 3.70757, -8.25190488
6371, 14.4628201, -19.0456107, 0.818953465
6372, 14.6100971, -20.0964503, 1.06860865
6373, 36.1904497, 3.19726149, 7.80000201
6374, 36.3898554, 4.729774, 8.19200801
6375, 36.2105952, 3.74256521, 7.49508545
6376, 35.1976928, 4.89698688, 7.33022902
6377, 35.1991861, 4.36065667, 7.6389087
6378, 35.0416668, -18.0855085, -7.88502751
6379, 18.1435399, -20.2187076, -2.45010611
6380, 37.3849007, 1.22985713, -0.615466395
6381, 38.0297376, 0.330226043, -1.94169379
6382, 37.3613437, -0.432502539, -0.441575557
6383, 13.6172897, -24.7367736, -1.49171038
6384, 13.5403285, -24.708616, -1.75580271
6385, 13.8025458, -24.7392865, -1.8324552
6386, 37.9942292, 7.15109346, 3.68410961
6387, 37.722807, 6.75144218, 4.1270216
6388, 38.2325042, 8.06944609, 4.99752158
6389, 37.7254731, 6.94564284, 3.91533488
6390, 34.404296, -18.2108769, 8.1075956
6391, 35.0868251, 1.51750611, -0.576272846
6392, 35.1471674, 1.09378952, 0.559325964
6393, 16.2992478, -23.6788593, -0.0592170371
6394, 33.568199, -18.5509968, -4.98529475
6395, 33.3494425, -18.7315211, -4.98178301
6396, 33.5681057, -18.5531469, -2.61369243
6397, 39.8923777, 4.75777715, -1.37434257
6398, 38.911846, 4.00148914, -0.755556042
6399, 39.4776066, 3.71410245, -1.33440056
6400, 38.382032, 4.07822646, -0.87570842
6401, 35.0963219, -0.817661004, 0.346787627
6402, 35.1373249, 0.379109658, 1.30577898
6403, 12.3386952, -19.4370021, -4.62694893
6404, 36.8722189, -19.5586816, 4.52334766
6405, 36.8586275, -18.5655254, 3.34770276
6406, 37.0357592, -18.3768617, 3.33070144
6407, 36.2676902, -4.68152478, -5.93989624
6408, 26.402767, -19.8779802, -0.688054206
6409, 13.605088, -24.7063028, 1.51010993
6410, 13.5243263, -24.6789298, 1.77650919
6411, 13.7714317, -24.7111898, 1.84471931
6412, 35.2164027, -1.58609353, -7.95234075
6413, 35.2771399, -1.71319442, -8.91160103
6414, 36.0162835, -2.1311755, -8.5142293
6415, 35.2790344, -2.27095779, -7.08515477
6416, 35.3204696, -2.51556635, -8.09274722
6417, 26.0897249, -20.6625351, 1.69247833
6418, 25.7501683, -19.9404307, 2.00672775
6419, 26.1183583, -19.2814662, 1.62252851
6420, 14.9127276, -21.6130511, 2.5480704
6421, 15.2659781, -21.628616, 2.84355787
6422, 16.1789605, -20.6313253, 2.6741432
6423, 39.4539361, 3.69217469, -2.32564037
6424, 31.4072645, -23.6199069, 0.142300476
6425, 31.4094659, -23.6003624, 2.15415722
6426, 33.534399, -22.9331257, 0.393356109
6427, 33.5355543, -22.9319829, 2.39906041
6428, 31.9319686, -21.5545147, 0.534259659
6429, 36.0068334, -8.91056787, -4.03065205
6430, 35.0565933, -8.67970476, -2.50654866
6431, 36.1065002, -7.66834223, -2.77623278
6432, 35.0821414, -8.51658214, -3.57586896
6433, 37.0636019, -7.86639537, -4.27135312
6434, 14.1314885, -19.5254102, -5.73352771
6435, 14.0950308, -18.0379534, -5.02734302
6436, 14.4300689, -19.5211066, -4.67615721
6437, 34.2868538, 2.96754201, 1.63920604
6438, 11.2507061, -20.7578644, 6.32349558
6439, 11.6600377, -20.757499, 6.73894984
6440, 11.7088976, -20.4670663, 4.9629682
6441, 11.6999361, -19.7395742, 5.76730534
6442, 34.8424285, -16.437835, -8.81643654
6443, 34.6364834, -16.7407086, -8.81629192
6444, 34.5019142, -16.3584778, -8.81634746
6445, 40.0143432, 2.99691909, 6.50249727
6446, 14.6731413, -17.531272, -3.33766629
6447, 14.3942137, -18.0127348, -4.24436307
6448, 13.2083586, -18.0483697, -4.4427933
6449, 14.6860842, -19.0473096, -3.81772457
6450, 34.2577274, -19.6006742, 7.35507822
6451, 34.0226067, -19.947571, 8.24701545
6452, 33.3369405, -19.1688907, 8.38691411
6453, 33.5796408, -18.8474526, 7.50091672
6454, 19.2250305, -18.0704055, 4.22130282
6455, 34.284699, -4.80208592, 3.34972196
6456, 35.1480848, -4.07394647, 4.25764724
6457, 35.4398049, -4.16203527, 3.26010069
6458, 14.6631818, -17.5190733, 6.90766865
6459, 37.4310838, 2.38549029, -0.903669214
6460, 33.775832, -18.3625617, -4.9988728
6461, 33.7660378, -18.3571853, -2.61345072
6462, 34.0554012, -18.0924492, -2.51500117
6463, 34.0492142, -18.0888643, -4.88886603
6464, 16.9201629, -18.7437555, -8.65574826
6465, 16.5758674, -18.7568238, -8.66793424
6466, 16.5792644, -18.7523213, 8.67323886
6467, 16.9262146, -18.73955, 8.66724997
6468, 34.9257741, -9.16688941, 1.82051674
6469, 35.1373569, -7.95885556, 1.56653424
6470, 34.2817853, -9.2607758, 1.89367674
6471, 34.2857096, -8.07885851, 2.87432957
6472, 23.8745151, -19.2357706, -1.78692344
6473, 24.0831672, -18.7903826, -1.73376784
6474, 18.3966072, -19.1296287, 4.46048284
6475, 35.0894609, -0.7655489, 1.72460015
6476, 36.204214, -1.42799934, 0.678953315
6477, 36.2350194, -0.27317183, 1.62930164
6478, 26.3921589, -23.6616683, 1.4470583
6479, 26.6614695, -24.2650555, 0.966912686
6480, 34.3985501, -15.7604123, 8.37984525
6481, 34.715257, -15.9316544, 8.37986475
6482, 38.704268, -3.78244052, -6.05759189
6483, 38.0340278, -3.52644678, 6.03096737
6484, 34.2767561, -1.63164451, 2.90789784
6485, 35.2708751, -1.45642153, 3.96164098
6486, 35.3258305, -1.30292545, 2.83233312
6487, 12.7938168, -20.4755572, -3.22884084
6488, 12.2354639, -20.4830885, -2.98002696
6489, 11.6497992, -20.3746638, -3.98868028
6490, 12.2340486, -20.3705029, -4.26542871
6491, 14.7459953, -20.6110932, 1.58773616
6492, 15.688154, -20.0978909, 1.68764193
6493, 15.0076623, -22.5102663, 0.171479516
6494, 35.2539175, 2.31721457, 5.01036897
6495, 36.0516459, 2.67132753, 5.43920644
6496, 16.0158013, -20.4271925, -8.29489612
6497, 16.9469834, -19.0345268, 3.35563907
6498, 34.2790126, -2.43074074, 3.62016271
6499, 35.3666949, -8.50333683, -0.210416081
6500, 35.1803387, -9.51589448, 1.13440415
6501, 34.2832621, -9.65926493, 0.766215663
6502, 34.2758916, -9.84926311, -0.939500815
6503, 35.1351915, -9.79303982, -0.573773037
6504, 32.38124, -18.1254684, -5.95815612
6505, 32.3812464, -18.1276999, -8.33686411
6506, 32.1675241, -18.3065001, -8.33715345
6507, 32.1669741, -18.3058925, -5.95901674
6508, 14.7419752, -20.4689014, -5.06254805
6509, 14.7919802, -20.4857901, -4.54493602
6510, 13.6716184, -20.5739012, -4.75030216
6511, 39.5080566, -6.0406708, -2.66746915
6512, 38.0371951, -6.32697431, -2.44819932
6513, 38.718859, -6.91949471, -1.80404575
6514, 32.1429718, -18.3248734, 8.38764623
6515, 32.3566121, -18.1458713, 8.38744581
6516, 32.3574525, -18.1452521, 6.01144795
6517, 32.1427621, -18.3241573, 6.00996904
6518, 37.9091296, 8.0627779, 0.930589191
6519, 38.0136371, 8.920551, -0.277572102
6520, 37.9342349, 7.94754699, -1.53187228
6521, 34.2360325, -19.627402, -7.41276357
6522, 33.8657457, -19.9666603, -8.25237311
6523, 33.2162374, -19.1779186, -8.33700147
6524, 33.5816101, -18.8339583, -7.49336344
6525, 15.1916423, -24.5042759, 2.70954264
6526, 14.861379, -23.8979993, 2.81251722
6527, 32.5535965, -17.9452514, 6.01220845
6528, 15.4729915, -22.8998566, 2.32640604
6529, 26.6007662, -21.9690303, 3.28863797
6530, 26.2299256, -21.2097447, 3.5971191
6531, 27.3828349, -20.2856594, 3.37431514
6532, 10.2467356, -20.7522474, -5.17834513
6533, 9.87337582, -20.757902, -4.42819807
6534, 10.7671029, -20.4001297, -3.95615596
6535, 10.5065096, -19.6835825, -4.78452742
6536, 38.0349649, 6.30643624, -2.37391614
6537, 22.0136302, -23.6471691, -3.28772531
6538, 21.636754, -24.3650209, -3.05959927
6539, 20.7665608, -23.9048576, -3.36526684
6540, 21.1316278, -23.1581145, -3.58569401
6541, 22.184924, -17.3997913, -1.73677484
6542, 39.4698494, -3.66691869, -1.7681408
6543, 36.929401, 2.23366797, 0.344177728
6544, 37.4752857, 1.91569563, 0.276446273
6545, 35.0583675, 2.49334954, 0.454778274
6546, 15.1469609, -24.513938, -2.78047145
6547, 36.1296753, 2.60645227, -0.0299375685
6548, 27.8619831, -23.6207624, -0.138340096
6549, 27.8500507, -22.9158087, 0.496554406
6550, 35.9889483, -8.11397447, 4.40133647
6551, 36.9166223, -8.18016107, 3.15319426
6552, 36.0381662, -9.40947899, 3.43617502
6553, 20.3867788, -18.9117042, 0.751726496
6554, 34.2780258, 3.76498998, 5.38873277
6555, 37.4176705, -2.28324136, -0.726198454
6556, 21.5563034, -16.9458772, -0.871601112
6557, 21.3822481, -17.0014624, -0.398713877
6558, 38.0451491, 3.5337441, 6.02458818
6559, 39.0494462, 2.97814984, 6.50917832
6560, 11.4361812, -18.0458855, 1.80113911
6561, 34.2849191, 2.37545471, -0.365667955
6562, 35.2500473, 3.50292087, 0.235937735
6563, 35.36154, 2.56102938, -0.815602722
6564, 34.282829, 3.56117516, 4.62740899
6565, 35.0368791, 3.25228866, 4.246948
6566, 34.2884074, 2.81180468, 4.21911558
6567, 36.9798038, 7.62313634, 2.92403447
6568, 36.9946103, 8.47485655, 2.31454497
6569, 36.2226424, 8.60528497, 2.05013289
6570, 32.1947185, -18.7192663, -8.33763314
6571, 15.4326359, -19.2618634, -8.58961565
6572, 15.7703082, -19.2657055, -8.65773988
6573, 15.4216588, -19.7705886, -8.577889
6574, 10.8843293, -19.1654414, -5.29000097
6575, 11.094125, -19.1574167, -5.50615885
6576, 35.8368016, -16.9171476, 7.03122082
6577, 35.2024411, -16.8473029, 7.75354745
6578, 36.2469558, -17.4925073, 7.52483425
6579, 36.3949643, -16.4249704, 6.97915943
6580, 35.7597676, -16.3557182, 7.70024464
6581, 35.3502337, -15.7795093, 7.20491699
6582, 36.0279101, -5.88758851, 7.46794023
6583, 35.161228, -5.7760197, 5.6781327
6584, 35.0945908, -1.70116987, -0.151491068
6585, 35.1084167, -1.65289307, 1.25403343
6586, 13.3788084, -20.5010724, 2.15549826
6587, 14.6271365, -21.6386484, 2.1988027
6588, 34.2892302, 2.59782947, 0.482921183
6589, 9.47883985, -19.7198633, -2.66842659
6590, 9.31824598, -20.7510203, -3.3356285
6591, 10.2904118, -20.4783535, -2.90828867
6592, 9.79202828, -20.4928164, -2.37114189
6593, 8.84204237, -20.76485, -2.74770847
6594, 37.1214056, -12.2735774, -8.20586708
6595, 37.124363, -13.2362304, -8.12951902
6596, 35.9916076, -12.5548255, -5.83740353
6597, 35.9929234, -13.5160081, -5.75808735
6598, 11.5388107, -20.4938794, 3.29910858
6599, 32.9467191, -18.7383337, 8.38727082
6600, 22.138916, -17.4958551, -4.70901822
6601, 20.8854998, -18.9279979, -5.48867268
6602, 22.5121174, -19.0468571, -4.40013231
6603, 26.9908624, -19.9143748, 0.174412902
6604, 35.2671906, 8.12075, 1.33200241
6605, 36.97205, 7.77208287, -3.21982538
6606, 36.9582417, 7.99919748, -2.64947932
6607, 36.2182627, 7.53945916, -2.86787776
6608, 36.396165, 8.73545217, -3.62888776
6609, 11.8229369, -19.243425, -1.74703964
6610, 39.4697205, 1.98582657, -3.88250947
6611, 38.6157301, 1.26968171, -4.09392778
6612, 35.4684855, 8.06372486, -2.75229572
6613, 12.8933091, -19.5398814, -3.56962147
6614, 37.7014594, -7.2065131, 3.61333917
6615, 37.1208853, -6.43313101, 4.78919156
6616, 36.5679367, -3.73781768, -6.58949517
6617, 38.049898, -3.50846554, -6.56524575
6618, 19.9271379, -24.4097863, 2.58879904
6619, 39.4707787, 1.20338988, 3.81819415
6620, 28.6184934, -23.6231642, 0.767695399
6621, 21.0120546, -19.935694, -5.75728928
6622, 20.8803772, -20.0074145, -6.96206762
6623, 21.0218581, -18.9789845, -6.57546648
6624, 10.8604847, -19.2438467, 4.84985142
6625, 10.717996, -19.24622, 4.58765488
6626, 10.8737215, -19.74415, 4.8522397
6627, 28.9175039, -20.6388571, 2.51859437
6628, 28.9153876, -20.6284168, 0.134185353
6629, 28.3332538, -20.6295438, 1.02340914
6630, 37.1518179, -13.4063036, 8.12991621
6631, 35.9938728, -13.5253138, 5.75823074
6632, 35.1523406, -13.4123989, 7.13074485
6633, 37.1497385, -12.4368805, 8.20875286
6634, 35.9946555, -12.5571175, 5.83786584
6635, 33.3144341, -17.0079198, -5.86792482
6636, 33.4370713, -17.9172251, -7.07928458
6637, 33.8476674, -17.0282062, -7.64983968
6638, 39.4976321, -4.84532892, 5.18933901
6639, 37.4127208, -4.6554024, 5.57612539
6640, 39.4734137, -2.89227556, -2.87137527
6641, 35.4204726, -8.40614015, 0.925624154
6642, 37.982228, 7.69009104, 1.97482793
6643, 38.0470472, 8.80172779, 0.846568706
6644, 26.4244995, -19.922131, 1.05468261
6645, 37.4047821, 0.796570456, 0.549580728
6646, 16.1952961, -24.6964159, -3.34257193
6647, 15.6473271, -24.2499988, -3.60905369
6648, 39.938798, -3.88781963, -0.404190506
6649, 40.0188096, -4.0676176, -0.87139474
6650, 20.6626828, -23.5786311, 3.21114748
6651, 20.7654086, -23.1674185, 3.36267886
6652, 35.9923249, -10.7897758, -6.66887693
6653, 35.9901092, -10.59297, -5.11543443
6654, 35.692766, -16.2190311, 1.99906619
6655, 35.8174653, -15.9656167, 4.38875328
6656, 35.7374654, -16.229707, 4.35725288
6657, 35.7969987, -15.959519, -2.00316144
6658, 35.7342774, -16.2278272, -4.3575349
6659, 35.8217977, -15.9663382, -4.39016019
6660, 35.6943865, -16.219084, -2.00437603
6661, 35.7986306, -15.9637667, 2.00495796
6662, 39.6834002, -3.70392738, -4.19682025
6663, 22.3523879, -17.4753243, 5.20940899
6664, 23.0266834, -18.9196957, 4.51587113
6665, 21.0316034, -18.957134, 6.02131652
6666, 31.3184328, -20.3803418, 7.25262779
6667, 35.0249557, 2.78615362, 7.41438725
6668, 35.196968, 3.77631383, 8.08557107
6669, 29.8767807, -23.6167433, 0.106619848
6670, 27.6183943, -22.3043828, 0.974821127
6671, 22.6497105, -24.3790187, -3.42812285
6672, 23.9158394, -23.917286, -3.7161251
6673, 23.2864979, -23.1831944, -3.64798165
6674, 38.5476404, -7.56990677, -1.11430782
6675, 38.9762622, -7.40674923, -1.41257961
6676, 38.4573799, -7.26054614, -1.622309
6677, 35.7896605, -18.5523147, 8.34427083
6678, 35.8429485, -18.0605343, 7.71835321
6679, 35.2890382, -18.7599243, 7.45751601
6680, 35.2765927, 7.55244826, -1.96979769
6681, 36.2074584, 8.41660268, -2.31517257
6682, 34.2336971, -17.8795044, -2.51788893
6683, 34.2281994, -17.8760825, -4.89107785
6684, 35.0855314, -5.98485676, -4.63308355
6685, 37.9713853, -4.27886965, -0.681263143
6686, 38.456401, 3.90276442, -0.354317166
6687, 9.34900655, -18.9917729, 0.968044186
6688, 8.58371072, -18.9891334, -0.262823141
6689, 34.2903689, 0.549773795, 2.42663427
6690, 35.0588033, 0.0743332917, 2.44931594
6691, 37.3861111, 6.37797603, -3.4524747
6692, 36.7809703, 7.06610644, -4.37907978
6693, 10.4130553, -20.7642741, 5.50773534
6694, 10.8007245, -20.7610931, 5.89879559
6695, 11.2604249, -19.7352994, 5.34065797
6696, 37.3734265, -1.29681303, 1.19408792
6697, 37.378184, -1.389178, -0.247046852
6698, 37.3943225, -0.134942766, 0.743220855
6699, 36.9689144, 2.56962714, -8.2108256
6700, 37.7318663, 2.78821231, -7.84139736
6701, 37.7277532, 2.04263177, -8.57339315
6702, 37.958213, 2.99830707, 0.817635814
6703, 31.9380967, -18.4646674, -8.33747739
6704, 31.9371852, -18.4658168, -5.9595145
6705, 35.090085, 2.65741216, -7.70711654
6706, 35.1815744, -16.5333512, -8.81656242
6707, 34.9813529, -16.1065578, -8.81661609
6708, 24.4352645, -19.1332497, -1.55014647
6709, 39.9131388, -1.65935246, 4.8708043
6710, 35.0644931, -6.48708641, -3.51366031
6711, 34.2856946, -6.00440046, -3.59851489
6712, 34.2801508, -7.17105564, -3.41896317
6713, 35.2561243, -6.45025035, -2.4662379
6714, 21.6451579, -20.4896818, -4.79695261
6715, 23.1478572, -20.5158819, -3.6224128
6716, 23.6815191, -20.4941372, 3.70998441
6717, 23.6526329, -21.8564014, 3.70619613
6718, 22.7442868, -21.9242697, 3.43094934
6719, 38.9375989, -6.09018612, 1.80199592
6720, 35.931475, -14.1917485, 4.51175452
6721, 35.9241009, -13.8005426, 4.38385234
6722, 35.9377983, -14.211732, 2.13707857
6723, 35.9744634, -13.8227915, 2.00834246
6724, 14.5408339, -20.4666835, -6.16136279
6725, 19.3500553, -17.5334666, -3.68634519
6726, 13.081203, -19.9955074, 6.22774554
6727, 13.2411739, -19.9909097, 6.92245324
6728, 12.7732599, -19.9998255, 6.75643046
6729, 32.7334388, -18.2970863, -8.33661595
6730, 37.7156059, 7.07465165, 3.61436479
6731, 36.9352165, 6.92851205, 3.89670336
6732, 34.2996867, 3.17084639, -1.74586909
6733, 34.276966, 2.50793898, -1.29156424
6734, 20.4555211, -18.4735962, 6.42006366
6735, 18.9934683, -18.6101419, 7.21806994
6736, 20.8517874, -18.9554185, 7.09730726
6737, 19.0746649, -19.0161896, 6.85330168
6738, 15.6747493, -21.6353717, 2.99366452
6739, 14.9068064, -22.759063, 3.69296893
6740, 15.2958491, -22.7604903, 3.90150617
6741, 35.2683259, -18.7618689, -7.50284652
6742, 35.7257572, -18.5962658, -8.3444037
6743, 35.8469661, -18.0213185, -7.57083672
6744, 38.9687517, 6.05362804, 1.81064721
6745, 39.4396592, 3.86376839, -0.354142352
6746, 39.8867306, 3.99593457, -0.735623473
6747, 40.0334579, 7.60743228, -1.02092602
6748, 40.0499918, 7.3177108, -1.64818917
6749, 13.7805495, -17.52942, -1.35869832
6750, 34.4646128, -15.8943627, -8.81650676
6751, 14.4556983, -21.6377484, 1.81163929
6752, 26.4803058, -19.0288428, -0.271445124
6753, 25.4224057, -19.015513, -1.53187901
6754, 25.6164172, -18.9959637, 0.94250985
6755, 38.0382582, -2.47332057, -0.123585499
6756, 38.0570415, -2.94413737, 0.742777307
6757, 37.3641453, -1.91982608, 0.550312866
6758, 24.4033259, -18.2754931, -1.8248624
6759, 23.5396179, -17.503113, -2.67864172
6760, 23.8077982, -18.9917689, -2.44106098
6761, 39.4965501, -3.32985359, 1.63883289
6762, 39.5024973, 3.30744497, 1.64459896
6763, 36.2508043, -17.4531764, -7.37735202
6764, 34.8964489, -17.1722315, -7.46869669
6765, 35.52729, -17.2796435, -6.89364288
6766, 36.4157122, -16.4677426, -7.05549956
6767, 35.061679, -16.184543, -7.14282151
6768, 35.7842085, -16.3590812, -7.62836227
6769, 13.9914314, -22.6400859, 2.59130471
6770, 13.5249393, -22.1080563, 1.98586645
6771, 36.0267308, -19.4238631, 1.1963456
6772, 36.0227959, -20.4361473, 2.39625566
6773, 33.2282228, -20.5979556, 8.24564056
6774, 35.3626592, -2.50738715, 5.81182765
6775, 35.2638461, -2.22019995, 4.83861552
6776, 35.4411561, -3.55635006, 5.05441161
6777, 30.8693897, -21.8874769, 2.64136517
6778, 29.9977862, -20.4167531, 0.141606722
6779, 31.0542756, -20.0509435, 2.5013121
6780, 32.9952436, -21.1876076, 2.8753729
6781, 12.4235809, -19.9851798, 6.41086999
6782, 12.1559883, -20.7555872, 7.11075871
6783, 12.5006471, -20.7570383, 7.45767796
6784, 12.5022039, -19.2237726, 7.16723605
6785, 35.2589543, 3.7355365, -1.07291584
6786, 39.5102613, -7.38128231, 0.0249126687
6787, 14.7134768, -19.7733071, -7.80197691
6788, 36.1073919, -0.600564048, 2.75242025
6789, 37.8905569, -0.926644413, 4.46235138
6790, 35.2842556, -2.22304265, 8.58811646
6791, 35.1213835, -1.95508376, 7.56820038
6792, 35.8905907, -2.12641413, 8.50827523
6793, 34.8797785, -3.20389883, 8.4924643
6794, 34.2772717, -3.28596913, 8.54040091
6795, 35.2682078, -3.90052282, 1.36742112
6796, 23.06501, -19.9849713, -5.81823815
6797, 37.8561518, 4.38071402, -0.832856322
6798, 39.4980707, 3.53550222, 5.58500228
6799, 13.6702472, -17.5608522, -0.406158731
6800, 13.5206744, -17.0904451, -0.786396467
6801, 21.3899642, -17.9850543, -0.380160851
6802, 21.43815, -18.3444856, -0.0419429536
6803, 22.015561, -17.3668709, 0.92408233
6804, 21.1081922, -17.5451598, 0.241391279
6805, 21.9103259, -17.0019662, 0.579071736
6806, 14.1249835, -24.3867105, 2.25507132
6807, 14.3852168, -24.3980316, 2.32483401
6808, 14.0824355, -24.2639314, 2.51053949
6809, 12.0956268, -20.4784825, 2.89815408
6810, 22.9811103, -18.8849351, 1.69929242
6811, 22.1598051, -18.8877968, 1.05536189
6812, 22.3761058, -17.3479304, 2.26617267
6813, 23.5481523, -21.1212154, -3.72144934
6814, 34.2785389, -3.57164634, -8.04023062
6815, 36.0079024, -4.72698231, -6.81416114
6816, 36.2676585, -3.70093748, -7.42504723
6817, 35.9943352, -4.64925486, -8.87242549
6818, 33.2277833, -20.5997734, -8.24062347
6819, 36.0430961, -15.2568482, -8.40258714
6820, 36.6971907, -22.6849429, -4.51767015
6821, 36.8032065, -22.5133094, -4.52341305
6822, 36.6250977, -22.1697297, 4.52471986
6823, 36.6931136, -22.6811956, 4.53913079
6824, 36.8053791, -22.5103932, 4.52034338
6825, 38.4471975, -4.12295237, -0.306027419
6826, 38.0502113, -4.1955669, 0.0937978713
6827, 37.7344958, -3.2947969, 7.92184922
6828, 36.8718305, -3.34153718, 7.91347791
6829, 37.9953121, -5.49381127, 4.56516028
6830, 34.3192156, -17.9114868, -7.4006896
6831, 34.4592757, -19.5258597, -6.80097944
6832, 34.3053662, -18.5603908, -6.37182446
6833, 33.569, -19.4746972, -6.46774087
6834, 38.2266046, 3.92088554, -7.76729293
6835, 38.23313, 4.20564748, -7.65758673
6836, 38.2343051, 3.89934447, 7.76180842
6837, 38.2396575, 4.19199821, 7.65522248
6838, 34.8632768, -20.0148574, 2.91181326
6839, 37.3996583, -0.759827335, 2.479973
6840, 37.4409312, 0.444777358, 2.06677829
6841, 27.871965, -21.5037423, 0.3201715
6842, 36.0320488, -10.022836, 1.05860181
6843, 37.1051744, -8.97805201, 0.0766316331
6844, 36.0139213, -10.345865, -0.662575812
6845, 11.1227069, -20.4918386, -3.00622513
6846, 10.8769384, -19.3495591, -3.28157397
6847, 37.4891815, -14.4794085, -8.19541731
6848, 37.107048, -13.6265627, -8.19753639
6849, 36.9557812, -14.8314635, -7.09831656
6850, 36.4835758, -15.0215221, -8.4030651
6851, 35.9899086, -12.3595567, -2.6532582
6852, 35.9784296, -11.5784512, -3.67330241
6853, 36.0252121, -9.60707361, -1.67278082
6854, 35.279481, -0.43871175, 3.53392789
6855, 34.284206, -0.639101833, 2.47944774
6856, 20.9710352, -17.5172182, -5.71207797
6857, 15.4979988, -17.5301726, -3.87420424
6858, 34.9941647, -24.1115768, -4.51785789
6859, 35.1645266, -24.0071321, -4.52162709
6860, 35.0642312, -23.6631252, 4.53181441
6861, 35.1708021, -24.0048217, 4.52258462
6862, 34.9921457, -24.1033167, 4.54294267
6863, 13.0270196, -19.2607193, 7.49448636
6864, 35.97596, -13.5162931, -4.38533627
6865, 37.4522218, 5.00244331, -7.17439034
6866, 37.8748495, 5.23237659, -5.54794625
6867, 16.1556856, -18.2591634, -4.19945242
6868, 35.6138113, -17.1358907, -5.99218653
6869, 36.5011683, -16.324603, -6.15618957
6870, 14.3917256, -24.2544919, 2.8732926
6871, 14.3551605, -24.3472862, 2.57658407
6872, 14.63942, -24.3816345, 2.61552733
6873, 34.279703, -3.12879374, 4.60690346
6874, 13.977132, -18.9155403, 5.99090341
6875, 35.3344601, -15.7833505, -7.71775436
6876, 36.1286477, -2.55385771, 0.198225577
6877, 35.069332, -2.80043614, 0.813038916
6878, 15.2634228, -22.713515, -3.87647357
6879, 14.8977518, -22.7426709, -3.68498206
6880, 37.8997362, -7.67513778, -0.731846904
6881, 38.1054596, -7.82684606, -0.237555859
6882, 34.2862459, 3.1710154, 6.57212176
6883, 24.3285154, -24.5105761, -3.73971247
6884, 37.8347339, 6.97898835, -4.71170473
6885, 37.9054658, 6.69858105, -3.61625252
6886, 23.5890504, -18.0582355, 1.78441611
6887, 38.0547661, -3.57177042, 0.576747294
6888, 13.1807824, -20.5749263, -4.53890609
6889, 24.5983385, -21.9141768, 3.36403223
6890, 24.1995945, -21.1913357, 3.60947165
6891, 36.1981212, 2.52817676, -8.19555816
6892, 36.9467003, 2.08209869, -8.59808613
6893, 36.9264677, 2.77469344, -7.77741992
6894, 36.0006048, -9.24282931, 5.41299043
6895, 14.0421054, -24.6915179, 1.40197229
6896, 14.0190871, -24.0963256, 1.95714259
6897, 36.2870573, -5.89755772, 6.63085644
6898, 38.2658852, -6.61232284, 5.81591566
6899, 36.0205683, -7.63367839, 5.74280337
6900, 33.5920078, -24.2205517, 4.54010601
6901, 33.8322215, -24.1989848, 4.54490719
6902, 34.0214231, -22.8845037, 2.40250444
6903, 33.880631, -22.1438978, 2.92432096
6904, 33.7797414, -22.9168763, 2.40531615
6905, 11.1686805, -18.9747102, -2.36235274
6906, 39.5072819, -4.61675745, -4.72076911
6907, 34.2790568, -3.44551981, 5.84294258
6908, 33.2548998, -18.9427244, 0.393407936
6909, 33.430045, -18.7250153, 2.76371666
6910, 33.4323261, -18.7281976, 0.393254953
6911, 33.2531458, -18.9413977, 2.76574681
6912, 35.9810401, -12.0104682, 3.04416842
6913, 35.9885434, -11.7882036, 1.04256768
6914, 35.9963161, -13.3158352, 0.00149696576
6915, 36.0016285, -13.5503826, 1.99576011
6916, 35.9930882, -9.11914615, -5.58863252
6917, 37.2154008, 0.115255798, 3.14871056
6918, 25.1389884, -19.905567, 3.603326
6919, 25.6263361, -19.1880269, 3.28518712
6920, 33.6139274, -16.8748831, 8.06753593
6921, 33.4566496, -17.1073275, 5.69312454
6922, 33.4579397, -17.1053312, 8.06756861
6923, 33.6134384, -16.8787845, 5.69296967
6924, 31.3100411, -19.9310415, -4.8729397
6925, 39.4886441, 3.64364216, -5.86590594
6926, 38.2312467, -2.77009773, -6.05497615
6927, 9.25425291, -19.729464, -2.10069849
6928, 8.64743407, -19.7563956, -1.21581474
6929, 8.65978107, -20.7494722, -2.14639871
6930, 9.05272227, -20.485214, -1.5294535
6931, 34.2821788, -2.59216076, -1.22700716
6932, 35.2684475, -3.70163492, -0.993348998
6933, 35.3720318, -2.46116954, -0.671765349
6934, 31.5498886, -19.7901488, -4.88181546
6935, 38.5804285, -0.357425516, 4.33576865
6936, 39.0370239, -0.510279918, 4.33236265
6937, 32.3699078, -19.6145016, 2.76466762
6938, 39.498773, 4.84564227, 5.18563828
6939, 37.5366036, 4.63825528, 5.52825315
6940, 36.0171445, -5.9381249, -7.66708437
6941, 35.9958722, -6.88612522, -8.86556735
6942, 27.7608383, -24.3761695, -0.711054623
6943, 24.5577075, -21.1201535, -3.35311106
6944, 24.1870232, -21.8915973, -3.62237806
6945, 26.8010159, -23.7249529, 2.83965053
6946, 39.4570479, 0.75788726, -3.8442054
6947, 39.4708863, 1.234946, -4.01755778
6948, 29.734629, -20.501122, 0.14155495
6949, 29.7333841, -20.5117236, 2.51979708
6950, 34.6560701, -16.9494121, -8.26579424
6951, 37.9163596, 4.17841417, -0.241016296
6952, 37.9770279, 4.51156174, 0.793180553
6953, 38.0221603, 3.58225812, 0.481200542
6954, 38.2277465, 1.44515963, 7.16659508
6955, 38.0092761, 3.34097985, 7.0906615
6956, 36.3038302, -5.97290024, -6.80481927
6957, 35.0726726, -7.25369725, -5.45799082
6958, 33.5228476, -17.4933476, -8.90729376
6959, 33.143478, -17.406883, -8.90744999
6960, 33.325705, -17.1262674, -8.90746451
6961, 35.9876489, -11.8931143, 5.0487513
6962, 34.2128904, -16.1419312, -8.81637675
6963, 35.9934658, -9.64582756, 7.79919755
6964, 35.9839343, -8.01455322, 8.09823591
6965, 35.9817796, -8.05791628, -8.28062486
6966, 36.0078822, -7.70454183, -5.91474573
6967, 34.282626, -2.83117022, -8.93836899
6968, 38.5000516, 3.72236106, 1.01101272
6969, 14.2198256, -24.3885392, 1.98858516
6970, 12.4337105, -20.4898072, 2.7106712
6971, 21.9955269, -24.9731471, -3.24882646
6972, 17.3220549, -18.7314293, 3.9006152
6973, 38.2847489, 0.175488211, 3.89990027
6974, 33.7786882, -22.9196583, 0.391138901
6975, 38.9806236, -0.33027895, -3.85821234
6976, 38.9200639, 0.00227539844, -4.25769325
6977, 39.8039709, -0.91170059, -4.59055847
6978, 38.2440673, -0.609796508, -4.40622106
6979, 34.0367697, -17.1746063, -8.90746009
6980, 33.6770425, -17.193887, -8.9074203
6981, 33.90215, -16.7922404, -8.90753855
6982, 8.67672807, -20.7586488, -1.30183677
6983, 12.7509264, -20.750852, -7.39057127
6984, 12.093843, -20.7535425, -7.0115624
6985, 20.9929988, -19.9446188, 5.77020875
6986, 20.9545877, -20.0000664, 6.96504199
6987, 31.0564574, -20.0448604, -4.87165834
6988, 40.1018885, 6.77738599, -1.80840777
6989, 40.1058373, -6.99609223, -1.75932931
6990, 29.0561346, -23.6262267, 2.15487642
6991, 35.0583455, -7.34325168, -4.18361444
6992, 35.1288574, -0.995820072, 8.29130402
6993, 36.0573294, -0.744652848, 8.64849388
6994, 35.4683101, 0.27775859, 9.0180481
6995, 35.2916473, -1.16999537, 9.11898112
6996, 36.1911365, -0.826864493, 9.48034832
6997, 34.0710553, -24.1255158, 4.54030429
6998, 34.2580293, -22.8260702, 2.40223552
6999, 35.98848, -9.518215, -7.97357276
7000, 38.2602559, 0.581541181, -8.6701167
7001, 38.2479033, 0.931937573, -8.67658888
7002, 33.7465718, -16.6325214, 5.69156127
7003, 35.9952599, -10.9189489, 6.50089416
7004, 13.1191637, -19.1426716, -0.834154859
7005, 38.2608316, -1.48636976, -5.05422644
7006, 38.0670581, 3.41179467, -5.52120756
7007, 35.9979901, -12.1392876, -0.659543429
7008, 34.4528851, -19.4875864, -8.6576262
7009, 35.415793, -2.3983819, 6.94246148
7010, 34.2861672, -3.31796683, 7.03560683
7011, 35.9995976, -6.89390005, 8.86301261
7012, 36.0023998, -4.66266233, 8.87132106
7013, 18.0771244, -19.2967069, -8.88327171
7014, 18.1054884, -20.4702421, -8.85949715
7015, 19.8078608, -19.31664, -8.85433217
7016, 35.249091, -3.50962504, 0.294231026
7017, 34.2924233, -2.62412543, -0.114324916
7018, 13.3217982, -19.0684609, -0.296464542
7019, 35.1215297, -11.4696131, -7.96793424
7020, 34.2505392, -15.3977027, -6.44237254
7021, 34.3122104, -15.1262995, -6.44304384
7022, 34.8669906, -14.9872994, -6.02807837
7023, 34.9258983, -14.7169724, -6.02911802
7024, 38.0094601, 5.46190406, 4.5480733
7025, 13.9624519, -17.497119, 5.59120809
7026, 14.6040817, -18.216118, 6.66192482
7027, 23.1149028, -21.895467, -3.63910178
7028, 28.2275392, -20.2454066, -2.50205291
7029, 28.2190934, -20.2327976, -4.87711645
7030, 28.4921522, -20.1999549, -4.87432046
7031, 24.2078644, -20.5134553, -3.60421938
7032, 38.2581943, -4.77715921, 7.39009133
7033, 38.0125418, -7.77641144, 1.94256937
7034, 37.1425288, -7.82952963, 2.04250103
7035, 37.9726508, -6.87099878, 2.56271154
7036, 36.0075337, -20.6810775, 2.39867174
7037, 33.1925042, -20.8288093, -5.29751567
7038, 36.2009778, 0.350425561, -8.92897347
7039, 35.9989468, -1.12094922, -9.00231518
7040, 36.2066403, -0.822986017, -9.47917791
7041, 36.895317, -0.251547669, -8.89733531
7042, 36.7597092, -1.69784992, -8.82538252
7043, 37.4186089, -3.6265445, 6.35699749
7044, 36.0201747, -20.6833549, 0.388888402
7045, 37.1572701, -19.2906498, -4.50912704
7046, 37.1307454, -18.2783519, 3.3315981
7047, 37.160987, -19.29211, 4.5060942
7048, 33.9288026, -24.449456, -4.53686752
7049, 33.7463827, -24.5163478, -4.51196471
7050, 33.7290077, -24.5167726, 4.52079516
7051, 33.9216346, -24.4586968, 4.53662668
7052, 36.3872929, 3.62372485, -8.73745274
7053, 35.2115561, 3.14625389, -8.48662478
7054, 34.2882487, -3.23190283, -1.831979
7055, 21.4495241, -18.4086711, -0.674957879
7056, 39.434986, 4.39064285, 0.653409025
7057, 39.4363212, 3.59832756, 0.244211653
7058, 35.9962958, -13.5256927, 4.3774235
7059, 10.4962548, -19.1846762, -4.77854853
7060, 10.3747698, -19.1963878, -4.49781569
7061, 15.3172136, -24.0474819, 3.92680888
7062, 37.9685538, -0.55046294, 3.32485226
7063, 18.5409504, -19.3105868, 8.6278626
7064, 18.5425508, -20.4814225, 8.65031049
7065, 17.5342151, -20.526491, 8.96036033
7066, 17.5395109, -19.2384855, 8.95310714
7067, 33.6468019, -18.2744026, -7.78409324
7068, 35.9439731, -14.8875477, -0.000478921642
7069, 35.9468717, -13.5950732, -0.00102833233
7070, 35.9704763, -13.8183187, -2.01442185
7071, 16.254966, -17.5306788, -3.99455565
7072, 35.1692165, -16.7702059, -8.04232549
7073, 34.2320857, -19.6237675, -8.66008093
7074, 13.0365211, -20.7628742, 7.7674374
7075, 20.5592013, -20.4988604, 8.47182448
7076, 24.8484479, -24.5182678, 3.44695501
7077, 24.8034273, -23.1901801, 3.34009137
7078, 37.9892538, -7.33738888, -2.31683785
7079, 37.0323378, -22.1235124, -4.52523397
7080, 36.9506078, -22.3076298, -4.51722726
7081, 37.7851083, 8.82823462, -1.21773257
7082, 36.9965691, 8.61951784, -1.7395199
7083, 37.779931, 8.26988503, -2.10593877
7084, 8.68260964, -18.9550293, 0.8607186
7085, 9.76909571, -19.0085148, 1.98371888
7086, 21.3909788, -18.9681903, -1.5296762
7087, 21.1803256, -17.5334268, -1.76774716
7088, 12.9784386, -17.2018074, 0.900068715
7089, 30.3040831, -23.3617251, 2.67822704
7090, 29.1892214, -23.1589857, 2.68825869
7091, 37.9866723, -7.70817314, 0.779995892
7092, 36.0026465, -13.5447711, -2.00123049
7093, 34.4865988, -22.7382887, 2.40406809
7094, 36.9476166, -22.3105955, 4.51828752
7095, 37.0303947, -22.1264573, 4.53013902
7096, 37.163006, -21.9010833, -4.51550252
7097, 37.2273998, -21.7138687, -4.52201849
7098, 37.2254415, -21.7152025, 4.52807159
7099, 37.1611383, -21.9048115, 4.52045998
7100, 35.3957233, -23.899145, -4.51551782
7101, 35.5527155, -23.7765019, -4.52325148
7102, 35.5553018, -23.7729401, 4.53187725
7103, 35.395555, -23.8981367, 4.52225148
7104, 34.2001577, -15.7005046, 6.003933
7105, 34.0911269, -15.9529062, 8.37961618
7106, 34.2018168, -15.6974633, 8.37978979
7107, 13.5195306, -23.34194, -1.98208554
7108, 13.9836337, -22.620569, -2.58579533
7109, 13.9797079, -23.8986214, -2.61189273
7110, 9.433993, -18.7679718, -5.00310619
7111, 10.7139559, -19.1818032, -5.01219228
7112, 35.279102, -23.5481289, 4.5452921
7113, 38.2527749, 0.917439676, 8.66822351
7114, 38.266, 0.56951389, 8.66390113
7115, 35.150795, -11.7645648, 7.79567412
7116, 37.8771313, -1.62880848, -5.30497562
7117, 18.1042515, -18.7406703, -4.38419286
7118, 35.183889, -15.7458868, 8.38026357
7119, 35.9790285, -20.9225832, 2.39432743
7120, 35.9809448, -20.9248737, 0.3900536
7121, 32.7358014, -18.2996645, 8.38710785
7122, 32.4675299, -18.586727, 8.38751644
7123, 17.8196896, -18.0360158, -3.86360067
7124, 18.3981812, -17.1665725, -4.56078652
7125, 17.4895116, -18.0939731, -4.26801368
7126, 34.2514301, -15.3947898, -8.81671082
7127, 13.588178, -17.1840915, -0.107980171
7128, 16.2949634, -17.5329128, 3.82057228
7129, 12.6462937, -17.4882707, 5.19391498
7130, 31.5519916, -19.7909205, 4.8665757
7131, 32.5964331, -19.2363159, 5.88659492
7132, 31.9128482, -18.4838169, 6.01833694
7133, 37.0173305, -3.34840234, -7.88021905
7134, 37.7565981, -2.91970141, -8.29505939
7135, 36.9801623, -3.54290902, -8.86949063
7136, 37.8722877, -1.56405672, -6.8196669
7137, 34.4470063, -16.5949994, -7.55893186
7138, 14.2950686, -22.6351212, -2.95920364
7139, 14.2986507, -23.901538, -2.96749245
7140, 14.5449822, -24.0401002, -3.39479152
7141, 14.5430258, -22.7766031, -3.3883017
7142, 36.9685814, -3.54760197, 8.88123277
7143, 10.6409541, -16.890125, -1.78691361
7144, 9.43862416, -18.7688465, 5.01038069
7145, 11.0861632, -19.2437301, 5.08194555
7146, 39.5019472, -3.52706055, 5.56707303
7147, 38.0666255, 0.999331849, -7.47323509
7148, 20.4625491, -17.5427876, -6.50152523
7149, 39.5051079, -6.27942809, 3.27794937
7150, 37.801995, -18.2257733, -3.30151689
7151, 20.8022866, -17.5185964, 1.63830805
7152, 21.3399446, -18.3248921, 1.3293341
7153, 33.9531515, -13.7770831, 0.000138375819
7154, 35.4838351, 0.291654564, 8.94178252
7155, 36.2064176, 1.51420236, 8.48932683
7156, 36.9207584, 0.25582202, 8.93693457
7157, 26.7110446, -20.2562584, 5.00269974
7158, 32.4952502, -18.5780309, -8.33704676
7159, 15.9950431, -18.6688654, 7.07655563
7160, 35.7756767, -23.649257, -4.48848308
7161, 39.4943038, 6.29758597, 3.27754896
7162, 37.9976406, 6.82980016, 2.48770211
7163, 34.2873795, -15.4364046, 6.00587328
7164, 34.2883342, -15.4327652, 8.38006536
7165, 9.25387598, -19.2015876, -2.08840096
7166, 9.39181547, -19.2377766, -2.36875174
7167, 37.9532231, -7.23016553, 3.68025622
7168, 37.9244915, -1.82797891, -6.35304036
7169, 16.7462238, -17.5441512, -3.83366401
7170, 35.9213864, -21.159799, 2.3991486
7171, 14.2931166, -22.6397386, 2.96135059
7172, 38.2862615, -6.55760665, 1.66960169
7173, 37.8012509, -18.2260989, 3.30418232
7174, 14.1923614, -17.522696, 1.61797148
7175, 13.8831326, -17.5465229, 0.27142289
7176, 13.6857864, -18.1535179, 1.32682842
7177, 38.2298278, -6.58803418, -5.87469778
7178, 34.1762667, -24.4264084, 4.50219163
7179, 34.186364, -24.4264506, -4.49391429
7180, 37.3404486, -21.4848142, -4.48217217
7181, 37.3377975, -21.4859101, 4.49344816
7182, 35.7782849, -23.6448188, 4.49879784
7183, 39.5147673, 4.60303305, -5.22145002
7184, 35.2695263, -7.47113131, -2.02686352
7185, 35.300718, -8.22394357, -1.16546662
7186, 34.2846565, -9.17782266, -1.98534759
7187, 34.2824034, -8.3678016, -2.8719455
7188, 32.0705222, -18.7257371, 8.38752795
7189, 38.0510269, 7.05031401, -1.4062755
7190, 34.4386071, -17.1144751, -8.94964035
7191, 18.2123249, -19.004126, -3.22085424
7192, 14.4499459, -17.5178316, -2.46866008
7193, 37.7712066, -0.352362971, 4.28237372
7194, 38.1546123, 6.53792121, 1.6498744
7195, 39.6479503, -3.78237218, -6.10923211
7196, 38.9674952, -2.03804313, -6.15521698
7197, 39.6581366, -2.07140506, -6.06840643
7198, 37.8188049, 6.68002838, -1.71145858
7199, 35.0693468, -8.71525008, -5.12872616
7200, 37.2593825, 3.4649722, 6.82947795
7201, 33.0579794, -19.1401587, 0.392941536
7202, 33.0570128, -19.1392982, 2.76805904
7203, 24.0154883, -18.7542569, 5.98311287
7204, 38.2841342, -8.7027856, 1.36205336
7205, 35.8368281, -21.3895652, 2.39739245
7206, 34.7082786, -22.6329299, 2.40511332
7207, 32.6146093, -19.4788233, 2.76638952
7208, 36.2181246, 8.5840742, -1.71038706
7209, 36.936723, 8.19876833, -2.0857465
7210, 37.712698, -2.81862053, -8.91509692
7211, 37.6955689, -0.574941756, -8.88141358
7212, 18.7253691, -17.5246588, 3.82818704
7213, 37.4330655, -21.0537578, 4.52637761
7214, 37.4339513, -21.0593807, -4.51877554
7215, 36.7413312, -2.14697458, 8.50724222
7216, 28.8468049, -21.8974137, 2.65304673
7217, 39.4772806, -1.0374576, -3.37599505
7218, 38.8176822, -1.27421264, -4.11067969
7219, 8.6796964, -19.2358483, -1.18616771
7220, 34.1648891, -15.659708, -8.81658712
7221, 13.6409625, -20.577692, -4.20280308
7222, 14.0108167, -20.5652925, -4.50851105
7223, 13.5376587, -23.3358021, 1.97826653
7224, 13.9876223, -23.9005481, 2.60378896
7225, 37.8943252, -0.93118701, -7.5481209
7226, 15.5739788, -19.7883552, 8.42365439
7227, 15.7301955, -20.7642022, 8.53608118
7228, 15.1428201, -20.7623032, 8.58952599
7229, 38.2570104, -4.81687394, -7.36416639
7230, 30.5351239, -18.8529444, -7.12537775
7231, 16.7940731, -18.7837428, -4.45687696
7232, 14.2969595, -23.9040384, 2.96621458
7233, 14.5427938, -24.0288526, 3.38973675
7234, 14.5439713, -22.7710203, 3.38560377
7235, 35.7335417, -21.610674, 2.39608411
7236, 34.9201206, -22.5101463, 2.4001231
7237, 33.4914859, -16.792534, -5.86805188
7238, 8.89190413, -19.26136, 1.4232638
7239, 8.01279261, -18.7705581, 0.28227388
7240, 8.81661214, -19.2632889, 1.10664296
7241, 33.9573504, -16.1969668, 8.3795183
7242, 23.7963993, -17.488235, 3.2737201
7243, 24.359093, -19.0363867, 2.58984875
7244, 24.5599581, -16.82717, -1.76235322
7245, 33.953411, -13.7764308, 4.74999221
7246, 33.9535318, -13.7763403, 2.37511788
7247, 33.9532205, -13.7770842, -2.37373361
7248, 37.7740395, -6.69815301, -3.58094621
7249, 16.3475939, -20.7633924, 8.70561336
7250, 16.2626567, -20.0151426, 9.37865782
7251, 9.65670867, -20.4875099, 2.54031707
7252, 35.5862765, -17.1819244, -5.99286404
7253, 36.7461341, -1.16964735, 9.03544705
7254, 30.4509054, -18.9239745, 7.12520591
7255, 20.1387002, -20.5196968, -8.86029515
7256, 35.6032607, -21.8175894, 2.40504924
7257, 35.6042735, -21.8205523, 0.390743313
7258, 35.1171163, -22.3653986, 2.40173354
7259, 38.9466463, -2.13849099, -4.60145096
7260, 39.4624521, -1.8585446, -3.66671879
7261, 39.7985815, -1.67718623, -5.08249648
7262, 38.5831859, -2.0985492, -5.81742635
7263, 38.9911866, -2.04428794, -5.51332054
7264, 24.0149005, -18.7251642, -5.95692485
7265, 38.2802378, -8.0435083, 3.60219407
7266, 39.4211794, -0.655027698, 4.35945699
7267, 39.7609609, -0.535109501, 3.52502759
7268, 18.7824413, -18.1691244, -4.09925085
7269, 35.4575341, -22.0160823, 0.389263026
7270, 35.4627845, -22.0183256, 2.40680627
7271, 35.2941132, -22.19664, 2.40508602
7272, 35.2941305, -22.1974344, 0.391352846
7273, 31.3554847, -22.9538783, -4.96314174
7274, 32.4782587, -23.2839144, -4.50595721
7275, 33.0468691, -24.5857909, -4.47139362
7276, 26.7112807, -20.2534189, -5.00167126
7277, 25.4760501, -19.8597449, -3.34394524
7278, 38.1033953, 0.614473022, -4.39561184
7279, 29.4633518, -20.5758846, 2.51948175
7280, 29.4647343, -20.567893, 0.140687746
7281, 37.703546, -1.05705261, 8.62966235
7282, 37.7163539, -3.25694848, 8.60213199
7283, 34.4076056, -21.8698119, 2.92190193
7284, 34.0566104, -17.3831544, -8.35673377
7285, 36.9667385, 8.83820222, -1.24036497
7286, 15.2886354, -24.0537959, -3.9056368
7287, 16.6641821, -19.7574859, -8.83511417
7288, 16.2772869, -20.7339065, -8.91939069
7289, 17.0933777, -20.7591839, -8.93809192
7290, 32.8436298, -19.3188796, 2.7668026
7291, 21.0185311, -17.4948795, 5.56984249
7292, 18.5376949, -17.5268834, -3.37959747
7293, 20.7792807, -18.9892558, -0.566904506
7294, 19.6500347, -19.6274657, -1.06572439
7295, 35.9769446, -13.9145447, -4.51442156
7296, 32.8439793, -19.3185106, 0.393472002
7297, 39.4903326, 0.405800159, -3.50525482
7298, 19.0751297, -19.0961952, -6.84982081
7299, 36.5130327, -15.4885464, -8.40251491
7300, 21.064204, -18.9697247, 0.540872236
7301, 34.2970333, -2.79340773, 1.0970861
7302, 14.8873222, -24.5262076, -3.04998367
7303, 14.6334959, -24.3859021, -3.2887419
7304, 14.9296284, -24.4939534, -3.33246002
7305, 9.44870653, -19.2017558, -2.65881588
7306, 23.6987914, -24.422603, -3.31044989
7307, 20.2511905, -19.3100116, 8.55939687
7308, 35.0500935, -21.196592, 2.92245816
7309, 33.499307, -16.8543782, -8.9074928
7310, 17.7238889, -19.8128059, -8.9082648
7311, 35.4658595, -23.3851865, 4.54047819
7312, 38.385851, -0.434097982, -7.50034847
7313, 38.7102682, -0.0395428818, -7.62884119
7314, 37.0402079, -21.2615416, 4.53698918
7315, 35.2799584, 2.10368446, 7.36243644
7316, 34.2755653, 2.71856611, 7.67369455
7317, 35.9949874, -10.3075662, 8.21278446
7318, 35.2772069, 1.61236232, -7.91890859
7319, 35.4560388, 2.11747727, -8.68628341
7320, 36.2045926, 1.97953648, -8.40372585
7321, 36.3936464, 2.45041931, -9.13847701
7322, 35.4563989, 1.51495421, -8.85130833
7323, 17.1135292, -17.5148579, -3.50734801
7324, 36.8773617, -19.8109377, 4.52150585
7325, 19.274507, -19.0066071, -6.3794002
7326, 29.7665716, -20.1321471, -7.1245324
7327, 29.4965002, -20.1974884, -7.12404881
7328, 29.7671474, -20.1322956, 7.12537587
7329, 35.3329531, -7.31331868, -3.12611853
7330, 38.2310649, 8.06375036, -5.00612274
7331, 37.5609318, 6.54701659, -5.16630873
7332, 37.5660258, 6.77397773, -4.9266984
7333, 34.2830427, 7.93889376, -3.05093756
7334, 35.9908523, -10.2992264, -8.20778817
7335, 28.2244354, -20.2402415, -7.25522548
7336, 35.2691086, -0.526616614, -8.44602603
7337, 28.2178061, -20.2332899, 4.8766207
7338, 28.4959152, -20.1996992, 7.25081912
7339, 28.2218528, -20.2382221, 7.25603929
7340, 28.4918809, -20.2007759, 4.87751176
7341, 38.0143472, 0.000112258295, 7.64600038
7342, 39.4942153, 0.00882940229, 7.65952722
7343, 13.0242543, -19.2572328, -7.4936384
7344, 12.7514469, -18.7554995, -7.35547109
7345, 13.0280405, -18.7608076, -7.48590093
7346, 13.0311648, -18.7613663, 7.50674623
7347, 12.7562443, -18.7544182, 7.35588777
7348, 24.6968116, -20.2625676, -5.02994026
7349, 25.1465491, -19.2363716, -3.58220383
7350, 36.3984268, -23.0198117, 4.55716195
7351, 36.5207311, -22.8623557, 4.54328594
7352, 36.7677959, -21.9705703, 4.52787977
7353, 37.9952035, 7.30910729, -2.25350366
7354, 24.1280161, -18.711978, 1.60772877
7355, 31.3107418, -19.9311953, 4.86940971
7356, 27.9377351, -20.2557122, 4.87760811
7357, 23.7661371, -22.6933346, -3.75617502
7358, 35.2214936, -16.4645061, -4.86068657
7359, 35.1950842, -16.5126237, -4.86485924
7360, 33.78191, -16.3173397, -5.86844781
7361, 21.7810336, -18.9209218, -0.630729712
7362, 36.5028504, -16.3211123, -8.40227792
7363, 36.1209034, -16.2392236, -8.40203306
7364, 17.5100657, -17.4979307, 7.66017385
7365, 17.4950127, -18.9804683, 7.64281042
7366, 37.3432492, -7.63097311, -3.15227986
7367, 39.6608237, -2.5946178, -5.12170735
7368, 14.0149513, -18.9773649, -6.55581193
7369, 13.0281934, -19.9894029, -6.69457747
7370, 36.9399235, -21.5055452, 4.52503143
7371, 25.0910601, -19.1268685, -0.72501848
7372, 18.5190298, -23.6422643, -3.60713578
7373, 14.9024969, -24.0466199, -3.71051657
7374, 25.7351199, -20.2633879, -7.26778513
7375, 27.9461665, -20.2578231, -7.25343198
7376, 25.7279157, -20.2606234, 7.27153223
7377, 27.9444211, -20.2580061, 7.2532607
7378, 23.8344188, -23.1521984, 3.70376178
7379, 8.77650994, -19.7706218, 1.10607298
7380, 8.74305301, -20.7669508, 1.06282417
7381, 8.5269416, -19.8160038, 0.0496163129
7382, 29.1901461, -20.608092, 0.140291225
7383, 35.2832835, 0.622239687, -8.42347117
7384, 15.1829168, -24.5401826, -3.29656398
7385, 15.2452297, -24.5118353, -3.54440273
7386, 15.5179512, -24.5365203, -3.47132594
7387, 29.1900765, -20.617312, 2.52294778
7388, 21.8905318, -20.2637002, -8.90024701
7389, 23.055585, -20.2156385, -6.71066366
7390, 23.962624, -20.2526031, -8.90633419
7391, 21.8902702, -20.264034, 8.89702621
7392, 23.050789, -20.2208302, 6.70674865
7393, 23.9620198, -20.2527884, 8.90645574
7394, 24.2463903, -20.2502663, 7.31052916
7395, 24.2501339, -20.2492514, -7.31074819
7396, 37.4352209, 4.45508358, -7.4896721
7397, 37.7505218, 8.69782264, 1.09691912
7398, 37.7260063, 8.95996757, 0.0714351561
7399, 38.233084, 9.48733826, 0.28204661
7400, 15.6485286, -24.4722789, 4.0906508
7401, 14.8831917, -24.5137376, 3.03887735
7402, 14.9261887, -24.4838762, 3.32048841
7403, 14.6317243, -24.3758688, 3.27936779
7404, 25.1787105, -19.072784, 0.776569393
7405, 21.6840804, -18.9437523, 0.019178312
7406, 37.7715964, 7.79638799, -3.21088999
7407, 37.7736244, 7.91187514, -2.91713204
7408, 14.9143148, -24.0387872, 3.70624951
7409, 13.3466993, -24.4406263, -1.90655995
7410, 13.799649, -23.9010911, -2.22746507
7411, 13.911854, -24.1275684, -2.41186746
7412, 36.3419061, -15.4091181, 8.32678502
7413, 36.1076056, -14.2932069, 8.32828287
7414, 35.7413723, -15.2554206, 8.32664755
7415, 37.4695883, 5.50288842, -6.81309718
7416, 11.462454, -19.2224046, 5.56266853
7417, 11.2504323, -19.2279239, 5.34691136
7418, 35.4126005, -17.4735808, -5.99305044
7419, 36.8757837, -21.7425206, 4.53511723
7420, 17.8654113, -19.2400887, 4.22356144
7421, 25.2483152, -18.9795443, -0.256386205
7422, 34.2917077, -4.06639644, -2.69804467
7423, 35.0159902, -16.8001983, -4.87189107
7424, 13.8845622, -17.4992788, -5.90508436
7425, 13.0244365, -19.0464255, -5.68262604
7426, 37.8450716, 0.651704427, -7.67678342
7427, 24.694429, -20.2734705, 5.02880835
7428, 34.3005432, 2.27179783, -8.27422358
7429, 37.7297926, 1.7342703, -8.67250943
7430, 24.7985623, -18.9945437, -2.27569017
7431, 35.1231982, -17.8493162, -7.08636817
7432, 34.8585145, -17.5254406, 7.4401624
7433, 35.0861736, -18.1672024, 6.90862414
7434, 34.3059046, -18.2248578, 7.17791849
7435, 34.2609124, -0.0303031171, 9.03127174
7436, 34.2825864, -1.19323809, 8.75094444
7437, 8.65366045, -19.2632669, -0.870302001
7438, 8.01373011, -18.768893, -0.305058519
7439, 8.58743634, -19.2520574, -0.589488611
7440, 35.4960596, -15.8554589, -4.83970739
7441, 35.5785363, -15.5966114, -4.83591975
7442, 36.6602336, -15.96133, -6.12760489
7443, 34.7771899, -15.253136, -6.0263699
7444, 12.0076029, -19.2313741, 6.82346424
7445, 16.8244675, -18.2383433, 7.32344813
7446, 39.4639825, 6.95888063, 1.80631715
7447, 18.4282326, -19.0664802, -7.55987832
7448, 32.7892224, -19.1244482, 5.2135184
7449, 33.1664682, -20.8448028, 5.37811968
7450, 17.2306739, -19.7316162, 8.95279772
7451, 16.9133023, -19.2531766, 8.91061952
7452, 16.5617553, -19.7636811, 8.89490127
7453, 35.0943425, 0.025356397, -9.00593922
7454, 34.5542063, -17.4553044, 4.86887471
7455, 34.6469575, -17.3585182, 4.8769589
7456, 35.1405105, -18.1052066, 5.81887646
7457, 35.0430058, -18.204898, 5.82428346
7458, 34.4782348, -19.4835623, 8.61502606
7459, 39.7685485, -1.84385535, 3.07562565
7460, 25.4035183, -18.7928102, 3.69423142
7461, 24.919794, -19.7036618, 2.4274079
7462, 25.2727653, -18.9960987, 1.96554597
7463, 34.3103648, -0.685000196, -8.99350576
7464, 20.3146122, -20.2773327, -8.48111263
7465, 22.1880093, -18.7505604, 7.40132684
7466, 23.0590217, -19.9657124, 5.81117664
7467, 20.3681759, -19.252758, -8.34510963
7468, 20.8583348, -20.2516445, -7.86714615
7469, 17.5112877, -17.898231, -7.63724662
7470, 17.4630551, -18.2879255, -7.63836445
7471, 36.3794321, 9.13632285, -2.44809384
7472, 35.2700591, 8.25080903, -1.09775088
7473, 39.7654252, -0.818701959, 4.43573985
7474, 15.8706132, -18.9138032, -6.73110489
7475, 20.4544446, -18.5049798, -6.48106361
7476, 39.479243, -6.93243666, 1.82095432
7477, 37.7001759, -0.576035429, -8.88004879
7478, 8.53892706, -19.27715, 0.0438793005
7479, 36.964821, 1.4599947, -8.74720697
7480, 33.6483364, -16.5623487, -5.86986779
7481, 35.0809143, -17.8895386, -5.9996083
7482, 35.1755597, -17.7893503, -5.99496817
7483, 35.9329746, -15.7482166, 8.32625893
7484, 24.1050562, -19.2735368, -3.72314004
7485, 22.1851305, -18.7421059, -7.39459188
7486, 35.901839, -17.9601237, -8.72599259
7487, 37.7473391, 8.60595504, 1.41770015
7488, 36.3376937, -17.3082357, -8.72657084
7489, 12.9043568, -17.5301983, -5.22442371
7490, 34.8886621, -18.4092287, 5.82947944
7491, 37.7598439, -0.0282251773, 8.94744796
7492, 34.9163525, -18.0888205, -6.0139669
7493, 34.3835415, -17.3513904, -7.69165831
7494, 35.2652986, 8.49199165, 0.232632829
7495, 37.5044399, 8.32391604, 2.82193459
7496, 34.2955594, -3.37164533, -4.7682342
7497, 35.06126, -18.9887762, -8.65954033
7498, 9.1298471, -18.7696294, -4.47559294
7499, 10.1956431, -19.1860938, -4.21973702
7500, 38.7879906, -0.525959618, 3.52103427
7501, 37.5561492, 6.92671874, -4.66064923
7502, 34.6331086, -18.3731237, -6.09658882
7503, 34.7655136, -19.2775625, -6.48977553
7504, 34.5666427, -20.2792523, 2.98814254
7505, 34.2800568, 8.60061339, 2.07078521
7506, 35.8983222, -17.9987811, 8.87368977
7507, 16.8233415, -19.2290172, 4.30411238
7508, 9.1946931, -20.7444311, 3.22791696
7509, 38.1484703, 7.44780063, -1.33622761
7510, 36.2146449, 0.996593191, -8.90216209
7511, 24.4551014, -17.5317851, 1.82529695
7512, 8.99666516, -19.2170648, 1.98245427
7513, 9.05273239, -19.7194643, 2.29036441
7514, 9.06535707, -19.2185416, 2.29861941
7515, 35.0415429, 2.29100494, -8.32735911
7516, 33.4815608, -24.5224237, 4.53217279
7517, 33.2536162, -24.5610141, 4.53959245
7518, 33.2848047, -24.5836042, -4.50345009
7519, 33.5007815, -24.5188385, -4.52816677
7520, 37.707549, -1.05595781, 8.62607452
7521, 38.6861216, 7.39542951, 1.41528653
7522, 36.2204601, 8.75429519, -1.13317605
7523, 36.2086603, 8.93039898, 0.218752244
7524, 36.9778371, 8.93248678, -0.616055091
7525, 13.0246342, -18.7550137, 8.37196765
7526, 13.0243006, -18.7550753, -8.37191872
7527, 10.426646, -18.9333641, -1.43527275
7528, 33.2510188, -18.7955278, -5.24342519
7529, 33.0415143, -18.9663131, -5.24025696
7530, 34.2797663, 1.81342798, -8.77644999
7531, 37.7525411, 8.11581361, -2.38224831
7532, 36.2996089, -15.9125802, 8.32613876
7533, 37.7957362, 8.05678739, -2.66925588
7534, 35.073143, 8.55362364, -2.05591268
7535, 34.2937525, 8.19664061, -2.52761347
7536, 35.0831056, -18.9853409, 8.61357412
7537, 39.1047065, -7.05926301, -1.74953293
7538, 10.1743094, -18.9915296, -2.20510987
7539, 17.0157594, -19.0118303, -7.9813021
7540, 16.3708968, -19.2331169, -8.77727442
7541, 16.0415109, -19.2425329, -8.75491724
7542, 33.9533462, -13.7767164, 7.12519449
7543, 33.9538366, -13.776251, -4.75000596
7544, 13.3758142, -24.2071091, 2.16028511
7545, 13.3227041, -24.4161299, 1.92622494
7546, 13.9111697, -24.1284776, 2.40263976
7547, 36.2152382, 8.742275, 1.4557691
7548, 36.3859787, 9.14197087, 2.4302087
7549, 35.4785228, 8.67429888, 1.76940073
7550, 38.2821692, 8.31625187, 2.7714134
7551, 37.7855227, 8.41489652, 2.30418442
7552, 34.7692786, -19.2521064, -8.65868224
7553, 15.5174514, -24.5276659, 3.45621727
7554, 15.1796598, -24.5263472, 3.28716178
7555, 24.6147092, -17.8515388, -1.72559092
7556, 24.9504354, -18.1560994, -1.34556987
7557, 24.5811008, -19.3038663, 3.77299802
7558, 24.7344585, -18.5635479, -1.62082931
7559, 36.9591717, 8.60878146, 1.71723027
7560, 34.791919, -19.2505554, 8.61264785
7561, 35.4630492, 0.879173493, -8.92264319
7562, 36.3874823, 1.21996644, -9.3807699
7563, 9.7150903, -19.2188886, -3.18954141
7564, 9.42694281, -18.7268769, -3.32379121
7565, 14.173571, -24.0922209, -2.76345808
7566, 16.0847024, -24.7434407, 3.82323995
7567, 16.9918601, -18.4434086, -7.45026944
7568, 34.8817366, -17.0445652, 4.87691785
7569, 35.377077, -17.7885453, 5.81788102
7570, 10.7809746, -19.2328977, -1.69717241
7571, 13.78734, -23.9010392, 2.2158299
7572, 36.8991117, -15.2164341, -8.40302735
7573, 11.5915104, -20.7576629, -6.64146792
7574, 37.7481632, 8.8444182, -0.888947919
7575, 38.2310342, 9.48629588, -0.303537671
7576, 37.7622253, 8.9149406, -0.594942997
7577, 15.242059, -24.504364, 3.53146183
7578, 9.55898253, -20.7534083, -3.89678472
7579, 34.0541334, -15.9153704, -8.81648919
7580, 35.4487277, 8.92426098, -1.26729246
7581, 35.4360091, 9.01439709, -0.641944643
7582, 36.3922074, 9.37541594, -1.26095936
7583, 17.2260284, -19.2425658, 8.92876877
7584, 37.1342441, -13.7962078, 8.19772365
7585, 14.164087, -24.0963712, 2.74625914
7586, 36.9385324, 0.839906846, -8.85566606
7587, 12.4973744, -18.7424334, 7.19146827
7588, 12.4947765, -18.7420359, -7.1932044
7589, 12.5007441, -19.2277727, -7.17067011
7590, 34.1197528, -16.6267806, -8.2236693
7591, 34.8814639, -17.0438452, -4.87480446
7592, 15.6497414, -24.4349597, -4.10220901
7593, 37.5925602, 6.38130453, -5.42810868
7594, 37.6002506, 6.16632719, -5.6396265
7595, 34.3120684, 8.90474564, -1.58211144
7596, 36.1322913, -17.6835825, 8.87405796
7597, 35.4497876, 9.06309386, 0.0187573331
7598, 36.2206237, 8.84701531, 0.859643388
7599, 36.3850347, 9.46099325, 0.0119387412
7600, 17.2114874, -20.7307014, 8.963476
7601, 38.3419814, 6.9961157, -1.80805177
7602, 18.0773793, -19.2919852, -8.88115819
7603, 15.6765941, -20.7479754, -8.8017509
7604, 36.1358087, -17.6448629, -8.72628198
7605, 24.9655065, -18.1468363, 1.33027435
7606, 9.18861992, -19.2239844, 2.77272061
7607, 9.31223381, -18.7140134, 3.02559722
7608, 9.17915634, -18.7156682, 2.77831679
7609, 26.5140207, -19.2587889, 0.593569144
7610, 34.5445278, -20.0449329, 8.27559643
7611, 16.0737184, -24.7033561, -3.83544431
7612, 14.5591534, -20.7643991, 8.43970703
7613, 34.288389, 8.97751632, -0.903214337
7614, 36.3340755, -17.3470538, 8.87433107
7615, 36.482344, -16.2780725, 8.32586443
7616, 36.6717591, -15.9674529, -8.40343772
7617, 17.1813755, -18.7661599, -9.48612821
7618, 17.1839731, -18.7684499, 9.48625977
7619, 12.4868488, -18.7539384, -8.06124036
7620, 9.1259902, -18.763942, 4.46861222
7621, 12.486942, -18.7539495, 8.06120338
7622, 10.0383298, -20.7642973, 5.00992513
7623, 35.1941575, 6.64309552, 5.87624186
7624, 38.2398356, 4.75370988, -7.32639991
7625, 18.5415872, -19.3066331, 8.6249894
7626, 8.6174063, -19.278361, -0.306580096
7627, 11.9758901, -18.7270109, 6.85666478
7628, 12.2307503, -18.7319056, 7.03457797
7629, 36.9525513, 8.96300509, 0.050967561
7630, 25.7829231, -19.200931, -2.09150915
7631, 34.3022068, 9.053243, -0.303051909
7632, 35.1966918, 5.90980086, 6.73188745
7633, 34.2756875, 1.20967063, -8.8892325
7634, 9.31080202, -18.7016407, -3.02530711
7635, 9.57966993, -19.2148809, -2.91704852
7636, 37.7559976, 1.13676419, -8.77456417
7637, 37.756191, 1.45579918, -8.75826057
7638, 38.0102085, 0.500202817, -8.02569669
7639, 14.9821665, -24.4010771, -3.5947897
7640, 10.4600882, -18.701695, -1.75673704
7641, 37.7859998, 8.49002552, 1.99158635
7642, 15.8082601, -24.728197, 3.8924554
7643, 35.0908056, 8.93308579, 0.55971563
7644, 16.9755275, -19.2185696, -8.83577339
7645, 38.5375599, 0.533174062, -7.44413465
7646, 8.87218159, -20.7573629, 1.67110139
7647, 38.2448833, 4.47530965, 8.37200952
7648, 38.2427967, 4.46657076, 7.5042925
7649, 38.2449365, 4.47566271, -8.37192317
7650, 38.2372099, 4.48113833, -7.48991479
7651, 34.3140878, 0.599183819, -9.03217788
7652, 38.2536706, 4.99727373, 7.18989352
7653, 37.453174, 5.00126124, 7.18298556
7654, 38.2468179, 4.74181403, 7.35827395
7655, 38.2564835, 5.00573334, -7.18935392
7656, 9.93817469, -18.1431185, 1.26714372
7657, 10.1162262, -19.016419, 1.56125055
7658, 10.584052, -19.0043909, 1.85448699
7659, 16.6681536, -19.2344832, -8.7912878
7660, 17.5388008, -19.2338119, 8.95154004
7661, 15.7995625, -24.695808, -3.9087777
7662, 20.7631043, -19.2701518, 7.97007064
7663, 17.9357186, -18.5840735, -7.52178976
7664, 38.2875144, 8.18274088, 3.04119497
7665, 8.88174419, -19.743882, 1.71697906
7666, 8.91151413, -19.2278136, 1.71045323
7667, 12.2283785, -18.73113, -7.03977359
7668, 38.3717163, 0.111045295, -7.60372701
7669, 38.2875616, 8.4950833, -2.20280323
7670, 34.3116752, 0.621030908, 9.0662247
7671, 34.3054509, 1.74387363, 8.61822892
7672, 34.3057943, 8.91383164, 0.88607952
7673, 35.0859179, 8.82687549, 1.18285674
7674, 34.2986531, 8.75082799, 1.50264305
7675, 35.4621909, 2.0370715, 8.48383854
7676, 34.272844, 2.30016071, 8.40554638
7677, 38.2763506, 5.5231963, -6.85291148
7678, 38.2681288, 5.27180876, -7.03468121
7679, 16.8900494, -19.0255554, 7.44457597
7680, 16.4993921, -19.0306518, 7.82313303
7681, 14.739816, -24.2232656, 3.51290439
7682, 24.3791814, -19.0365392, 1.9166207
7683, 17.5199733, -16.8864566, -7.63920748
7684, 37.9815835, -0.546720728, 7.42936404
7685, 37.9956599, -0.969542743, 7.83789553
7686, 37.7635041, -0.0280038694, 8.94554623
7687, 26.0481358, -18.7141396, -2.14608281
7688, 14.9739746, -24.3913761, 3.58235233
7689, 14.7540523, -24.2350648, -3.52887717
7690, 33.0150827, -24.5455083, 4.51454994
7691, 38.2602692, 5.25714355, 7.0275157
7692, 37.7504372, 0.586040125, 8.91579957
7693, 36.416821, 1.26606858, 9.37543717
7694, 36.9907119, 0.9642911, 8.90892825
7695, 37.7694753, -8.84925172, 0.846238953
7696, 37.7293822, -8.95061674, -0.26478903
7697, 24.859246, -18.9857332, 1.62287393
7698, 8.98318027, -18.7136658, -2.21727502
7699, 37.983061, 0.976474041, 7.80901512
7700, 37.9752397, 0.580026559, 7.43128575
7701, 37.7357465, 8.88737822, -0.296699758
7702, 38.2954982, 8.18532907, -3.01927716
7703, 38.2706445, 8.07226894, -3.32067843
7704, 9.06473668, -18.7033512, -2.50928691
7705, 38.2476584, -0.0111455094, 8.75535377
7706, 37.9738688, -0.0437458555, 8.17438138
7707, 37.7806788, 0.528021344, -8.8421351
7708, 37.7661585, 0.833913998, -8.79665746
7709, 37.7789643, 8.58160587, 1.71071324
7710, 37.9612506, -6.8686547, 1.88626872
7711, 38.0229493, -7.36097827, 1.59046431
7712, 18.478948, -19.0194343, 7.84733085
7713, 18.0583697, -19.0140595, 7.42532235
7714, 38.0378494, 7.33150789, 1.57781283
7715, 38.0082398, 6.88072003, 1.84721948
7716, 17.5387358, -19.0229065, 8.15732555
7717, 17.503399, -18.7562122, 8.74237993
7718, 37.9983965, -0.279724917, -7.5773919
7719, 37.997106, 0.259413956, -7.53040688
7720, 37.9777242, -0.531136089, -8.09558666
7721, 9.1626677, -18.7117307, -2.78525564
7722, 9.41842253, -18.7356517, 3.35006775
7723, 36.8036746, -15.5965394, -8.40247987
7724, 37.756799, 0.290154245, 8.94604333
7725, 17.3260912, -18.6824592, -7.57935894
7726, 38.2291135, 0.320664543, 9.48612423
7727, 38.2315607, 8.3726355, -4.47120273
7728, 38.2461819, 5.01330795, -8.061181
7729, 38.2373322, 8.37051689, 4.47501276
7730, 38.2460768, 5.01307097, 8.06119519
7731, 38.2345087, 0.317199873, -9.48617576
7732, 36.6505707, -15.9233614, 8.32642017
7733, 15.0975141, -24.2518017, 3.76589446
7734, 8.55945522, -19.7667806, -0.601833799
7735, 18.0398645, -19.0212648, -8.10556059
7736, 17.2367827, -19.0150763, -7.49192196
7737, 17.8041946, -19.0042735, -7.59088511
7738, 17.2084694, -18.7583522, 8.71362083
7739, 17.2065552, -18.755203, -8.7015061
7740, 38.2858193, 8.33065536, -2.77572485
7741, 15.0998732, -24.2669708, -3.76391894
7742, 38.2942768, 8.42830209, -2.49796168
7743, 9.07830415, -18.7072428, 2.51965565
7744, 10.6690292, -19.0090389, 2.4858984
7745, 38.265274, 8.07966157, 3.37087446
7746, 38.2519855, 0.279989999, -8.71712032
7747, 38.2905229, 8.41208315, 2.51907408
7748, 16.7909469, -19.2153053, -7.65823723
7749, 38.2497778, 0.280503409, 8.70654086
7750, 17.198906, -19.00525, 9.48106734
7751, 37.9948613, 0.301195966, 9.48059939
7752, 17.5068623, -18.7514642, -8.75155848
7753, 17.1936495, -19.0050429, -9.48128916
7754, 38.2450981, -0.023789499, -8.75727798
7755, 37.9950476, 0.307814984, -9.48113094
7756, 11.7480642, -18.7227926, -6.66159518
7757, 16.2746492, -18.7506304, 8.63426748
7758, 38.2515031, 1.23155299, 8.63342887
7759, 38.2664874, 5.73993793, 6.66740487
7760, 39.0887516, 7.62409874, 1.09546294
7761, 38.2867243, 5.74402308, -6.65866401
7762, 38.2453636, 1.25193485, -8.64707364
7763, 25.0372541, -17.4894438, -1.18617349
7764, 11.7478877, -18.7185871, 6.67210991
7765, 25.1067489, -17.530229, 0.958158656
7766, 37.808256, -15.0540589, -5.82579307
7767, 37.8088446, -15.0521035, 5.82724668
7768, 14.6825115, -18.4651064, -6.88669689
7769, 10.8163645, -18.0360723, 3.62632112
7770, 25.0453902, -18.522527, 1.13403304
7771, 8.8556663, -18.776683, 3.91637241
7772, 8.85850598, -18.7755039, -3.92369418
7773, 38.2254703, 3.60454836, 7.86166666
7774, 37.7492404, 2.2213281, 8.34757431
7775, 15.2866737, -19.274554, 8.36169467
7776, 13.8974367, -18.7587651, 7.91029124
7777, 21.994364, -20.0171573, 7.97622666
7778, 34.2607272, -22.8283226, -1.61441726
7779, 37.0541941, -19.6225003, -4.49971625
7780, 36.8698264, -19.8087405, -4.52156033
7781, 37.0632332, -19.6256519, 4.49516667
7782, 35.2926135, -22.2004492, -1.61892822
7783, 38.9292932, -2.87775249, 6.08213249
7784, 39.9370862, -2.8905625, 6.06866368
7785, 36.0210925, -1.20822946, -3.65929673
7786, 34.390707, -17.6500381, -2.52116763
7787, 39.5021233, 0.587820527, 7.41683989
7788, 24.9495669, -17.5665451, 1.47730681
7789, 34.4910661, -22.7365642, -1.61648608
7790, 35.5490464, -17.4974238, 5.81884168
7791, 35.0584379, -16.7554188, 4.87517129
7792, 35.1925386, -16.5114422, 4.87371052
7793, 37.5248068, -17.6588448, 3.29538777
7794, 37.3503528, -17.9582108, 3.34673966
7795, 18.0894954, -17.506911, 7.42832321
7796, 38.2233797, 8.64448064, 3.91626024
7797, 35.777356, -9.03955646, -1.9520144
7798, 32.4678713, -23.2534635, -2.5192046
7799, 32.722159, -23.2599107, -4.50248328
7800, 34.5756901, -3.46783725, -3.40170401
7801, 21.9855775, -19.9965982, -7.98832282
7802, 38.2241234, 8.64154802, -3.92329853
7803, 15.2408876, -20.0633611, 0.430783751
7804, 35.9757121, -13.9093084, -5.82458193
7805, 35.192489, 6.77111867, 5.35557397
7806, 32.8443363, -19.3180514, -1.98022154
7807, 35.4535784, -22.0131816, -1.61771306
7808, 37.0102015, -19.3901696, -2.52888732
7809, 19.8515693, -18.7708924, 8.42905953
7810, 36.0176222, -20.6890724, -1.61664152
7811, 20.3563771, -18.0691961, 6.05884812
7812, 20.3843905, -17.0617484, 6.06556817
7813, 35.6057706, -21.8217894, -1.61577948
7814, 34.2354784, -17.880357, 2.51722746
7815, 34.2279485, -17.8754454, 4.88883219
7816, 35.3137692, -2.86567027, 2.978298
7817, 35.8074989, -9.21537514, 1.82614731
7818, 34.3909124, -17.6523226, -4.89440579
7819, 34.3929273, -17.6514008, 2.52156849
7820, 34.5634263, -17.4615701, 2.50357739
7821, 37.4810793, -20.8058809, 4.53020181
7822, 37.479173, -20.8128725, -4.52631236
7823, 39.9362886, 4.4112442, 0.195924942
7824, 36.0091394, -1.1644242, -3.72558046
7825, 35.6843075, -15.6744978, -0.00139907046
7826, 35.7955038, -15.4204382, -0.000675746285
7827, 36.0100549, 4.83739281, 2.27364381
7828, 35.9856844, 5.99670118, 2.50212887
7829, 36.016934, 4.79321591, 2.34201177
7830, 37.4136271, -18.993539, 4.51515385
7831, 34.8913788, -17.0471793, -2.50929796
7832, 37.3455602, -17.9677066, -3.34917886
7833, 35.715525, -16.8306856, -3.20390765
7834, 37.4132392, -18.9969045, -4.51513887
7835, 37.5263381, -17.5909652, 3.39513014
7836, 35.2203256, -16.4648427, 4.86106889
7837, 35.8768206, -14.5790459, 4.63570489
7838, 35.878166, -14.5957838, 2.27118186
7839, 35.8743296, -14.5942369, -2.26964598
7840, 35.8798806, -14.5782208, -4.64251248
7841, 35.9225097, -14.1885372, -4.51323759
7842, 35.93522, -14.2083636, -2.14026948
7843, 34.4079484, -14.3476686, -7.12652143
7844, 14.5316138, -17.520142, 6.35883016
7845, 34.977049, -21.8450546, 2.91009411
7846, 34.9693517, -21.841838, -2.12533716
7847, 35.1584977, -3.55340366, 7.85325016
7848, 36.0314124, 7.24339847, 2.31232918
7849, 33.6406951, -17.3999941, 8.06738179
7850, 32.6127655, -19.475722, -1.97807466
7851, 33.1214355, -18.8962442, -4.97913739
7852, 32.8204871, -19.1201801, -5.24299252
7853, 33.2812697, -17.3202434, 8.06760814
7854, 33.2786425, -17.3229505, 5.69306677
7855, 35.951, -23.4857025, -4.53261817
7856, 35.953885, -23.48194, 4.5355116
7857, 30.7869924, -20.134975, -7.25068994
7858, 30.7939734, -20.1352596, -4.87504566
7859, 31.0563162, -20.044884, 4.87270508
7860, 30.0308773, -20.0426617, 7.12532448
7861, 30.7919904, -20.1336814, 4.87334162
7862, 37.733308, 6.57344119, 4.39707133
7863, 38.2130899, -2.40298482, 8.42117578
7864, 21.438864, -17.4122619, -0.71707178
7865, 36.0482174, 1.16773803, -3.66982586
7866, 36.0558137, -4.85953544, 2.33693287
7867, 33.9448908, -18.1408443, 4.99344531
7868, 34.3960393, -24.345132, 4.53746832
7869, 34.40396, -24.3461107, -4.53481341
7870, 34.3343386, -22.2902256, 2.91233997
7871, 37.3843364, -21.2501694, -4.52795853
7872, 37.3873551, -21.2486133, 4.53586163
7873, 33.5485948, -22.4445039, 2.91271566
7874, 30.7056478, -18.8110288, 7.12528561
7875, 30.7904333, -18.7397952, -7.12541733
7876, 36.8509191, -2.45551044, 0.797912917
7877, 35.4242149, 1.4409294, 8.6720824
7878, 36.2285198, 2.10476126, 8.24921414
7879, 14.4325767, -19.2755964, -7.72734896
7880, 30.5224876, -20.1995264, -4.8764144
7881, 34.163148, -15.6613965, -6.43967668
7882, 39.4048643, 7.45396747, 1.51748104
7883, 9.85345018, -19.9690764, 3.01245663
7884, 34.2377794, -20.4951524, 3.25494718
7885, 33.2575207, -18.7714641, 5.2501775
7886, 33.0328113, -18.9593345, 5.23300373
7887, 31.0340128, -18.6028535, -7.12636526
7888, 35.1061144, -21.6949325, 2.9138299
7889, 35.9311622, -14.1888744, 5.82425528
7890, 36.9731327, 1.97285431, 8.46198104
7891, 36.3281164, -9.12077829, 2.289668
7892, 31.0881622, -18.4694317, 7.12483193
7893, 37.7336674, 6.36923133, 4.60250661
7894, 37.2271793, 5.63952094, 5.63951929
7895, 35.3672177, -16.0994837, 4.83290818
7896, 35.494504, -15.8554217, 4.83825881
7897, 26.9732799, -23.2536166, 3.34376246
7898, 35.3682552, -16.0982926, -4.83294608
7899, 16.5774429, -19.2503825, 8.88183667
7900, 33.4354572, -18.5908791, -5.2391866
7901, 24.4879412, -23.7665507, 3.01325825
7902, 23.577243, -23.6935353, 3.24554603
7903, 22.5523269, -23.6434498, 3.42850061
7904, 35.9088554, -15.7036874, -4.37317468
7905, 35.7048705, -15.2236831, -4.74468259
7906, 35.5796185, -15.5959276, 4.83663377
7907, 35.9053404, -15.7050643, 4.37433462
7908, 35.7042036, -15.2236616, 4.74287057
7909, 37.7482, 7.25806607, 3.38565234
7910, 37.5210308, -17.6615991, -3.29433531
7911, 37.7589053, 0.924496832, 8.87861305
7912, 37.5224366, -17.5931735, -3.3944402
7913, 16.9765413, -19.2136847, -8.83355012
7914, 37.7854268, 0.527459278, -8.83978338
7915, 11.9703761, -18.7541157, -7.71702597
7916, 11.9854076, -18.7273105, -6.85143392
7917, 11.8951764, -20.263188, 6.93960596
7918, 36.2560029, 2.33984074, 8.396948
7919, 35.4488736, 2.5973243, 8.2921164
7920, 37.0117584, 2.38297626, 8.13181837
7921, 36.1961787, 2.66112223, 8.04576424
7922, 13.0104201, -20.2541222, -7.56309137
7923, 14.0695966, -20.2665021, -8.41656286
7924, 15.3820144, -20.2543696, -8.72769827
7925, 11.8285586, -20.2681073, -6.8375586
7926, 12.3616275, -19.9696418, -6.31016399
7927, 10.4214021, -20.2556512, -5.43424418
7928, 9.69902664, -20.2646015, -4.17158558
7929, 9.42683778, -20.2515032, -3.61938373
7930, 8.7440626, -20.2598417, -2.47105136
7931, 9.93290157, -17.4674975, -1.18730677
7932, 8.61384443, -20.5175504, -0.890282723
7933, 9.32372506, -20.2428039, 3.53561156
7934, 13.5130146, -24.5949738, -2.02905236
7935, 15.5485147, -24.5881802, -3.94872279
7936, 20.3510055, -24.3886898, -2.83512948
7937, 15.9897007, -20.2466432, -8.88943801
7938, 10.2052648, -20.2733785, 5.27966381
7939, 12.7524689, -20.2607779, 7.63172379
7940, 14.8445056, -20.2765026, 8.53414889
7941, 14.2727403, -20.2735361, 8.33364287
7942, 11.9707139, -18.7539464, 7.71656533
7943, 11.0172428, -20.2673887, 6.12300991
7944, 9.87632672, -20.2696706, 4.75631209
7945, 8.97166129, -20.5075578, 1.99871825
7946, 15.5584938, -24.6190212, 3.93196004
7947, 13.484836, -24.5629912, 2.03333646
7948, 8.83291641, -20.5151881, 1.41783627
7949, 8.54598693, -20.5132412, -0.309538783
7950, 38.2452997, 5.52876389, 7.71648476
7951, 38.2607138, 5.51002508, 6.85774885
7952, 39.5257768, -7.53948569, -1.2260772
7953, 37.6165031, -18.7783683, 4.52377285
7954, 35.0644816, -19.0043172, 6.37746156
7955, 31.3942354, -23.15111, 2.66878911
7956, 35.9228293, -16.7740561, 6.12934603
7957, 36.4805625, -16.2829138, 6.08064408
7958, 35.9798532, 6.96234013, 5.12055669
7959, 35.9912931, 6.43875764, 6.10548457
7960, 37.0110793, 8.81237299, 1.17134381
7961, 38.0424045, -8.12908129, 0.975452327
7962, 38.0576762, 7.51079024, 1.11525891
7963, 35.9911875, 7.05753828, -5.58117984
7964, 35.9948, 6.13730343, -6.31364628
7965, 38.245808, 5.52950488, -7.71668907
7966, 38.4421631, -2.72396118, -6.92510747
7967, 38.0492871, -2.99292279, -7.4526871
7968, 25.0571187, -18.5055878, -1.15071803
7969, 24.8294522, -17.6385214, 0.0419374091
7970, 26.3344691, -18.9698592, 0.871539322
7971, 25.6508889, -18.9402627, 3.13405479
7972, 11.366332, -20.2895248, -6.42159542
7973, 35.9995665, 5.68101618, 6.9368657
7974, 37.6158553, -18.779995, -4.52384444
7975, 20.2274071, -18.5413212, -6.99748175
7976, 20.4865806, -18.9792186, -7.46730155
7977, 32.713215, -23.2440352, -2.51408822
7978, 32.9564663, -23.2106333, -2.51198297
7979, 16.2496815, -19.2492906, 8.84020086
7980, 34.3922024, -17.6532831, 4.89208507
7981, 33.464098, -17.6724962, 8.0675745
7982, 33.7815479, -16.316971, -8.24285946
7983, 33.647361, -16.5615392, -8.24268886
7984, 33.9201194, -16.1596574, -8.81632303
7985, 38.2288546, -2.40021414, -8.41232005
7986, 16.7990905, -17.2456568, 7.29664269
7987, 37.7623337, 1.25633675, 8.83067748
7988, 31.3323046, -18.333601, 7.13014768
7989, 31.560793, -18.1743664, 7.12687797
7990, 37.9822373, -9.00773098, -0.330343779
7991, 21.5983901, -23.1546453, 3.74965784
7992, 19.8403969, -18.7692566, -8.43252576
7993, 33.4657656, -18.5728796, 5.29382484
7994, 10.6336287, -18.0376592, 2.54471376
7995, 38.571812, 7.36519193, -0.00351310738
7996, 37.4522285, 3.89990564, -7.72943277
7997, 12.7639377, -20.4373243, 3.61845692
7998, 35.1493401, -9.11362526, -1.60021093
7999, 35.2559771, -14.8983455, 8.3267396
8000, 34.9529792, -14.3955873, 8.32728169
8001, 35.686505, -16.8310145, 0.799928686
8002, 35.6873706, -16.8298247, -0.801471347
8003, 33.9532458, -13.7764993, -7.12534947
8004, 20.1169405, -19.0158962, -1.73559829
8005, 35.8855645, -15.6965622, -2.00928048
8006, 35.8823565, -15.1571292, -0.000712427921
8007, 35.8818305, -15.6983715, 2.00328064
8008, 34.0902913, -15.9563091, 6.00442604
8009, 20.3103823, -23.6517163, 2.8319457
8010, 34.0489998, -19.0209203, 6.80490787
8011, 33.3793352, -18.2498917, 6.95351675
8012, 33.2061004, -18.7400896, 5.88369764
8013, 34.2821914, -18.9309624, 6.19861132
8014, 32.8273361, -19.1049691, 5.86580271
8015, 33.0278762, -18.9378695, 5.87803727
8016, 30.522244, -20.1991317, 4.87383158
8017, 29.4976671, -20.1983978, 7.12379804
8018, 36.8992609, -15.2200197, -5.91682248
8019, 36.8052454, -15.599953, -6.02487837
8020, 37.6763249, -15.4209514, -5.91575354
8021, 34.9058482, -14.6777439, 5.95310039
8022, 36.8769454, -15.1788855, 5.84599179
8023, 36.9353801, -14.7908882, 7.02169043
8024, 36.6482524, -15.9289375, 6.03657821
8025, 36.7814386, -15.5587334, 5.95485082
8026, 34.8440345, -14.948487, 5.9531278
8027, 24.2397303, -19.0171008, -3.59740913
8028, 25.2460356, -18.9924714, -3.41112238
8029, 37.2988799, -3.34527465, -7.02760361
8030, 31.6976501, -20.0358413, 7.25693454
8031, 36.95401, -14.8325906, -5.79476929
8032, 34.6665305, -15.5101603, -6.02726356
8033, 34.0535464, -15.9176274, -6.44369584
8034, 10.3263595, -19.0151728, 3.65476573
8035, 10.213953, -19.2620938, 3.35944337
8036, 10.3679594, -19.2750995, 3.62257427
8037, 38.254448, 7.92992173, -3.56368007
8038, 37.7542679, 7.64873841, -3.47055342
8039, 37.7612788, 7.42802984, 3.13625308
8040, 35.9790718, 8.27901168, 3.54452015
8041, 36.2750568, 7.38990156, 3.24513209
8042, 9.55722564, -20.2508811, -3.89886861
8043, 35.8962913, -18.0018112, 6.62364904
8044, 10.310112, -17.5504333, -1.72703043
8045, 10.0560865, -19.2472565, 3.09927872
8046, 15.6873973, -20.217051, -8.82351716
8047, 14.5588302, -20.2708213, 8.43499907
8048, 39.4421591, -7.19084228, -1.70048597
8049, 34.6454812, -15.4687355, 5.95158086
8050, 34.7564196, -15.2128512, 5.95141959
8051, 35.7540061, 6.19560346, 3.4244452
8052, 35.9771937, 6.55919833, 5.57820539
8053, 35.9950527, 6.76800376, 5.36679744
8054, 35.2466404, 5.63890659, 5.63815426
8055, 36.4478965, 5.4095071, 5.84507888
8056, 37.0101531, 8.86991905, 0.856101721
8057, 38.5530749, -1.91356655, -6.32894616
8058, 35.9008146, -17.9624344, -6.47618319
8059, 36.1346331, -17.6471568, -6.47618801
8060, 36.2628217, 5.1471031, 6.41502476
8061, 36.2509084, 4.64577372, 6.63352965
8062, 37.2575504, 5.17704713, 6.0496411
8063, 37.250084, 5.41899908, 5.85903303
8064, 15.6866548, -17.4159512, -6.05001377
8065, 15.7389312, -16.9543072, -6.05076328
8066, 16.2801503, -18.755531, -8.63695933
8067, 30.8732423, -21.8753225, -2.36893517
8068, 29.463927, -20.5770683, -2.23700222
8069, 35.8950467, -16.8202129, 6.12923477
8070, 34.9065167, -14.6714924, 8.32679316
8071, 34.8450795, -14.9427956, 8.32635556
8072, 35.9504966, -15.4216634, -2.00399594
8073, 36.1513123, -16.9808073, 8.87441173
8074, 38.0192362, 2.90463225, -7.45254647
8075, 38.2249097, 3.619487, -7.86808494
8076, 35.0447995, -19.0026278, -6.42265258
8077, 35.7765923, -14.9557723, -4.75694462
8078, 35.7231773, -15.239292, -2.38034849
8079, 35.7764066, -14.9686673, -2.38509936
8080, 29.1799551, -23.1606745, -2.43040315
8081, 30.3041941, -23.2952765, -2.38272514
8082, 27.6873814, -23.014932, -0.531387593
8083, 35.1046447, -13.6870258, 7.13010456
8084, 35.9496898, -13.7999133, 5.75741729
8085, 36.9834585, 2.94863943, 7.94448531
8086, 36.9822289, 3.22601501, 7.80774916
8087, 11.5893868, -20.2678367, -6.63810026
8088, 36.1306626, -17.6862979, 6.62382792
8089, 15.1614218, -19.2716251, -8.4879386
8090, 14.5775431, -18.9930157, -7.47858631
8091, 36.2564384, 5.26663612, 7.01707176
8092, 34.0989631, -16.4204506, -8.81625511
8093, 33.0853764, -17.517748, 8.06803369
8094, 10.5885704, -18.0328612, 1.90071738
8095, 21.2302862, -23.672473, 3.3073953
8096, 21.4941805, -23.5679764, 3.59831339
8097, 36.7829912, -15.554629, 8.3268849
8098, 36.2824308, 7.24918759, 3.49961566
8099, 36.2669526, 7.10640354, 3.75332466
8100, 13.8694252, -18.7588456, -7.89434927
8101, 36.9956616, 2.66432265, 8.03937123
8102, 35.9469973, -15.4280205, 2.00819384
8103, 37.6187199, -15.8109827, 7.21201271
8104, 36.8785227, -15.1748852, 8.32722702
8105, 35.0137294, 2.92588194, 7.94992034
8106, 34.2786332, 2.87128308, 8.21066931
8107, 34.4635549, -19.5318738, 6.69630763
8108, 34.5841355, -18.6545541, 5.94474374
8109, 34.7699927, -19.2728436, 6.49322009
8110, 33.7616225, -18.3456238, 4.98672158
8111, 16.2292478, -18.9966474, -7.31867335
8112, 16.0970208, -19.1982713, -6.92758639
8113, 31.3994274, -23.5875311, -1.87763235
8114, 37.4472364, 4.47356406, 7.50071713
8115, 35.7209049, -17.1101417, 6.12900023
8116, 29.9960117, -20.4207868, -2.23676852
8117, 29.7331467, -20.5107204, -2.23724364
8118, 37.6183033, -15.8117194, -7.21110714
8119, 35.7792407, -14.9702504, 2.38477786
8120, 35.7793953, -14.9582308, 4.75459489
8121, 33.67545, -18.1112103, 8.06707449
8122, 34.9555128, -15.2698873, 8.3259542
8123, 35.2723593, -15.4409055, 8.32600311
*ELEMENT, TYPE=C3D10, ELSET=EALL
4263, 5230, 5221, 5226, 5425, 5381, 5379, 5382, 5441, 5443, 5442
4264, 1190, 1405, 1222, 138, 5444, 3841, 3627, 3626, 1406, 1223
4265, 135, 1300, 160, 1285, 5445, 1302, 3617, 3616, 3820, 1287
4266, 1305, 1195, 158, 1282, 5446, 3671, 1306, 3821, 3672, 1283
4267, 140, 1400, 1225, 1191, 1402, 3840, 1227, 3631, 5447, 3630
4268, 154, 1270, 1325, 1194, 1271, 3825, 1326, 3662, 3663, 5448
4269, 1237, 144, 1380, 1192, 1239, 1382, 3836, 3639, 3640, 5449
4270, 1193, 1345, 1258, 150, 5450, 3829, 3654, 3653, 1346, 1259
4271, 1360, 1193, 1249, 148, 5451, 3648, 3832, 1362, 3649, 1251
4272, 3246, 3244, 3245, 1073, 3287, 3293, 3294, 5452, 5454, 5453
4273, 4800, 4805, 4804, 1754, 4847, 4846, 4844, 5455, 5457, 5456
4274, 798, 3169, 3174, 3172, 5458, 3219, 5459, 5460, 3218, 3199
4275, 214, 208, 189, 209, 5461, 3890, 5462, 5463, 1481, 3886
4276, 325, 308, 326, 248, 4301, 4299, 1859, 5464, 5466, 5465
4277, 1803, 4994, 4997, 4993, 5467, 5130, 5468, 5469, 5110, 5138
4278, 5226, 5229, 5230, 5425, 5388, 5263, 5382, 5442, 5470, 5441
4279, 1418, 4801, 4803, 4802, 5471, 4829, 5472, 5473, 4842, 4849
4280, 3301, 1044, 3295, 1045, 5474, 5475, 3342, 5476, 1051, 5477
4281, 798, 3169, 3172, 1032, 5458, 3218, 5460, 5478, 5480, 5479
4282, 3884, 3885, 1453, 5440, 3913, 3900, 3907, 5481, 5483, 5482
4283, 1674, 3884, 1678, 5440, 5484, 5485, 4086, 5486, 5481, 5487
4284, 5230, 5236, 5221, 5412, 5266, 5375, 5381, 5488, 5490, 5489
4285, 3295, 3301, 1045, 3296, 3342, 5476, 5477, 3339, 3343, 5491
4286, 3296, 3301, 1045, 3302, 3343, 5476, 5491, 3346, 3347, 5492
4287, 3176, 977, 895, 3175, 5493, 2919, 5494, 3192, 3189, 5495
4288, 3174, 798, 895, 797, 5459, 2803, 5496, 5497, 807, 2801
4289, 4498, 1801, 2106, 5424, 5498, 5499, 5500, 5501, 5503, 5502
4290, 1072, 1071, 3076, 5421, 1078, 3105, 3104, 5504, 5506, 5505
4291, 4575, 1437, 1436, 1417, 5507, 1446, 5508, 5509, 3880, 3877
4292, 839, 2278, 2975, 2625, 5510, 5511, 5512, 5513, 5515, 5514
4293, 3008, 1045, 3007, 2971, 3038, 3036, 3029, 5516, 5518, 5517
4294, 798, 3174, 895, 896, 5459, 5496, 2803, 2805, 5519, 905
4295, 5227, 5231, 5216, 5414, 5366, 5293, 5364, 5520, 5522, 5521
4296, 4496, 4497, 4494, 5437, 4533, 4539, 4570, 5523, 5525, 5524
4297, 96, 2269, 2256, 5421, 5526, 2370, 5527, 5528, 5530, 5529
4298, 4103, 4497, 1574, 5437, 5531, 5532, 5533, 5534, 5525, 5535
4299, 1952, 2106, 4498, 1801, 5536, 5500, 4562, 5537, 5499, 5498
4300, 1436, 4575, 1417, 1416, 5508, 5509, 3877, 3876, 5538, 1426
4301, 2975, 1032, 839, 2625, 3003, 5539, 5512, 5514, 5540, 5513
4302, 1610, 1453, 190, 243, 5079, 1456, 1611, 5541, 5542, 4033
4303, 4581, 1577, 4705, 4580, 5543, 5544, 5545, 4592, 5547, 5546
4304, 3244, 3243, 3245, 1073, 3292, 3284, 3293, 5454, 5548, 5453
4305, 1666, 3885, 1670, 5440, 5549, 5550, 4080, 5551, 5483, 5552
4306, 1028, 1045, 2971, 5439, 5553, 5518, 2982, 5554, 5556, 5555
4307, 1033, 1058, 3042, 1115, 5557, 3068, 5558, 5559, 5561, 5560
4308, 3007, 852, 3008, 2971, 5562, 5563, 3029, 5517, 5564, 5516
4309, 1666, 1662, 3885, 5440, 4077, 5565, 5549, 5551, 5566, 5483
4310, 898, 3114, 966, 967, 5567, 3140, 2933, 2884, 3141, 973
4311, 1658, 3885, 1662, 5440, 5568, 5565, 4074, 5569, 5483, 5566
4312, 4573, 1436, 1435, 1416, 5570, 1445, 5571, 5572, 3876, 3874
4313, 1415, 1435, 1416, 4573, 3875, 3874, 1425, 5573, 5571, 5572
4314, 1028, 1045, 3008, 2971, 5553, 3038, 5574, 2982, 5518, 5516
4315, 190, 1453, 3885, 5440, 1456, 3900, 3894, 5575, 5482, 5483
4316, 1627, 5159, 212, 5440, 5172, 5576, 5577, 5578, 5580, 5579
4317, 2256, 110, 96, 5421, 5581, 5582, 5527, 5529, 5583, 5528
4318, 3247, 3239, 3242, 1071, 3289, 3288, 3276, 5584, 5586, 5585
4319, 4101, 4099, 4213, 5405, 4178, 5587, 5588, 5589, 5591, 5590
4320, 835, 2290, 3008, 5433, 5592, 5593, 5594, 5595, 5597, 5596
4321, 3042, 1058, 1033, 2975, 3068, 5557, 5558, 5598, 5599, 2983
4322, 5220, 5233, 5222, 5425, 5346, 5378, 5377, 5600, 5602, 5601
4323, 835, 95, 2290, 5433, 841, 5603, 5592, 5595, 5604, 5597
4324, 895, 3176, 3175, 797, 5494, 3192, 5495, 2801, 5606, 5605
4325, 3448, 3436, 3435, 5409, 3595, 3588, 3528, 5607, 5609, 5608
4326, 3441, 3434, 3437, 5430, 3593, 3590, 3592, 5610, 5612, 5611
4327, 3300, 1015, 1014, 892, 3314, 1021, 3310, 5613, 2912, 2902
4328, 3303, 3301, 3302, 2866, 3349, 3347, 3323, 5614, 5616, 5615
4329, 2280, 2278, 2637, 5420, 2314, 5617, 5618, 5619, 5621, 5620
4330, 2290, 2270, 835, 3008, 2402, 5622, 5592, 5593, 5623, 5594
4331, 3448, 3446, 3449, 5430, 3525, 3606, 3597, 5624, 5626, 5625
4332, 2272, 2273, 2275, 5428, 2468, 2476, 2343, 5627, 5629, 5628
4333, 4912, 4915, 4916, 1950, 4959, 4964, 4962, 5630, 5632, 5631
4334, 1028, 2971, 3008, 5433, 2982, 5516, 5574, 5633, 5634, 5596
4335, 796, 895, 797, 3176, 2802, 2801, 806, 5635, 5494, 5606
4336, 1058, 1057, 3042, 1115, 1064, 3067, 3068, 5561, 5636, 5560
4337, 2279, 2278, 2280, 5420, 2407, 2314, 2478, 5637, 5621, 5619
4338, 1420, 1305, 158, 1804, 5638, 1306, 5639, 5640, 5642, 5641
4339, 5231, 5227, 5218, 5411, 5366, 5370, 5296, 5643, 5645, 5644
4340, 4494, 4497, 4103, 5437, 4539, 5531, 5646, 5524, 5525, 5534
4341, 207, 190, 220, 208, 3899, 5647, 5648, 1480, 3889, 5649
4342, 247, 324, 325, 309, 5650, 1858, 5651, 5652, 4311, 4302
4343, 3041, 1073, 3078, 5436, 5653, 3108, 5654, 5655, 5657, 5656
4344, 1674, 233, 1678, 3884, 4085, 1679, 4086, 5484, 5658, 5485
4345, 232, 233, 1674, 3884, 1557, 4085, 1675, 5659, 5658, 5484
4346, 234, 1678, 233, 3884, 4088, 1679, 1561, 5660, 5485, 5658
4347, 2292, 2288, 2281, 2661, 2320, 2446, 2480, 5661, 5663, 5662
4348, 4502, 4496, 4494, 5437, 4558, 4570, 4565, 5664, 5523, 5524
4349, 2278, 2975, 2279, 839, 5511, 5665, 2407, 5510, 5512, 5666
4350, 2106, 1801, 4979, 5424, 5499, 5667, 4981, 5502, 5503, 5668
4351, 1074, 1073, 3078, 5428, 1080, 3108, 3109, 5669, 5671, 5670
4352, 1756, 4803, 1418, 4801, 5672, 5472, 5673, 5674, 4829, 5471
4353, 297, 1803, 1752, 5408, 5675, 5676, 5677, 5678, 5680, 5679
4354, 4857, 4855, 362, 4856, 4898, 5681, 5682, 4903, 4902, 5683
4355, 4852, 4855, 362, 4857, 4893, 5681, 5684, 4896, 4898, 5682
4356, 2110, 4805, 4800, 1754, 5685, 4847, 5686, 5687, 5457, 5455
4357, 5221, 5220, 5222, 5425, 5373, 5377, 5376, 5443, 5600, 5601
4358, 3078, 880, 2266, 5436, 5688, 5689, 5690, 5656, 5692, 5691
4359, 461, 5159, 189, 188, 5693, 5694, 5695, 5696, 5697, 1451
4360, 4800, 4804, 4799, 4702, 4844, 4843, 4837, 5698, 5700, 5699
4361, 4993, 1803, 4994, 299, 5469, 5467, 5110, 5105, 5701, 5108
4362, 2625, 1032, 839, 2613, 5540, 5539, 5513, 5702, 5704, 5703
4363, 190, 1638, 1634, 5440, 5705, 4056, 5706, 5575, 5708, 5707
4364, 3076, 1047, 3009, 5435, 5709, 3017, 5710, 5711, 5713, 5712
4365, 1045, 1114, 1028, 3008, 5714, 5715, 5553, 3038, 5716, 5574
4366, 3042, 1033, 1115, 5432, 5558, 5559, 5560, 5717, 5719, 5718
4367, 3305, 892, 3300, 794, 5720, 5613, 3330, 5721, 2796, 5722
4368, 3045, 2281, 2288, 2661, 5723, 2446, 5724, 5725, 5662, 5663
4369, 2291, 865, 3042, 2975, 5726, 5727, 5728, 5729, 5730, 5598
4370, 894, 3176, 895, 796, 5731, 5494, 904, 2798, 5635, 2802
4371, 891, 3241, 99, 1001, 5732, 5733, 900, 2881, 3253, 2879
4372, 835, 3008, 2971, 5433, 5594, 5516, 5734, 5595, 5596, 5634
4373, 1439, 4801, 2049, 2050, 5735, 4841, 4761, 4717, 4816, 2056
4374, 3245, 1074, 3248, 2867, 5736, 5737, 3291, 5738, 5740, 5739
4375, 3009, 1047, 3076, 5421, 3017, 5709, 5710, 5741, 5742, 5505
4376, 3172, 3171, 2871, 1032, 3200, 5743, 5744, 5479, 5746, 5745
4377, 2975, 2625, 2278, 5420, 5514, 5515, 5511, 5747, 5748, 5621
4378, 5005, 5008, 5003, 5422, 5070, 5157, 5158, 5749, 5751, 5750
4379, 1642, 1638, 190, 5440, 4059, 5705, 5752, 5753, 5708, 5575
4380, 1752, 1803, 2111, 5408, 5676, 5754, 5755, 5679, 5680, 5756
4381, 5208, 5209, 5207, 5411, 5337, 5336, 5338, 5757, 5759, 5758
4382, 1753, 285, 283, 5410, 5760, 1747, 5761, 5762, 5764, 5763
4383, 4916, 4911, 4912, 4697, 4950, 4960, 4962, 5765, 5767, 5766
4384, 2974, 839, 1032, 2613, 5768, 5539, 3001, 5769, 5703, 5704
4385, 1072, 1112, 1071, 5421, 5770, 5771, 1078, 5504, 5772, 5506
4386, 1212, 1454, 372, 4491, 5773, 5774, 5401, 5775, 5777, 5776
4387, 3298, 3302, 3296, 1113, 3326, 3346, 3345, 5778, 5780, 5779
4388, 865, 2291, 2279, 2975, 5726, 2409, 5781, 5730, 5729, 5665
4389, 362, 4853, 4852, 4857, 5782, 4890, 5684, 5682, 4897, 4896
4390, 228, 1658, 227, 3885, 1659, 4070, 1537, 5783, 5568, 5784
4391, 1072, 3076, 1112, 5421, 3104, 5785, 5770, 5504, 5505, 5772
4392, 3436, 3448, 3449, 5430, 3595, 3597, 3596, 5786, 5624, 5625
4393, 3076, 1047, 1112, 5421, 5709, 5787, 5785, 5505, 5742, 5772
4394, 297, 4993, 1803, 5408, 5106, 5469, 5675, 5678, 5788, 5680
4395, 1112, 2877, 1071, 5421, 5789, 5790, 5771, 5772, 5791, 5506
4396, 5233, 5220, 5208, 5411, 5346, 5343, 5345, 5792, 5793, 5757
4397, 4098, 4101, 4099, 4213, 4173, 4178, 4135, 5794, 5588, 5587
4398, 2278, 2625, 2637, 5420, 5515, 5795, 5617, 5621, 5748, 5620
4399, 4498, 2106, 4979, 5424, 5500, 4981, 5796, 5501, 5502, 5668
4400, 4702, 4804, 4799, 4698, 5700, 4843, 5699, 4766, 5798, 5797
4401, 2109, 1753, 283, 5410, 5799, 5761, 5800, 5801, 5762, 5763
4402, 4979, 5424, 362, 5426, 5668, 5802, 4980, 5803, 5805, 5804
4403, 2276, 2703, 97, 2715, 5806, 5807, 5808, 5809, 5811, 5810
4404, 1454, 1212, 4500, 4491, 5773, 5812, 5813, 5777, 5775, 4550
4405, 5230, 5412, 5221, 5425, 5488, 5489, 5381, 5441, 5814, 5443
4406, 3078, 2266, 3041, 5436, 5690, 5815, 5654, 5656, 5691, 5655
4407, 285, 4214, 4217, 5410, 5816, 4237, 5817, 5764, 5819, 5818
4408, 1045, 3007, 2971, 796, 3036, 5517, 5518, 5820, 5822, 5821
4409, 1032, 2625, 2975, 5420, 5540, 5514, 3003, 5823, 5748, 5747
4410, 1112, 1047, 2877, 5421, 5787, 5824, 5789, 5772, 5742, 5791
4411, 2106, 1952, 4704, 1800, 5536, 5825, 5826, 5827, 5829, 5828
4412, 840, 2287, 95, 5432, 5830, 5831, 847, 5832, 5834, 5833
4413, 4979, 1801, 362, 5424, 5667, 5835, 4980, 5668, 5503, 5802
4414, 5227, 5216, 5217, 5425, 5364, 5360, 5365, 5836, 5838, 5837
4415, 730, 70, 720, 92, 5839, 2508, 2563, 732, 2509, 722
4416, 733, 632, 90, 717, 5840, 2552, 734, 2564, 2553, 718
4417, 790, 660, 72, 628, 2583, 662, 792, 5841, 2501, 2512
4418, 86, 705, 745, 631, 706, 2568, 746, 2543, 2544, 5842
4419, 672, 629, 76, 778, 2520, 2521, 674, 2579, 5843, 780
4420, 630, 757, 693, 82, 5844, 2572, 2535, 2534, 758, 694
4421, 630, 766, 80, 684, 5845, 768, 2530, 2529, 2575, 686
4422, 2255, 2276, 97, 2715, 2337, 5808, 5846, 5847, 5809, 5810
4423, 3042, 2975, 1033, 5432, 5598, 2983, 5558, 5717, 5848, 5719
4424, 4910, 4915, 4912, 1950, 4940, 4959, 4958, 5849, 5632, 5630
4425, 2873, 3117, 3119, 2870, 5850, 3165, 5851, 2938, 5853, 5852
4426, 627, 614, 657, 67, 5854, 2584, 2498, 2497, 615, 658
4427, 5001, 4997, 5002, 5408, 5144, 5140, 5145, 5855, 5857, 5856
4428, 1752, 1803, 297, 2111, 5676, 5675, 5677, 5755, 5754, 5858
4429, 3246, 3245, 2867, 1073, 3294, 5738, 5859, 5452, 5453, 5860
4430, 5225, 5224, 5229, 5425, 5387, 5260, 5386, 5861, 5862, 5470
4431, 1670, 230, 231, 3885, 4079, 1549, 1671, 5550, 5864, 5863
4432, 4993, 297, 5012, 5408, 5106, 5104, 5107, 5788, 5678, 5865
4433, 3428, 3452, 3445, 5413, 3579, 3581, 3557, 5866, 5868, 5867
4434, 3241, 891, 99, 94, 5732, 900, 5733, 5869, 2791, 890
4435, 94, 891, 793, 3241, 2791, 2793, 802, 5869, 5732, 5870
4436, 1115, 1033, 1058, 2870, 5559, 5557, 5561, 5871, 5873, 5872
4437, 1658, 228, 229, 3885, 1659, 1541, 4073, 5568, 5783, 5874
4438, 442, 5417, 19, 5431, 5875, 5876, 445, 5877, 5879, 5878
4439, 1800, 4861, 4853, 4858, 5880, 4901, 5881, 5882, 4875, 4900
4440, 230, 1670, 1666, 3885, 4079, 4080, 1667, 5864, 5550, 5549
4441, 1073, 3077, 3078, 5436, 3107, 3099, 3108, 5657, 5883, 5656
4442, 4502, 1577, 2108, 1950, 5884, 5885, 5886, 4556, 5888, 5887
4443, 2279, 2975, 2278, 5420, 5665, 5511, 2407, 5637, 5747, 5621
4444, 1658, 229, 1662, 3885, 4073, 1663, 4074, 5568, 5874, 5565
4445, 2877, 1047, 110, 5421, 5824, 1054, 5889, 5791, 5742, 5583
4446, 190, 243, 1453, 5440, 4033, 5542, 1456, 5575, 5890, 5482
4447, 4501, 4491, 1454, 4499, 4524, 5777, 5891, 4527, 4569, 5892
4448, 1623, 221, 190, 220, 4049, 5893, 5894, 1624, 1509, 5647
4449, 221, 1623, 190, 1630, 4049, 5894, 5893, 1631, 4050, 5895
4450, 229, 230, 1666, 3885, 1545, 1667, 4076, 5874, 5864, 5549
4451, 1662, 229, 1666, 3885, 1663, 4076, 4077, 5565, 5874, 5549
4452, 280, 2109, 283, 5410, 5896, 5800, 1744, 5897, 5801, 5763
4453, 5227, 5222, 5233, 5425, 5369, 5378, 5371, 5836, 5601, 5602
4454, 4100, 4101, 4106, 5405, 4179, 4180, 4127, 5898, 5589, 5899
4455, 4855, 4854, 4694, 4856, 4895, 5900, 5901, 4902, 4882, 5902
4456, 3433, 3452, 3428, 5430, 3580, 3579, 3573, 5903, 5905, 5904
4457, 186, 1432, 1412, 4860, 3866, 3867, 1421, 5906, 5908, 5907
4458, 1952, 2106, 1801, 1800, 5536, 5499, 5537, 5829, 5827, 1807
4459, 4804, 4698, 1754, 5407, 5798, 5909, 5456, 5910, 5912, 5911
4460, 3117, 3120, 1058, 2873, 3160, 5913, 5914, 5850, 5916, 5915
4461, 5221, 5219, 5220, 5412, 5372, 5351, 5373, 5489, 5918, 5917
4462, 1028, 3008, 1114, 5433, 5574, 5716, 5715, 5633, 5596, 5919
4463, 5217, 5216, 5214, 5425, 5360, 5355, 5359, 5837, 5838, 5920
4464, 1803, 4993, 4997, 5408, 5469, 5138, 5468, 5680, 5788, 5857
4465, 840, 2291, 2287, 5432, 5921, 2410, 5830, 5832, 5922, 5834
4466, 4264, 362, 1801, 5424, 5923, 5835, 4290, 5924, 5802, 5503
4467, 362, 4853, 4857, 4858, 5782, 4897, 5682, 5925, 4900, 4899
4468, 3042, 1115, 1057, 5432, 5560, 5636, 3067, 5717, 5718, 5926
4469, 1074, 1117, 1073, 5428, 5927, 5928, 1080, 5669, 5929, 5671
4470, 4491, 4500, 1454, 4499, 4550, 5813, 5777, 4569, 4554, 5892
4471, 4264, 362, 5424, 5426, 5923, 5802, 5924, 5930, 5804, 5805
4472, 1112, 1047, 3076, 5435, 5787, 5709, 5785, 5931, 5713, 5711
4473, 1114, 1045, 1046, 3008, 5714, 1052, 5932, 5716, 3038, 3039
4474, 3041, 3078, 1056, 5428, 5654, 5933, 3052, 5934, 5670, 5935
4475, 1033, 2975, 1058, 5420, 2983, 5599, 5557, 5936, 5747, 5937
4476, 3120, 3111, 3117, 1058, 3152, 3158, 3160, 5913, 5938, 5914
4477, 3301, 1044, 3304, 3295, 5474, 5939, 3344, 3342, 5475, 3336
4478, 5236, 5219, 5221, 5412, 5374, 5372, 5375, 5490, 5918, 5489
4479, 4978, 5424, 5426, 5437, 5940, 5805, 5941, 5942, 5944, 5943
4480, 1577, 4502, 2108, 5437, 5884, 5886, 5885, 5945, 5664, 5946
4481, 5007, 4992, 3724, 5408, 5046, 5947, 5948, 5949, 5951, 5950
4482, 2109, 2110, 1753, 5410, 2116, 5952, 5799, 5801, 5953, 5762
4483, 3078, 3077, 880, 5436, 3099, 5954, 5688, 5656, 5883, 5692
4484, 3005, 110, 96, 2256, 3011, 5582, 5955, 5956, 5581, 5527
4485, 840, 2975, 2291, 5432, 5957, 5729, 5921, 5832, 5848, 5922
4486, 1192, 1417, 1418, 5407, 3859, 1427, 3861, 5958, 5960, 5959
4487, 3437, 3434, 3436, 5430, 3590, 3589, 3591, 5611, 5612, 5786
4488, 3042, 2291, 2975, 5432, 5728, 5729, 5598, 5717, 5922, 5848
4489, 2625, 839, 2278, 2613, 5513, 5510, 5515, 5702, 5703, 5961
4490, 2288, 2673, 3045, 2661, 5962, 5963, 5724, 5663, 5964, 5725
4491, 5224, 5225, 5235, 5425, 5387, 5363, 5384, 5862, 5861, 5965
4492, 4979, 4978, 5424, 5426, 4984, 5940, 5668, 5803, 5941, 5805
4493, 836, 2971, 2271, 1029, 5966, 5967, 5968, 5969, 2996, 5970
4494, 2273, 2272, 2259, 5428, 2468, 2346, 2461, 5629, 5627, 5971
4495, 3449, 3446, 3452, 5430, 3606, 3605, 3587, 5625, 5626, 5905
4496, 4214, 5410, 1753, 5426, 5819, 5762, 4234, 5972, 5974, 5973
4497, 1952, 335, 4704, 1800, 1959, 5975, 5825, 5829, 5976, 5828
4498, 5227, 5233, 5218, 5411, 5371, 5344, 5370, 5645, 5792, 5644
4499, 1453, 3424, 3432, 5417, 5977, 3545, 5978, 5979, 5981, 5980
4500, 5410, 5426, 5424, 5437, 5974, 5805, 5982, 5983, 5943, 5944
4501, 4997, 4996, 1825, 1803, 5133, 5132, 5131, 5468, 5984, 4280
4502, 5225, 5229, 5226, 5425, 5386, 5388, 5383, 5861, 5470, 5442
4503, 1074, 2875, 1117, 5428, 5985, 5986, 5927, 5669, 5987, 5929
4504, 1117, 1073, 3041, 5436, 5928, 5653, 5988, 5989, 5657, 5655
4505, 1801, 4498, 304, 5424, 5498, 5990, 4287, 5503, 5501, 5991
4506, 1437, 4575, 1436, 1964, 5507, 5508, 1446, 4752, 4611, 4753
4507, 2727, 97, 2255, 868, 5992, 5846, 5993, 5994, 875, 5995
4508, 2875, 1056, 1117, 5428, 5996, 5997, 5986, 5987, 5935, 5929
4509, 2280, 2292, 2281, 5420, 2317, 2480, 2479, 5619, 5999, 5998
4510, 2111, 1803, 297, 1802, 5754, 5675, 5858, 6000, 1809, 6001
4511, 2263, 95, 5432, 5433, 6002, 5833, 6003, 6004, 5604, 6005
4512, 287, 4217, 285, 4214, 4227, 5817, 1750, 4235, 4237, 5816
4513, 1753, 4214, 285, 5410, 4234, 5816, 5760, 5762, 5819, 5764
4514, 1028, 1114, 1045, 5439, 5715, 5714, 5553, 5554, 6006, 5556
4515, 3171, 1033, 2871, 1032, 6007, 6008, 5743, 5746, 1039, 5745
4516, 1800, 4853, 4696, 4858, 5881, 6009, 6010, 5882, 4900, 6011
4517, 4701, 2111, 1803, 5408, 6012, 5754, 6013, 6014, 5756, 5680
4518, 221, 1634, 190, 222, 4052, 5706, 5893, 1513, 1635, 6015
4519, 1634, 221, 190, 1630, 4052, 5893, 5706, 4053, 1631, 5895
4520, 863, 2266, 3041, 5428, 6016, 5815, 6017, 6018, 6019, 5934
4521, 2867, 3245, 1074, 1073, 5738, 5736, 5740, 5860, 5453, 1080
4522, 3176, 894, 895, 977, 5731, 904, 5494, 5493, 2918, 2919
4523, 299, 297, 1803, 1802, 1794, 5675, 5701, 6020, 6001, 1809
4524, 1058, 2975, 3042, 5420, 5599, 5598, 3068, 5937, 5747, 6021
4525, 3041, 3078, 1073, 1117, 5654, 3108, 5653, 5988, 6022, 5928
4526, 3078, 3041, 2266, 5428, 5654, 5815, 5690, 5670, 5934, 6019
4527, 866, 2673, 3045, 2288, 6023, 5963, 6024, 6025, 5962, 5724
4528, 5003, 5008, 5004, 5422, 5157, 5156, 5152, 5750, 5751, 6026
4529, 226, 202, 201, 190, 6027, 1474, 6028, 6029, 3891, 3892
4530, 1804, 3694, 4996, 5006, 6030, 6031, 6032, 6033, 6034, 5031
4531, 3302, 3301, 1045, 2866, 3347, 5476, 5492, 5615, 5616, 6035
4532, 3440, 3434, 3441, 5417, 3567, 3593, 3594, 6036, 6038, 6037
4533, 978, 3174, 896, 895, 3194, 5519, 2924, 2925, 5496, 905
4534, 345, 1834, 5232, 5416, 6039, 6040, 6041, 6042, 6044, 6043
4535, 1117, 1056, 3078, 5428, 5997, 5933, 6022, 5929, 5935, 5670
4536, 1454, 1567, 4491, 4501, 6045, 6046, 5777, 5891, 6047, 4524
4537, 4978, 4979, 5424, 5437, 4984, 5668, 5940, 5942, 6048, 5944
4538, 31, 3451, 3421, 5423, 3491, 3495, 3494, 6049, 6051, 6050
4539, 2260, 2266, 880, 5436, 2433, 5689, 6052, 6053, 5691, 5692
4540, 1073, 1117, 3078, 5428, 5928, 6022, 3108, 5671, 5929, 5670
4541, 1117, 3041, 3078, 1056, 5988, 5654, 6022, 5997, 3052, 5933
4542, 3042, 2975, 865, 5420, 5598, 5730, 5727, 6021, 5747, 6054
4543, 5405, 5410, 4106, 5419, 6055, 6056, 5899, 6057, 6059, 6058
4544, 4979, 4498, 5424, 5437, 5796, 5501, 5668, 6048, 6060, 5944
4545, 4096, 4094, 4213, 5406, 4169, 6061, 6062, 6063, 6065, 6064
4546, 109, 5432, 95, 5433, 6066, 5833, 6067, 6068, 6005, 5604
4547, 4101, 4106, 5405, 5410, 4180, 5899, 5589, 6069, 6056, 6055
4548, 4997, 4993, 5002, 5408, 5138, 5139, 5140, 5857, 5788, 5856
4549, 3441, 5409, 3434, 5430, 6070, 6071, 3593, 5610, 6072, 5612
4550, 3244, 3246, 115, 1073, 3287, 6073, 6074, 5454, 5452, 6075
4551, 1057, 1058, 1116, 1115, 1064, 6076, 6077, 5636, 5561, 1122
4552, 979, 3172, 896, 3174, 3197, 6078, 2928, 3195, 3199, 5519
4553, 2875, 111, 1056, 5428, 6079, 1062, 5996, 5987, 6080, 5935
4554, 106, 3238, 3246, 3244, 6081, 3266, 6082, 6083, 3285, 3287
4555, 3425, 517, 3421, 5427, 6084, 6085, 3498, 6086, 6088, 6087
4556, 4855, 357, 2074, 4852, 6089, 4726, 4891, 4893, 6090, 4889
4557, 3007, 852, 2971, 2271, 5562, 5564, 5517, 6091, 6092, 5967
4558, 4573, 1436, 1963, 1435, 5570, 4747, 4606, 5571, 1445, 4746
4559, 795, 3006, 648, 1043, 6093, 6094, 6095, 6096, 3035, 6097
4560, 5222, 5226, 5221, 5425, 5380, 5379, 5376, 5601, 5442, 5443
4561, 1802, 4694, 1803, 4856, 6098, 6099, 1809, 6100, 5902, 6101
4562, 1453, 407, 398, 5440, 6102, 2170, 6103, 5482, 6105, 6104
4563, 4102, 5410, 5424, 5437, 6106, 5982, 6107, 6108, 5983, 5944
4564, 865, 2975, 2279, 5420, 5730, 5665, 5781, 6054, 5747, 5637
4565, 4496, 191, 4497, 5437, 6109, 6110, 4533, 5523, 6111, 5525
4566, 3042, 3045, 1058, 5420, 3060, 3069, 3068, 6021, 6112, 5937
4567, 3427, 3435, 3434, 5409, 3531, 3578, 3565, 6113, 5608, 6071
4568, 4497, 191, 1574, 5437, 6110, 4007, 5532, 5525, 6111, 5535
4569, 3434, 3435, 3436, 5409, 3578, 3588, 3589, 6071, 5608, 5609
4570, 1113, 1045, 1046, 1114, 6114, 1052, 6115, 1120, 5714, 5932
4571, 2870, 1033, 1058, 5420, 5873, 5557, 5872, 6116, 5936, 5937
4572, 3240, 1074, 3248, 3245, 6117, 5737, 3270, 3283, 5736, 3291
4573, 899, 94, 801, 3240, 2792, 811, 2794, 6118, 6120, 6119
4574, 1453, 245, 3424, 5417, 6121, 6122, 5977, 5979, 6123, 5981
4575, 231, 197, 196, 3884, 6124, 1469, 6125, 6126, 3910, 3909
4576, 2280, 2649, 2292, 5420, 6127, 6128, 2317, 5619, 6129, 5999
4577, 4102, 5424, 4103, 5437, 6107, 6130, 4119, 6108, 5944, 5534
4578, 222, 1638, 1634, 190, 4055, 4056, 1635, 6015, 5705, 5706
4579, 1638, 222, 223, 190, 4055, 1517, 1639, 5705, 6015, 6131
4580, 1072, 1112, 3076, 5435, 5770, 5785, 3104, 6132, 5931, 5711
4581, 4990, 4991, 3802, 1593, 5077, 6133, 6134, 5123, 5122, 6135
4582, 259, 4295, 313, 314, 6136, 4319, 6137, 6138, 4320, 1847
4583, 2260, 3041, 2266, 5436, 6139, 5815, 2433, 6053, 5655, 5691
4584, 3420, 3445, 3453, 5427, 3556, 3560, 3559, 6140, 6142, 6141
4585, 1642, 225, 190, 224, 4061, 6143, 5752, 1643, 1525, 6144
4586, 1194, 1419, 1420, 5408, 3863, 1429, 3864, 6145, 6147, 6146
4587, 1962, 4581, 4705, 4580, 6148, 5545, 4749, 4604, 4592, 5546
4588, 3434, 3423, 3427, 5409, 3566, 3534, 3565, 6071, 6149, 6113
4589, 2109, 280, 238, 5410, 5896, 6150, 6151, 5801, 5897, 6152
4590, 1754, 1753, 285, 283, 1760, 5760, 6153, 6154, 5761, 1747
4591, 3042, 865, 3045, 5420, 5727, 6155, 3060, 6021, 6054, 6112
4592, 1801, 4498, 1952, 304, 5498, 4562, 5537, 4287, 5990, 6156
4593, 318, 4294, 255, 317, 4306, 6157, 6158, 1851, 4325, 6159
4594, 201, 200, 227, 3885, 1473, 6160, 6161, 3893, 3915, 5784
4595, 223, 1642, 190, 224, 4058, 5752, 6131, 1521, 1643, 6144
4596, 1071, 3247, 3239, 5418, 5584, 3289, 5586, 6162, 6164, 6163
4597, 4978, 5426, 5410, 5437, 5941, 5974, 6165, 5942, 5943, 5983
4598, 5227, 5411, 5231, 5414, 5645, 5643, 5366, 5520, 6166, 5522
4599, 4808, 4805, 4800, 2110, 4822, 4847, 4848, 6167, 5685, 5686
4600, 1642, 223, 190, 1638, 4058, 6131, 5752, 4059, 1639, 5705
4601, 3076, 2289, 2264, 5435, 6168, 2430, 6169, 5711, 6171, 6170
4602, 2264, 2289, 854, 5435, 2430, 6172, 6173, 6170, 6171, 6174
4603, 1072, 1071, 1112, 5418, 1078, 5771, 5770, 6175, 6162, 6176
4604, 1752, 2111, 4701, 5408, 5755, 6012, 6177, 5679, 5756, 6014
4605, 5208, 5211, 5209, 5412, 5341, 5340, 5337, 6178, 6180, 6179
4606, 4854, 1803, 4694, 4856, 6181, 6099, 5900, 4882, 6101, 5902
4607, 4104, 4489, 4495, 5424, 6182, 4540, 6183, 6184, 6186, 6185
4608, 5014, 4992, 5007, 5408, 5101, 5046, 5137, 6187, 5951, 5949
4609, 1574, 238, 280, 5410, 1576, 6150, 6188, 6189, 6152, 5897
4610, 4216, 5406, 4213, 5426, 6190, 6064, 4250, 6191, 6193, 6192
4611, 189, 460, 461, 188, 6194, 464, 5695, 1451, 6195, 5696
4612, 2109, 4978, 2110, 5410, 4987, 4989, 2116, 5801, 6165, 5953
4613, 5008, 5009, 5004, 5407, 5067, 5148, 5156, 6196, 6198, 6197
4614, 109, 1033, 2975, 5432, 1040, 2983, 2978, 6066, 5719, 5848
4615, 1801, 2106, 4979, 362, 5499, 4981, 5667, 5835, 2112, 4980
4616, 452, 461, 5160, 5159, 2210, 6199, 6200, 6201, 5693, 5200
4617, 2292, 2661, 2281, 5420, 5661, 5662, 2480, 5999, 6202, 5998
4618, 5235, 5214, 5213, 5414, 5356, 5354, 5357, 6203, 6205, 6204
4619, 2870, 3117, 3119, 799, 5853, 3165, 5852, 6206, 6208, 6207
4620, 2281, 866, 3045, 2288, 6209, 6024, 5723, 2446, 6025, 5724
4621, 4804, 1418, 4799, 4698, 6210, 6211, 4843, 5798, 6212, 5797
4622, 2266, 863, 2277, 5428, 6016, 6213, 2435, 6019, 6018, 6214
4623, 1950, 4502, 1577, 191, 4556, 5884, 5888, 6215, 6216, 4010
4624, 4979, 362, 4978, 5426, 4980, 4982, 4984, 5803, 5804, 5941
4625, 1400, 140, 1417, 1191, 1402, 6217, 6218, 5447, 3631, 3858
4626, 1195, 1305, 158, 1420, 5446, 1306, 3671, 3847, 5638, 5639
4627, 451, 21, 23, 5431, 454, 468, 2206, 6219, 6221, 6220
4628, 4853, 4696, 4852, 2073, 6009, 6222, 4890, 4886, 4727, 4888
4629, 1582, 1581, 4699, 4574, 1588, 6223, 6224, 6225, 6227, 6226
4630, 4103, 5424, 4494, 5437, 6130, 6228, 5646, 5534, 5944, 5524
4631, 4103, 4495, 4494, 5424, 6229, 4538, 5646, 6130, 6185, 6228
4632, 442, 19, 21, 5431, 445, 459, 2199, 5877, 5878, 6221
4633, 1803, 4993, 297, 299, 5469, 5106, 5675, 5701, 5105, 1794
4634, 283, 280, 1582, 2109, 1744, 6230, 6231, 5800, 5896, 6232
4635, 4097, 4094, 4095, 5406, 4170, 4168, 4146, 6233, 6065, 6234
4636, 5222, 5227, 5217, 5425, 5369, 5365, 5368, 5601, 5836, 5837
4637, 442, 21, 451, 5431, 2199, 454, 2202, 5877, 6221, 6219
4638, 3297, 2874, 3298, 1113, 6235, 6236, 3327, 6237, 6238, 5778
4639, 3437, 3442, 3441, 5430, 3584, 3598, 3592, 5611, 6239, 5610
4640, 4501, 1567, 1461, 4499, 6047, 4003, 6240, 4527, 6242, 6241
4641, 3116, 2876, 2875, 1056, 6243, 2946, 6244, 6245, 6246, 5996
4642, 3796, 4990, 1581, 5005, 6247, 6248, 6249, 6250, 5073, 6251
4643, 5220, 5211, 5208, 5412, 5342, 5341, 5343, 5917, 6180, 6178
4644, 2874, 3297, 2877, 1047, 6235, 6252, 2958, 6253, 6254, 5824
4645, 285, 1753, 287, 4214, 5760, 4233, 1750, 5816, 4234, 4235
4646, 5008, 3778, 5009, 5407, 6255, 6256, 5067, 6196, 6257, 6198
4647, 1754, 1753, 283, 2109, 1760, 5761, 6154, 6258, 5799, 5800
4648, 5233, 5208, 5218, 5411, 5345, 5339, 5344, 5792, 5757, 5644
4649, 1028, 1114, 109, 5433, 5715, 6259, 1034, 5633, 5919, 6068
4650, 4702, 4800, 4804, 1754, 5698, 4844, 5700, 6260, 5455, 5456
4651, 4489, 4104, 4262, 5424, 6182, 6261, 6262, 6186, 6184, 6263
4652, 5220, 5411, 5233, 5425, 5793, 5792, 5346, 5600, 6264, 5602
4653, 4101, 5405, 4213, 5410, 5589, 5590, 5588, 6069, 6055, 6265
4654, 280, 239, 1582, 238, 1728, 4020, 6230, 6150, 4018, 1589
4655, 1033, 1032, 2975, 5420, 1039, 3003, 2983, 5936, 5823, 5747
4656, 4213, 5405, 4217, 5410, 5590, 6266, 4231, 6265, 6055, 5818
4657, 4097, 5424, 4094, 5426, 6267, 6268, 4170, 6269, 5805, 6270
4658, 4491, 1567, 1454, 5415, 6046, 6045, 5777, 6271, 6273, 6272
4659, 2109, 280, 1582, 238, 5896, 6230, 6232, 6151, 6150, 1589
4660, 4099, 4212, 4213, 5405, 6274, 4222, 5587, 5591, 6275, 5590
4661, 3045, 865, 2281, 5420, 6155, 6276, 5723, 6112, 6054, 5998
4662, 1453, 416, 407, 5440, 6277, 2175, 6102, 5482, 6278, 6105
4663, 4996, 1804, 1825, 1803, 6032, 4293, 5132, 5984, 1810, 4280
4664, 3079, 881, 2259, 5428, 6279, 6280, 6281, 6282, 6283, 5971
4665, 1212, 1454, 371, 372, 5773, 6284, 5399, 5401, 5774, 375
4666, 3436, 5409, 3448, 5430, 5609, 5607, 3595, 5786, 6072, 5624
4667, 1045, 3007, 796, 5438, 3036, 5822, 5820, 6285, 6287, 6286
4668, 3007, 1045, 1044, 5438, 3036, 1051, 3037, 6287, 6285, 6288
4669, 1114, 3008, 1046, 5433, 5716, 3039, 5932, 5919, 5596, 6289
4670, 1574, 5410, 4102, 5437, 6189, 6106, 6290, 5535, 5983, 6108
4671, 4704, 4696, 2106, 1800, 4738, 6291, 5826, 5828, 6010, 5827
4672, 2868, 2877, 1071, 1112, 2910, 5790, 6292, 6293, 5789, 5771
4673, 289, 1752, 4701, 5408, 1758, 6177, 6294, 6295, 5679, 6014
4674, 4575, 1437, 1965, 1964, 5507, 4756, 4612, 4611, 4752, 1971
4675, 1574, 4102, 4103, 5437, 6290, 4119, 5533, 5535, 6108, 5534
4676, 1752, 2110, 4808, 4807, 6296, 6167, 6297, 6298, 6299, 4819
4677, 3448, 5413, 3446, 5430, 6300, 6301, 3525, 5624, 6302, 5626
4678, 3112, 3114, 3118, 799, 3161, 3142, 3162, 6303, 6305, 6304
4679, 239, 280, 1574, 238, 1728, 6188, 4019, 4018, 6150, 1576
4680, 2873, 1058, 3117, 2870, 5915, 5914, 5850, 2938, 5872, 5853
4681, 1045, 3296, 3302, 2866, 5491, 3346, 5492, 6035, 6306, 5615
4682, 1033, 109, 1115, 5432, 1040, 6307, 5559, 5719, 6066, 5718
4683, 4489, 304, 4498, 5424, 6308, 5990, 4566, 6186, 5991, 5501
4684, 4502, 191, 4496, 5437, 6216, 6109, 4558, 5664, 6111, 5523
4685, 3297, 110, 2877, 1047, 6309, 5889, 6252, 6254, 1054, 5824
4686, 97, 2277, 863, 5428, 6310, 6213, 869, 6311, 6214, 6018
4687, 1074, 2867, 1073, 1117, 5740, 5860, 1080, 5927, 6312, 5928
4688, 289, 4701, 1752, 4807, 6294, 6177, 1758, 6313, 6314, 6298
4689, 5218, 5208, 5207, 5411, 5339, 5338, 5299, 5644, 5757, 5758
4690, 2279, 2281, 865, 5420, 2445, 6276, 5781, 5637, 5998, 6054
4691, 1070, 3242, 3241, 793, 6315, 3273, 6316, 6317, 6318, 5870
4692, 4978, 5410, 2109, 5437, 6165, 5801, 4987, 5942, 5983, 6319
4693, 2280, 2281, 2279, 5420, 2479, 2445, 2478, 5619, 5998, 5637
4694, 3724, 4992, 289, 5408, 5947, 6320, 6321, 5950, 5951, 6295
4695, 2875, 111, 3116, 1056, 6079, 6322, 6244, 5996, 1062, 6245
4696, 4694, 1803, 4701, 2111, 6099, 6013, 4771, 6323, 5754, 6012
4697, 4496, 1950, 4503, 191, 4559, 4552, 4560, 6109, 6215, 6324
4698, 2281, 2661, 3045, 5420, 5662, 5725, 5723, 5998, 6202, 6112
4699, 5160, 462, 471, 461, 6325, 2215, 6326, 6199, 465, 2218
4700, 2867, 1074, 2875, 1117, 5740, 5985, 2943, 6312, 5927, 5986
4701, 5003, 5010, 5005, 5422, 5153, 5125, 5158, 5750, 6327, 5749
4702, 3452, 3446, 3445, 5413, 3605, 3604, 3581, 5868, 6301, 5867
4703, 2868, 1112, 1071, 5418, 6293, 5771, 6292, 6328, 6176, 6162
4704, 4496, 4502, 1950, 191, 4558, 4556, 4559, 6109, 6216, 6215
4705, 3174, 978, 896, 979, 3194, 2924, 5519, 3195, 985, 2928
4706, 4979, 1951, 4498, 5437, 6329, 4561, 5796, 6048, 6330, 6060
4707, 1950, 1577, 2108, 4697, 5888, 5885, 5887, 6331, 6333, 6332
4708, 1948, 4491, 4500, 1212, 4548, 4550, 4546, 6334, 5775, 5812
4709, 4097, 4262, 5424, 5426, 6335, 6263, 6267, 6269, 6336, 5805
4710, 1800, 1952, 335, 304, 5829, 1959, 5976, 4288, 6156, 6337
4711, 3176, 894, 977, 976, 5731, 2918, 5493, 3190, 2920, 983
4712, 2263, 5433, 5432, 5436, 6004, 6005, 6003, 6338, 6340, 6339
4713, 4098, 4101, 4213, 5410, 4173, 5588, 5794, 6341, 6069, 6265
4714, 2263, 95, 2287, 5432, 6002, 5831, 2363, 6003, 5833, 5834
4715, 2275, 2273, 2276, 5428, 2476, 2477, 2340, 5628, 5629, 6342
4716, 4263, 4264, 4097, 5429, 6343, 6344, 6345, 6346, 6348, 6347
4717, 2283, 3074, 645, 5421, 6349, 6350, 6351, 6352, 6354, 6353
4718, 4455, 267, 1938, 5405, 4458, 1939, 4459, 6355, 6357, 6356
4719, 1577, 191, 4502, 5437, 4010, 6216, 5884, 5945, 6111, 5664
4720, 4468, 266, 1941, 5405, 4470, 1942, 4471, 6358, 6360, 6359
4721, 3445, 3446, 3447, 5413, 3604, 3522, 3603, 5867, 6301, 6361
4722, 1454, 1567, 4501, 4499, 6045, 6047, 5891, 5892, 6242, 4527
4723, 1574, 4106, 5410, 5419, 6362, 6056, 6189, 6363, 6058, 6059
4724, 5230, 5403, 5412, 5425, 6364, 6365, 5488, 5441, 6366, 5814
4725, 1950, 4916, 4912, 4697, 5631, 4962, 5630, 6331, 5765, 5766
4726, 840, 2279, 2291, 2975, 6367, 2409, 5921, 5957, 5665, 5729
4727, 5212, 5214, 5216, 5414, 5353, 5355, 5292, 6368, 6205, 5521
4728, 2274, 2278, 839, 2613, 2311, 5510, 6369, 6370, 5961, 5703
4729, 1752, 4214, 1753, 2111, 4244, 4234, 1759, 5755, 6372, 6371
4730, 3079, 2655, 2667, 2259, 6373, 6374, 6375, 6281, 6377, 6376
4731, 3448, 5409, 5413, 5430, 5607, 6378, 6300, 5624, 6072, 6302
4732, 238, 2109, 5410, 5437, 6151, 5801, 6152, 6379, 6319, 5983
4733, 3408, 5432, 109, 5433, 6380, 6066, 6381, 6382, 6005, 6068
4734, 4212, 268, 4455, 267, 6383, 4457, 6384, 6385, 1694, 4458
4735, 631, 111, 86, 748, 6386, 6387, 2543, 6388, 6389, 750
4736, 4104, 4495, 4103, 5424, 6183, 6229, 4167, 6184, 6185, 6130
4737, 4213, 5406, 4094, 5426, 6064, 6065, 6061, 6192, 6193, 6270
4738, 2111, 4694, 1803, 1802, 6323, 6099, 5754, 6000, 6098, 1809
4739, 1963, 1962, 4573, 1435, 1969, 4605, 4606, 4746, 4748, 5571
4740, 5214, 5414, 5235, 5425, 6205, 6203, 5356, 5920, 6390, 5965
4741, 2263, 5432, 2261, 5436, 6003, 6391, 2470, 6338, 6339, 6392
4742, 4094, 5424, 5410, 5426, 6268, 5982, 6393, 6270, 5805, 5974
4743, 433, 434, 424, 243, 437, 2190, 2186, 6394, 6396, 6395
4744, 3115, 3120, 2873, 1116, 3167, 5916, 6397, 6398, 6400, 6399
4745, 3245, 3248, 3246, 2867, 3291, 3269, 3294, 5738, 5739, 5859
4746, 2262, 5433, 2263, 5436, 6401, 6004, 2471, 6402, 6340, 6338
4747, 4102, 5410, 4094, 5424, 6106, 6393, 4175, 6107, 5982, 6268
4748, 5008, 5407, 5004, 5422, 6196, 6197, 5156, 5751, 6403, 6026
4749, 339, 248, 5160, 308, 6404, 5183, 6405, 2000, 5466, 6406
4750, 2271, 2971, 3007, 796, 5967, 5517, 6091, 6407, 5821, 5822
4751, 1948, 4491, 1212, 4492, 4548, 5775, 6334, 4543, 4549, 6408
4752, 271, 4215, 4441, 272, 6409, 6410, 4443, 1698, 6411, 4444
4753, 2972, 837, 3455, 836, 6412, 6413, 6414, 6415, 843, 6416
4754, 1211, 4490, 4505, 1947, 6417, 4541, 6418, 6419, 4545, 4515
4755, 5227, 5233, 5411, 5425, 5371, 5792, 5645, 5836, 5602, 6264
4756, 297, 1802, 299, 5426, 6001, 6020, 1794, 6420, 6422, 6421
4757, 1115, 1058, 1116, 2870, 5561, 6076, 1122, 5871, 5872, 6423
4758, 1686, 5415, 263, 5440, 6424, 6425, 1688, 6426, 6428, 6427
4759, 3006, 648, 2285, 5438, 6094, 6429, 6430, 6431, 6433, 6432
4760, 4212, 268, 267, 4099, 6383, 1694, 6385, 6274, 4130, 4129
4761, 4997, 1825, 4994, 1803, 5131, 5111, 5130, 5468, 4280, 5467
4762, 1581, 1582, 4699, 5422, 1588, 6224, 6223, 6434, 6436, 6435
4763, 2266, 2260, 863, 3041, 2433, 6437, 6016, 5815, 6139, 6017
4764, 5015, 3706, 5001, 5408, 6438, 6439, 5040, 6440, 6441, 5855
4765, 3428, 3426, 3433, 5423, 3555, 3572, 3573, 6442, 6444, 6443
4766, 4099, 4101, 4100, 5405, 4178, 4179, 4131, 5591, 5589, 5898
4767, 1006, 3248, 3240, 899, 3268, 3270, 3254, 2882, 6445, 6118
4768, 2263, 2290, 95, 5433, 2364, 5603, 6002, 6004, 5597, 5604
4769, 1582, 2109, 4698, 5422, 6232, 6446, 6447, 6436, 6449, 6448
4770, 3452, 5413, 3428, 5430, 5868, 5866, 3579, 5905, 6302, 5904
4771, 5213, 5414, 345, 5416, 6204, 6450, 6451, 6452, 6453, 6042
4772, 4696, 1801, 2106, 1800, 6454, 5499, 6291, 6010, 1807, 5827
4773, 96, 854, 2289, 5421, 861, 6172, 6455, 5528, 6457, 6456
4774, 4489, 1952, 4498, 304, 4516, 4562, 4566, 6308, 6156, 5990
4775, 187, 1420, 1440, 2076, 3865, 3868, 1450, 4708, 6458, 4710
4776, 4096, 4098, 4213, 4094, 4138, 5794, 6062, 4169, 4171, 6061
4777, 1057, 1115, 1116, 5432, 5636, 1122, 6077, 5926, 5718, 6459
4778, 243, 442, 443, 212, 6460, 446, 6461, 1606, 6463, 6462
4779, 1190, 1405, 138, 1416, 5444, 1406, 3626, 3855, 6465, 6464
4780, 135, 1300, 186, 160, 5445, 6466, 3843, 3617, 1302, 6467
4781, 2257, 3005, 849, 2256, 6468, 6469, 6470, 2413, 5956, 6471
4782, 3041, 1056, 111, 5428, 3052, 1062, 3047, 5934, 5935, 6080
4783, 5221, 5412, 5220, 5425, 5489, 5917, 5373, 5443, 5814, 5600
4784, 4101, 4102, 4106, 5410, 4176, 4120, 4180, 6069, 6106, 6056
4785, 1950, 4912, 4910, 1949, 5630, 4958, 5849, 1956, 6473, 6472
4786, 1800, 4696, 1801, 4858, 6010, 6454, 1807, 5882, 6011, 6474
4787, 4855, 362, 357, 4852, 5681, 2105, 6089, 4893, 5684, 6090
4788, 2262, 5435, 5433, 5436, 6475, 6476, 6401, 6402, 6477, 6340
4789, 1574, 4106, 4102, 5410, 6362, 4120, 6290, 6189, 6056, 6106
4790, 4107, 1709, 4490, 4493, 4162, 4507, 6478, 6479, 4518, 4519
4791, 5205, 5228, 5236, 5412, 5331, 5334, 5269, 6480, 6481, 5490
4792, 4094, 4097, 4104, 5424, 4170, 4154, 4172, 6268, 6267, 6184
4793, 1045, 796, 2971, 5439, 5820, 5821, 5518, 5556, 6482, 5555
4794, 3242, 1070, 1071, 793, 6315, 1077, 5585, 6318, 6317, 6483
4795, 3076, 2264, 879, 5435, 6169, 6484, 6485, 5711, 6170, 6486
4796, 1754, 4999, 4998, 5407, 6487, 5095, 6488, 5911, 6490, 6489
4797, 1752, 4214, 2111, 5426, 4244, 6372, 5755, 6491, 5972, 6492
4798, 4214, 4216, 4213, 5410, 4246, 4250, 4257, 5819, 6493, 6265
4799, 1074, 3078, 881, 5428, 3109, 6494, 6495, 5669, 5670, 6283
4800, 5015, 5001, 5002, 5408, 5040, 5145, 5154, 6440, 5855, 5856
4801, 1580, 1592, 1593, 4991, 4029, 1596, 4031, 6496, 5078, 5122
4802, 5225, 5214, 5235, 5425, 5362, 5356, 5363, 5861, 5920, 5965
4803, 1802, 362, 4264, 5426, 6497, 5923, 4279, 6422, 5804, 5930
4804, 3076, 879, 2264, 2289, 6485, 6484, 6169, 6168, 6498, 2430
4805, 850, 3004, 2257, 2284, 6499, 6500, 6501, 6502, 6503, 2382
4806, 433, 15, 17, 5417, 2185, 441, 436, 6504, 6506, 6505
4807, 433, 424, 15, 5417, 2186, 427, 2185, 6504, 6507, 6506
4808, 1754, 2110, 1753, 2109, 5687, 5952, 1760, 6258, 2116, 5799
4809, 442, 17, 19, 5417, 2192, 450, 445, 5875, 6505, 5876
4810, 4996, 1804, 5006, 1825, 6032, 6033, 5031, 5132, 4293, 5129
4811, 1582, 5010, 5000, 5422, 6508, 5086, 6509, 6436, 6327, 6510
4812, 2111, 1802, 297, 5426, 6000, 6001, 5858, 6492, 6422, 6420
4813, 4911, 4916, 2087, 4697, 4950, 4948, 4947, 5767, 5765, 4745
4814, 2866, 3301, 1045, 795, 5616, 5476, 6035, 6511, 6513, 6512
4815, 16, 435, 18, 5416, 2187, 439, 440, 6514, 6516, 6515
4816, 435, 16, 426, 5416, 2187, 430, 2188, 6516, 6514, 6517
4817, 800, 1060, 630, 799, 6518, 6519, 2604, 809, 6520, 2603
4818, 4214, 1753, 2111, 5426, 4234, 6371, 6372, 5972, 5973, 6492
4819, 245, 5409, 3423, 5417, 6521, 6149, 6522, 6123, 6524, 6523
4820, 4097, 5406, 4095, 5429, 6233, 6234, 4146, 6347, 6526, 6525
4821, 442, 433, 17, 5417, 2193, 436, 2192, 5875, 6504, 6505
4822, 18, 435, 444, 5416, 439, 2195, 2194, 6515, 6516, 6527
4823, 4097, 5426, 5406, 5429, 6269, 6193, 6233, 6347, 6528, 6526
4824, 4804, 4702, 1754, 4698, 5700, 6260, 5456, 5798, 4766, 5909
4825, 1833, 4490, 4505, 1211, 6529, 4541, 6530, 6531, 6417, 6418
4826, 5013, 5009, 3772, 5407, 5063, 6532, 6533, 6534, 6198, 6535
4827, 2870, 1058, 3117, 799, 5872, 5914, 5853, 6206, 6536, 6208
4828, 4497, 4496, 3992, 192, 4533, 6537, 6538, 6539, 6540, 3994
4829, 110, 1047, 3009, 5421, 1054, 3017, 3012, 5583, 5742, 5741
4830, 1802, 2111, 362, 5426, 6000, 2118, 6497, 6422, 6492, 5804
4831, 4915, 4916, 1950, 4697, 4964, 5631, 5632, 6541, 5765, 6331
4832, 1113, 3302, 3296, 2866, 5780, 3346, 5779, 6542, 5615, 6306
4833, 1057, 5432, 1116, 5436, 5926, 6459, 6077, 6543, 6339, 6544
4834, 4104, 4102, 4094, 5424, 4177, 4175, 4172, 6184, 6107, 6268
4835, 2260, 2261, 3041, 5436, 2439, 6545, 6139, 6053, 6392, 5655
4836, 4100, 5405, 4106, 5419, 5898, 5899, 4127, 6546, 6057, 6058
4837, 3041, 5432, 1057, 5436, 6547, 5926, 3066, 5655, 6339, 6543
4838, 3408, 1115, 109, 5432, 3417, 6307, 6381, 6380, 5718, 6066
4839, 4491, 4493, 1710, 5415, 4522, 4517, 4523, 6271, 6549, 6548
4840, 2256, 2257, 3005, 646, 2413, 6468, 5956, 6550, 6552, 6551
4841, 433, 443, 243, 442, 2197, 6461, 6394, 2193, 446, 6460
4842, 443, 433, 243, 434, 2197, 6394, 6461, 2196, 437, 6396
4843, 2106, 4979, 1951, 4498, 4981, 6329, 6553, 5500, 5796, 4561
4844, 2273, 2259, 881, 5428, 2461, 6280, 6554, 5629, 5971, 6283
4845, 2261, 5432, 3041, 5436, 6391, 6547, 6545, 6392, 6339, 5655
4846, 5220, 5219, 5211, 5412, 5351, 5350, 5342, 5917, 5918, 6180
4847, 2262, 2263, 2261, 5436, 2471, 2470, 2469, 6402, 6338, 6392
4848, 1113, 1114, 1046, 5433, 1120, 5932, 6115, 6555, 5919, 6289
4849, 2088, 2059, 4916, 4918, 4790, 6556, 4949, 4951, 6557, 4953
4850, 4216, 4213, 5410, 5426, 4250, 6265, 6493, 6191, 6192, 5974
4851, 3240, 3248, 1074, 801, 3270, 5737, 6117, 6119, 6559, 6558
4852, 289, 4701, 4807, 356, 6294, 6314, 6313, 6560, 4719, 4811
4853, 4104, 4495, 4489, 1714, 6183, 4540, 6182, 4153, 4535, 4509
4854, 2261, 864, 3041, 5432, 6561, 6562, 6545, 6391, 6563, 6547
4855, 3078, 881, 2277, 2266, 6494, 6564, 6565, 5690, 6566, 2435
4856, 1574, 238, 5410, 5437, 1576, 6152, 6189, 5535, 6379, 5983
4857, 1952, 4489, 335, 304, 4516, 4512, 1959, 6156, 6308, 6337
4858, 111, 2727, 1061, 3044, 6567, 6568, 1068, 3048, 6569, 3053
4859, 3432, 3424, 3454, 5417, 3545, 3568, 3469, 5980, 5981, 6570
4860, 4095, 4094, 4096, 5406, 4168, 4169, 4142, 6234, 6065, 6063
4861, 1400, 3802, 139, 1580, 3805, 3803, 1401, 6571, 6573, 6572
4862, 3434, 5409, 3441, 5417, 6071, 6070, 3593, 6038, 6524, 6037
4863, 1800, 1801, 1952, 304, 1807, 5537, 5829, 4288, 4287, 6156
4864, 3778, 143, 1380, 5407, 3779, 1381, 3781, 6257, 6575, 6574
4865, 5227, 5414, 5216, 5425, 5520, 5521, 5364, 5836, 6390, 5838
4866, 4660, 5412, 5411, 5434, 6576, 6577, 6578, 6579, 6581, 6580
4867, 2267, 2283, 645, 5421, 2397, 6351, 6582, 6583, 6352, 6353
4868, 2265, 5433, 2262, 5435, 6584, 6401, 2473, 6585, 6476, 6475
4869, 4098, 4213, 4094, 5410, 5794, 6061, 4171, 6341, 6265, 6393
4870, 4998, 4999, 5004, 5407, 5095, 5147, 5146, 6489, 6490, 6197
4871, 297, 295, 1752, 5426, 1791, 6586, 5677, 6420, 6587, 6491
4872, 798, 3174, 896, 3172, 5459, 5519, 2805, 5460, 3199, 6078
4873, 2261, 2260, 3041, 864, 2439, 6139, 6545, 6561, 6588, 6562
4874, 1755, 3760, 5013, 5011, 6589, 6590, 6591, 6592, 6593, 5060
4875, 5162, 3425, 1618, 517, 6594, 6595, 5169, 6596, 6084, 6597
4876, 5014, 289, 4992, 5408, 6598, 6320, 5101, 6187, 6295, 5951
4877, 5235, 5414, 5213, 5416, 6203, 6204, 5357, 6599, 6453, 6452
4878, 4494, 1951, 4502, 5437, 4564, 4557, 4565, 5524, 6330, 5664
4879, 4697, 1950, 1577, 1415, 6331, 5888, 6333, 6600, 6602, 6601
4880, 1074, 3079, 881, 3078, 3110, 6279, 6495, 3109, 3101, 6494
4881, 372, 4492, 1212, 4491, 6603, 6408, 5401, 5776, 4549, 5775
4882, 941, 102, 3044, 868, 948, 3049, 3051, 2842, 2838, 6604
4883, 1059, 2673, 3045, 2685, 6605, 5963, 3070, 6606, 6608, 6607
4884, 4805, 4806, 4804, 1754, 4825, 4851, 4846, 5457, 6609, 5456
4885, 2871, 1115, 1033, 3171, 6610, 5559, 6008, 5743, 6611, 6007
4886, 4098, 4094, 4101, 5410, 4171, 4174, 4173, 6341, 6393, 6069
4887, 5225, 5217, 5214, 5425, 5361, 5359, 5362, 5861, 5837, 5920
4888, 3045, 2673, 866, 2685, 5963, 6023, 6024, 6607, 6608, 6612
4889, 4698, 2109, 1754, 5422, 6446, 6258, 5909, 6448, 6449, 6613
4890, 2256, 646, 110, 5421, 6550, 6614, 5581, 5529, 6615, 5583
4891, 796, 836, 2271, 1029, 6616, 5968, 6407, 6617, 5969, 5970
4892, 1714, 4489, 4104, 4262, 4509, 6182, 4153, 6618, 6262, 6261
4893, 2867, 115, 3246, 1073, 6619, 6073, 5859, 5860, 6075, 5452
4894, 1710, 4493, 4107, 5415, 4517, 6479, 4164, 6548, 6549, 6620
4895, 1591, 191, 1415, 1578, 1594, 6621, 6622, 4012, 4011, 6623
4896, 1330, 3718, 153, 5408, 3721, 3719, 1331, 6624, 6626, 6625
4897, 5213, 5214, 5212, 5414, 5354, 5353, 5319, 6204, 6205, 6368
4898, 373, 1211, 372, 5415, 5397, 5402, 376, 6627, 6629, 6628
4899, 5202, 2022, 515, 5163, 6630, 6631, 6632, 6633, 5192, 6634
4900, 1115, 1033, 2870, 2871, 5559, 5873, 5871, 6610, 6008, 2931
4901, 442, 5404, 5417, 5431, 6635, 6636, 5875, 5877, 6637, 5879
4902, 1071, 2877, 793, 5421, 5790, 6638, 6483, 5506, 5791, 6639
4903, 2265, 2263, 2262, 5433, 2472, 2471, 2473, 6584, 6004, 6401
4904, 1113, 1045, 1114, 2866, 6114, 5714, 1120, 6542, 6035, 6640
4905, 4978, 362, 2111, 5426, 4982, 2118, 4983, 5941, 5804, 6492
4906, 4106, 237, 1574, 4102, 4116, 1575, 6362, 4120, 4118, 6290
4907, 2257, 849, 3004, 850, 6470, 6641, 6500, 6501, 856, 6499
4908, 800, 1060, 1061, 630, 6518, 1067, 6642, 2604, 6519, 6643
4909, 3079, 1074, 881, 5428, 3110, 6495, 6279, 6282, 5669, 6283
4910, 1947, 1211, 4490, 4492, 6419, 6417, 4545, 4542, 6644, 4544
4911, 3408, 5432, 5433, 5436, 6380, 6005, 6382, 6645, 6339, 6340
4912, 4264, 5424, 4262, 5426, 5924, 6263, 4276, 5930, 5805, 6336
4913, 2267, 2269, 2283, 5421, 2467, 2474, 2397, 6583, 5530, 6352
4914, 4102, 4104, 4103, 5424, 4177, 4167, 4119, 6107, 6184, 6130
4915, 3296, 1045, 1113, 2866, 5491, 6114, 5779, 6306, 6035, 6542
4916, 1582, 281, 1734, 4574, 4195, 1741, 4199, 6225, 4583, 4587
4917, 4106, 1574, 4006, 5419, 6362, 4017, 6646, 6058, 6363, 6647
4918, 3302, 3298, 989, 1113, 3326, 6648, 6649, 5780, 5778, 3232
4919, 4262, 1816, 4489, 305, 4270, 6650, 6262, 4285, 1817, 6651
4920, 5162, 2282, 517, 2285, 6652, 2295, 6596, 6653, 2383, 2384
4921, 1017, 3303, 3302, 2866, 3319, 3323, 3321, 2917, 5614, 5615
4922, 480, 470, 1875, 471, 2226, 6654, 6655, 2223, 474, 6656
4923, 469, 479, 1491, 478, 2225, 6657, 6658, 2221, 482, 6659
4924, 479, 469, 1491, 470, 2225, 6658, 6657, 2224, 473, 6660
4925, 470, 480, 1875, 479, 2226, 6655, 6654, 2224, 483, 6661
4926, 1114, 2866, 1045, 5439, 6640, 6035, 5714, 6006, 6662, 5556
4927, 1412, 4704, 335, 1800, 6663, 5975, 6664, 6665, 5828, 5976
4928, 297, 1752, 2111, 5426, 5677, 5755, 5858, 6420, 6491, 6492
4929, 4264, 5426, 4097, 5429, 5930, 6269, 6344, 6348, 6528, 6347
4930, 5206, 2121, 1834, 5232, 5246, 5118, 6666, 5324, 5305, 6040
4931, 3079, 2258, 2655, 2259, 6667, 6668, 6373, 6281, 2349, 6377
4932, 4104, 4097, 4262, 5424, 4154, 6335, 6261, 6184, 6267, 6263
4933, 1686, 4105, 263, 5415, 4110, 4122, 1688, 6424, 6669, 6425
4934, 267, 4468, 1938, 5405, 4469, 4472, 1939, 6357, 6358, 6356
4935, 5012, 5014, 4993, 5408, 5102, 5141, 5107, 5865, 6187, 5788
4936, 4493, 4490, 4107, 5415, 4519, 6478, 6479, 6549, 6670, 6620
4937, 4097, 4094, 5406, 5426, 4170, 6065, 6233, 6269, 6270, 6193
4938, 4504, 3992, 4496, 1461, 6671, 6537, 4534, 6672, 3993, 6673
4939, 795, 3305, 3299, 3304, 6674, 3348, 6675, 6676, 3333, 3351
4940, 4468, 267, 266, 5405, 4469, 1693, 4470, 6358, 6357, 6360
4941, 4653, 5231, 5411, 5414, 6677, 5643, 6678, 6679, 5522, 6166
4942, 3045, 866, 3043, 2685, 6024, 6680, 3063, 6607, 6612, 6681
4943, 452, 443, 442, 212, 2203, 446, 2204, 6682, 6462, 6463
4944, 452, 442, 451, 212, 2204, 2202, 455, 6682, 6463, 6683
4945, 3120, 1058, 2873, 1116, 5913, 5915, 5916, 6400, 6076, 6399
4946, 2271, 796, 3007, 5438, 6407, 5822, 6091, 6684, 6286, 6287
4947, 1032, 3172, 3171, 3169, 5479, 3200, 5746, 5480, 3218, 3214
4948, 3045, 3043, 1059, 2685, 3063, 3072, 3070, 6607, 6681, 6606
4949, 3432, 1453, 1170, 3424, 5978, 5088, 3464, 3545, 5977, 3538
4950, 3296, 1045, 1046, 1113, 5491, 1052, 6685, 5779, 6114, 6115
4951, 3449, 3437, 3436, 5430, 3586, 3591, 3596, 5625, 5611, 5786
4952, 3115, 3121, 3120, 1116, 3164, 3149, 3167, 6398, 6686, 6400
4953, 5228, 5219, 5236, 5412, 5352, 5374, 5334, 6481, 5918, 5490
4954, 1193, 1419, 1756, 1418, 3862, 6687, 6688, 3860, 1428, 5673
4955, 285, 4998, 1754, 4999, 5094, 6488, 6153, 5090, 5095, 6487
4956, 1801, 304, 4264, 5424, 4287, 4291, 4290, 5503, 5991, 5924
4957, 2262, 880, 3077, 5436, 6689, 5954, 6690, 6402, 5692, 5883
4958, 3045, 2673, 1059, 5420, 5963, 6605, 3070, 6112, 6692, 6691
4959, 5015, 5007, 3712, 5408, 5043, 6693, 6694, 6440, 5949, 6695
4960, 2266, 2277, 3078, 5428, 2435, 6565, 5690, 6019, 6214, 5670
4961, 5433, 5435, 3409, 5436, 6476, 6696, 6697, 6340, 6477, 6698
4962, 192, 1574, 4497, 191, 4008, 5532, 6539, 1460, 4007, 6110
4963, 4213, 4094, 5410, 5426, 6061, 6393, 6265, 6192, 6270, 5974
4964, 1032, 2974, 790, 1031, 3001, 6699, 6700, 1038, 3002, 6701
4965, 3041, 1057, 1117, 5436, 3066, 6702, 5988, 5655, 6543, 5989
4966, 15, 424, 13, 5417, 427, 2178, 432, 6506, 6507, 6703
4967, 415, 13, 424, 5417, 418, 2178, 2179, 6704, 6703, 6507
4968, 839, 2974, 2274, 2613, 5768, 6705, 6369, 5703, 5769, 6370
4969, 3445, 3420, 3428, 5423, 3556, 3554, 3557, 6706, 6707, 6442
4970, 1949, 4912, 4910, 4914, 6473, 4958, 6472, 6708, 4957, 4935
4971, 2276, 2277, 97, 5428, 2376, 6310, 5808, 6342, 6214, 6311
4972, 1071, 3239, 2868, 5418, 5586, 6709, 6292, 6162, 6163, 6328
4973, 2293, 3007, 852, 851, 6710, 5562, 6711, 6712, 6713, 858
4974, 1950, 1577, 1455, 191, 5888, 6714, 6715, 6215, 4010, 1459
4975, 839, 1032, 2975, 2974, 5539, 3003, 5512, 5768, 3001, 2995
4976, 335, 4489, 1944, 1832, 4512, 4510, 1946, 6716, 6718, 6717
4977, 2877, 108, 110, 3297, 2903, 6719, 5889, 6252, 3307, 6309
4978, 4698, 4699, 1582, 5422, 4759, 6224, 6447, 6448, 6435, 6436
4979, 329, 498, 330, 497, 6720, 6721, 1866, 6722, 501, 6723
4980, 1581, 5005, 5010, 5422, 6251, 5125, 6724, 6434, 5749, 6327
4981, 1577, 4705, 2108, 4697, 5544, 6725, 5885, 6333, 4751, 6332
4982, 4997, 4995, 4996, 1420, 5143, 5034, 5133, 6726, 6728, 6727
4983, 3438, 3440, 3441, 5417, 3599, 3594, 3600, 6729, 6036, 6037
4984, 85, 111, 748, 2703, 6730, 6389, 749, 2706, 6731, 2708
4985, 4214, 4216, 5410, 5426, 4246, 6493, 5819, 5972, 6191, 5974
4986, 2287, 2291, 864, 5432, 2410, 6732, 6733, 5834, 5922, 6563
4987, 4860, 4861, 1412, 1799, 4872, 6734, 5907, 6735, 6737, 6736
4988, 299, 5426, 301, 5429, 6421, 6738, 1797, 6739, 6528, 6740
4989, 4494, 5424, 4498, 5437, 6228, 5501, 4563, 5524, 5944, 6060
4990, 4573, 4581, 1962, 4580, 4621, 6148, 4605, 4607, 4592, 4604
4991, 1114, 3408, 109, 5433, 3418, 6381, 6259, 5919, 6382, 6068
4992, 3448, 5409, 3918, 5413, 5607, 6741, 6742, 6300, 6378, 6743
4993, 1058, 2873, 1116, 2870, 5915, 6399, 6076, 5872, 2938, 6423
4994, 2875, 111, 104, 3116, 6079, 6744, 2886, 6244, 6322, 3124
4995, 992, 3121, 3115, 1116, 6745, 3164, 6746, 3234, 6686, 6398
4996, 897, 3114, 3118, 966, 6747, 3142, 6748, 2932, 3140, 3138
4997, 4702, 2110, 4800, 1754, 6749, 5686, 5698, 6260, 5687, 5455
4998, 3451, 3422, 3421, 5423, 3490, 3548, 3495, 6051, 6750, 6050
4999, 4214, 1752, 290, 5426, 4244, 4241, 4245, 5972, 6491, 6751
5000, 4102, 237, 1574, 4103, 4118, 1575, 6290, 4119, 4112, 5533
5001, 1948, 1187, 1414, 1413, 6752, 3851, 6753, 6754, 3850, 1423
5002, 299, 1802, 301, 5426, 6020, 4278, 1797, 6421, 6422, 6738
5003, 3409, 1046, 1112, 5433, 6755, 6756, 3411, 6697, 6289, 6757
5004, 4912, 1950, 4697, 1414, 5630, 6331, 5766, 6758, 6760, 6759
5005, 1071, 3074, 3076, 5421, 3102, 3093, 3105, 5506, 6354, 5505
5006, 2874, 2877, 1112, 1047, 2958, 5789, 6761, 6253, 5824, 5787
5007, 2876, 1117, 2875, 1056, 6762, 5986, 2946, 6246, 5997, 5996
5008, 3045, 2661, 2673, 5420, 5725, 5964, 5963, 6112, 6202, 6692
5009, 3925, 5413, 5404, 5427, 6763, 6764, 6765, 6766, 6768, 6767
5010, 239, 1582, 5010, 5000, 4020, 6508, 5084, 5083, 6509, 5086
5011, 295, 5406, 4216, 5426, 6769, 6190, 6770, 6587, 6193, 6191
5012, 5160, 1627, 248, 5440, 5182, 1629, 5183, 6771, 5578, 6772
5013, 344, 345, 1834, 5232, 2011, 6039, 5117, 6773, 6041, 6040
5014, 3076, 3074, 878, 5421, 3093, 6774, 6775, 5505, 6354, 6776
5015, 4262, 4097, 4263, 4264, 6335, 6345, 4269, 4276, 6344, 6343
5016, 1834, 5415, 398, 5440, 6777, 6778, 6779, 6780, 6428, 6104
5017, 3078, 2277, 881, 5428, 6565, 6564, 6494, 5670, 6214, 6283
5018, 1418, 4698, 4804, 5407, 6212, 5798, 6210, 5959, 5912, 5910
5019, 5001, 4995, 4997, 1420, 5037, 5143, 5144, 6781, 6728, 6726
5020, 1117, 1057, 1116, 5436, 6702, 6077, 1123, 5989, 6543, 6544
5021, 3434, 5409, 3436, 5430, 6071, 5609, 3589, 5612, 6072, 5786
5022, 4995, 5001, 3700, 1420, 5037, 6782, 6783, 6728, 6781, 6784
5023, 864, 2291, 3042, 5432, 6732, 5728, 6785, 6563, 5922, 5717
5024, 3305, 1015, 3299, 3300, 6786, 3315, 3348, 3330, 3314, 3317
5025, 1581, 4990, 3802, 1593, 6248, 6134, 6787, 4023, 5123, 6135
5026, 5208, 5209, 5411, 5412, 5337, 5759, 5757, 6178, 6179, 6577
5027, 3442, 3437, 3433, 5430, 3584, 3583, 3575, 6239, 5611, 5903
5028, 3077, 5435, 2262, 5436, 6788, 6475, 6690, 5883, 6477, 6402
5029, 4213, 4217, 4214, 5410, 4231, 4237, 4257, 6265, 5818, 5819
5030, 1071, 1072, 3247, 5418, 1078, 6789, 5584, 6162, 6175, 6164
5031, 5237, 877, 3075, 552, 6790, 6791, 6792, 5281, 6794, 6793
5032, 4852, 4696, 357, 2073, 6222, 4722, 6090, 4888, 4727, 4725
5033, 854, 3009, 101, 928, 6795, 3013, 2824, 2828, 3015, 935
5034, 1577, 1950, 1455, 1415, 5888, 6715, 6714, 6601, 6602, 6796
5035, 1058, 3120, 1057, 1116, 5913, 6797, 1064, 6076, 6400, 6077
5036, 4212, 267, 4455, 5405, 6385, 4458, 6384, 6275, 6357, 6355
5037, 801, 3248, 1074, 2867, 6559, 5737, 6558, 6798, 5739, 5740
5038, 2062, 4808, 4800, 2110, 6799, 4848, 6800, 4977, 6167, 5686
5039, 3005, 849, 3004, 2257, 6469, 6641, 3021, 6468, 6470, 6500
5040, 3421, 3425, 35, 517, 3498, 3497, 3493, 6085, 6084, 521
5041, 290, 1752, 295, 5426, 4241, 6586, 1788, 6751, 6491, 6587
5042, 4908, 4918, 2107, 4700, 4954, 6801, 6802, 6803, 6805, 6804
5043, 4441, 1933, 272, 5406, 4446, 1934, 4444, 6806, 6808, 6807
5044, 106, 3238, 1004, 3246, 6081, 3262, 2898, 6082, 3266, 3264
5045, 5012, 289, 5014, 5408, 6809, 6598, 5102, 5865, 6295, 6187
5046, 100, 840, 2975, 915, 2810, 5957, 2979, 922, 2814, 2981
5047, 335, 4908, 1952, 4704, 6810, 6811, 1959, 5975, 6812, 5825
5048, 1455, 4503, 1950, 191, 6813, 4552, 6715, 1459, 6324, 6215
5049, 2271, 524, 836, 649, 2391, 6814, 5968, 6815, 6817, 6816
5050, 245, 246, 1453, 3424, 1609, 5087, 6121, 6122, 6818, 5977
5051, 3421, 3431, 3425, 5427, 3550, 3561, 3498, 6087, 6819, 6086
5052, 202, 225, 203, 190, 6820, 6821, 1475, 3891, 6143, 3895
5053, 253, 309, 319, 320, 6822, 4304, 6823, 6824, 4307, 1853
5054, 3298, 1046, 3297, 1113, 6825, 6826, 3327, 5778, 6115, 6237
5055, 1951, 1952, 2106, 4498, 1958, 5536, 6553, 4561, 4562, 5500
5056, 645, 1070, 3074, 3075, 6827, 3103, 6350, 6828, 3086, 3091
5057, 110, 793, 2877, 5421, 6829, 6638, 5889, 5583, 6639, 5791
5058, 4494, 1713, 4103, 4497, 4537, 4165, 5646, 4539, 4530, 5531
5059, 1056, 1117, 3041, 1057, 5997, 5988, 3052, 1063, 6702, 3066
5060, 5404, 5409, 244, 5417, 6830, 6831, 6832, 6636, 6524, 6833
5061, 790, 798, 628, 72, 6834, 2601, 5841, 792, 6835, 2512
5062, 801, 733, 632, 90, 6836, 5840, 2589, 6837, 734, 2552
5063, 5160, 248, 339, 5440, 5183, 6404, 6405, 6771, 6772, 6838
5064, 3409, 5435, 115, 5436, 6696, 6839, 3410, 6698, 6477, 6840
5065, 1211, 4490, 4492, 5415, 6417, 4544, 6644, 6629, 6670, 6841
5066, 647, 2257, 3004, 2284, 6842, 6500, 6843, 6844, 2382, 6503
5067, 2269, 96, 2289, 5421, 5526, 6455, 2371, 5530, 5528, 6456
5068, 5013, 1755, 4998, 5407, 6591, 6845, 5128, 6534, 6846, 6489
5069, 3425, 3429, 1615, 5427, 3509, 6847, 6848, 6086, 6850, 6849
5070, 4262, 304, 4489, 5424, 4286, 6308, 6262, 6263, 5991, 6186
5071, 2284, 647, 215, 2285, 6844, 5174, 6851, 2385, 6853, 6852
5072, 2262, 3077, 879, 5435, 6690, 6854, 6855, 6475, 6788, 6486
5073, 3077, 880, 2262, 879, 5954, 6689, 6690, 6854, 886, 6855
5074, 5001, 3700, 167, 4995, 6782, 3702, 5036, 5037, 6783, 5033
5075, 1577, 4705, 4697, 1415, 5544, 4751, 6333, 6601, 6856, 6600
5076, 4699, 4698, 1582, 2109, 4759, 6447, 6224, 6857, 6446, 6232
5077, 852, 3007, 2293, 2271, 5562, 6710, 6711, 6092, 6091, 2423
5078, 198, 197, 230, 3885, 1470, 6858, 6859, 3911, 3912, 5864
5079, 315, 4294, 258, 314, 4322, 6860, 6861, 1848, 4321, 6862
5080, 4996, 3694, 1804, 1420, 6031, 6030, 6032, 6727, 6863, 5640
5081, 2262, 2260, 880, 5436, 2457, 6052, 6689, 6402, 6053, 5692
5082, 517, 215, 5162, 2285, 6864, 5178, 6596, 2384, 6852, 6653
5083, 3424, 245, 3423, 5417, 6122, 6522, 3537, 5981, 6123, 6523
5084, 798, 2625, 1032, 5420, 6865, 5540, 5478, 6866, 5748, 5823
5085, 1582, 4699, 2109, 4574, 6224, 6857, 6232, 6225, 6226, 6867
5086, 3925, 5404, 213, 5427, 6765, 6868, 3928, 6766, 6767, 6869
5087, 3425, 3431, 3429, 5427, 3561, 3571, 3509, 6086, 6819, 6850
5088, 1930, 273, 4431, 5406, 1931, 4432, 4435, 6870, 6872, 6871
5089, 3076, 878, 2289, 5421, 6775, 6873, 6168, 5505, 6776, 6456
5090, 4494, 4498, 1951, 5437, 4563, 4561, 4564, 5524, 6060, 6330
5091, 5225, 5226, 5222, 5425, 5383, 5380, 5367, 5861, 5442, 5601
5092, 1803, 4997, 4996, 1420, 5468, 5133, 5984, 6874, 6726, 6727
5093, 5220, 5208, 5411, 5412, 5343, 5757, 5793, 5917, 6178, 6577
5094, 3409, 5433, 1112, 5435, 6697, 6757, 3411, 6696, 6476, 5931
5095, 3420, 5423, 3445, 5427, 6707, 6706, 3556, 6140, 6875, 6142
5096, 4494, 1713, 4495, 4103, 4537, 4536, 4538, 5646, 4165, 6229
5097, 5013, 4998, 5009, 5407, 5128, 5149, 5063, 6534, 6489, 6198
5098, 3009, 5433, 2265, 5435, 6876, 6584, 6877, 5712, 6476, 6585
5099, 239, 1574, 280, 5419, 4019, 6188, 1728, 6878, 6363, 6879
5100, 795, 3305, 3304, 1043, 6674, 3333, 6676, 6096, 6881, 6880
5101, 2259, 3079, 2258, 881, 6281, 6667, 2349, 6280, 6279, 6882
5102, 4499, 1711, 4504, 1461, 4528, 4526, 4529, 6241, 6883, 6672
5103, 796, 2271, 2971, 1029, 6407, 5967, 5821, 6617, 5970, 2996
5104, 798, 799, 629, 5420, 808, 2602, 2600, 6866, 6885, 6884
5105, 4264, 301, 5426, 5429, 4271, 6738, 5930, 6348, 6740, 6528
5106, 4908, 2089, 4700, 4704, 4926, 4798, 6803, 6812, 4733, 4786
5107, 335, 359, 4908, 4704, 6886, 4919, 6810, 5975, 4731, 6812
5108, 1046, 1047, 3297, 1113, 1053, 6254, 6826, 6115, 6887, 6237
5109, 4999, 5407, 1754, 5422, 6490, 5911, 6487, 6888, 6403, 6613
5110, 2256, 3005, 110, 646, 5956, 3011, 5581, 6550, 6551, 6614
5111, 4499, 1711, 1461, 4501, 4528, 6883, 6241, 4527, 4520, 6240
5112, 4490, 1944, 1832, 4505, 4511, 6717, 6889, 4541, 4514, 6890
5113, 2974, 2607, 790, 1031, 6891, 2612, 6699, 3002, 6892, 6701
5114, 1032, 2974, 2607, 790, 3001, 6891, 6893, 6700, 6699, 2612
5115, 1755, 5013, 4998, 1779, 6591, 5128, 6845, 4253, 5127, 5096
5116, 2256, 2257, 646, 2268, 2413, 6552, 6550, 2465, 2379, 6894
5117, 4213, 4215, 4096, 5406, 4225, 6895, 6062, 6064, 6896, 6063
5118, 2267, 793, 646, 5421, 6897, 6898, 6899, 6583, 6639, 6615
5119, 4216, 4214, 290, 5426, 4246, 4245, 4243, 6191, 5972, 6751
5120, 4491, 372, 4492, 5415, 5776, 6603, 4549, 6271, 6628, 6841
5121, 261, 262, 4295, 5440, 1685, 6900, 6901, 6902, 6904, 6903
5122, 5232, 5213, 345, 5416, 5308, 6451, 6041, 6043, 6452, 6042
5123, 4097, 4264, 4262, 5426, 6344, 4276, 6335, 6269, 5930, 6336
5124, 1418, 4804, 1754, 5407, 6210, 5456, 6905, 5959, 5910, 5911
5125, 5232, 5235, 5213, 5416, 5358, 5357, 5308, 6043, 6599, 6452
5126, 2866, 796, 1045, 5439, 6906, 5820, 6035, 6662, 6482, 5556
5127, 5001, 5015, 168, 3706, 5040, 5038, 5035, 6439, 6438, 3708
5128, 3446, 5413, 3452, 5430, 6301, 5868, 3605, 5626, 6302, 5905
5129, 2283, 878, 3074, 5421, 6907, 6774, 6349, 6352, 6776, 6354
5130, 443, 452, 453, 5440, 2203, 456, 2205, 6908, 6910, 6909
5131, 443, 453, 444, 5440, 2205, 2201, 447, 6908, 6909, 6911
5132, 5164, 330, 2257, 516, 5189, 6912, 6913, 6914, 6915, 2377
5133, 2282, 5162, 648, 2285, 6652, 5177, 6916, 2383, 6653, 6429
5134, 3077, 115, 5435, 5436, 6917, 6839, 6788, 5883, 6840, 6477
5135, 1211, 4505, 136, 1947, 6418, 6918, 1213, 6419, 4515, 6919
5136, 24, 22, 453, 5403, 467, 457, 2207, 6920, 6922, 6921
5137, 24, 453, 462, 5403, 2207, 2209, 466, 6920, 6921, 6923
5138, 416, 1453, 407, 406, 6277, 6102, 2175, 2176, 6924, 410
5139, 3172, 2871, 798, 1032, 5744, 6925, 5460, 5479, 5745, 5478
5140, 3433, 3449, 3452, 5430, 3585, 3587, 3580, 5903, 5625, 5905
5141, 2971, 1029, 1028, 5439, 2996, 1035, 2982, 5555, 6926, 5554
5142, 3754, 1755, 1756, 5011, 6927, 1762, 6928, 6929, 6592, 6930
5143, 3246, 115, 106, 3244, 6073, 1111, 6082, 3287, 6074, 6083
5144, 2290, 853, 3008, 5433, 6931, 6932, 5593, 5597, 6933, 5596
5145, 4698, 1754, 5407, 5422, 5909, 5911, 5912, 6448, 6613, 6403
5146, 406, 416, 1453, 415, 2176, 6277, 6924, 2172, 419, 6934
5147, 1974, 289, 1752, 4807, 4627, 1758, 4628, 4813, 6313, 6298
5148, 115, 3077, 1073, 5436, 6917, 3107, 6075, 6840, 5883, 5657
5149, 3243, 3244, 3247, 5418, 3292, 3290, 3279, 6935, 6936, 6164
5150, 2273, 2277, 2276, 5428, 2464, 2376, 2477, 5629, 6214, 6342
5151, 407, 408, 398, 5440, 411, 2169, 2170, 6105, 6937, 6104
5152, 801, 2875, 1074, 5428, 6938, 5985, 6558, 6939, 5987, 5669
5153, 3884, 231, 197, 3885, 6126, 6124, 3910, 3913, 5863, 3912
5154, 649, 2286, 524, 523, 6940, 2386, 6817, 6941, 2387, 526
5155, 4501, 1710, 1567, 4105, 4521, 4158, 6047, 6942, 4159, 4109
5156, 4500, 1455, 1454, 4499, 6943, 1458, 5813, 4554, 6944, 5892
5157, 1705, 4107, 1709, 4490, 4161, 4162, 4160, 6945, 6478, 4507
5158, 3171, 1115, 105, 980, 6611, 6946, 3182, 3184, 6947, 987
5159, 398, 390, 389, 5415, 2162, 393, 2163, 6778, 6949, 6948
5160, 215, 648, 5162, 2285, 5173, 5177, 5178, 6852, 6429, 6653
5161, 3433, 3428, 5423, 5430, 3573, 6442, 6443, 5903, 5904, 6950
5162, 2971, 836, 2972, 1029, 5966, 6415, 2987, 2996, 5969, 2997
5163, 1057, 3121, 1056, 1116, 6951, 6952, 1063, 6077, 6686, 6953
5164, 3240, 1074, 1075, 801, 6117, 1081, 6954, 6119, 6558, 6955
5165, 3298, 1018, 3302, 989, 3324, 3322, 3326, 6648, 2962, 6649
5166, 2286, 796, 2271, 5438, 6956, 6407, 2392, 6957, 6286, 6684
5167, 3441, 3444, 3438, 5431, 3601, 3478, 3600, 6958, 6960, 6959
5168, 2257, 330, 646, 2268, 6912, 5185, 6552, 2379, 6961, 6894
5169, 3450, 3426, 3422, 5423, 3562, 3553, 3487, 6962, 6444, 6750
5170, 2127, 646, 2268, 2267, 5195, 6894, 6963, 6964, 6899, 2398
5171, 1153, 649, 2286, 648, 5198, 6940, 6965, 5197, 654, 6966
5172, 524, 3455, 837, 836, 3501, 6413, 6967, 6814, 6416, 843
5173, 1117, 1056, 3121, 1116, 5997, 6952, 6968, 1123, 6953, 6686
5174, 4215, 272, 271, 5406, 6411, 1698, 6409, 6896, 6807, 6969
5175, 295, 5012, 289, 290, 5103, 6809, 6970, 1788, 5097, 4238
5176, 5227, 5411, 5414, 5425, 5645, 6166, 5520, 5836, 6264, 6390
5177, 4496, 1712, 4497, 3992, 4532, 4531, 4533, 6537, 6971, 6538
5178, 3408, 5433, 3409, 5436, 6382, 6697, 3414, 6645, 6340, 6698
5179, 1114, 109, 3408, 1115, 6259, 6381, 3418, 1121, 6307, 3417
5180, 301, 1802, 4264, 5426, 4278, 4279, 4271, 6738, 6422, 5930
5181, 362, 4857, 4859, 4858, 5682, 4904, 6972, 5925, 4899, 4878
5182, 3243, 3244, 115, 1073, 3292, 6074, 6973, 5548, 5454, 6075
5183, 4497, 4496, 192, 191, 4533, 6540, 6539, 6110, 6109, 1460
5184, 262, 1682, 1686, 5440, 1684, 4092, 4093, 6904, 6974, 6426
5185, 1711, 1567, 1461, 4501, 4156, 4003, 6883, 4520, 6047, 6240
5186, 2869, 109, 105, 3170, 6975, 6976, 2889, 6977, 6978, 3180
5187, 645, 646, 2127, 2267, 651, 5195, 5196, 6582, 6899, 6964
5188, 5216, 5414, 5214, 5425, 5521, 6205, 5355, 5838, 6390, 5920
5189, 3433, 3426, 3442, 5431, 3572, 3574, 3575, 6979, 6981, 6980
5190, 1832, 1833, 4490, 4505, 1836, 6529, 6889, 6890, 6530, 4541
5191, 1780, 3754, 1756, 5011, 6982, 6928, 4254, 5056, 6929, 6930
5192, 5005, 3790, 181, 5008, 6983, 3795, 5069, 5070, 6984, 5066
5193, 304, 1412, 1800, 1812, 6985, 6665, 4288, 1814, 6986, 4289
5194, 398, 407, 1453, 406, 2170, 6102, 6103, 2168, 410, 6924
5195, 3424, 245, 129, 3423, 6122, 1864, 3536, 3537, 6522, 3533
5196, 3772, 5009, 5013, 178, 6532, 5063, 6533, 3777, 5061, 5058
5197, 3296, 1046, 3298, 1113, 6685, 6825, 3345, 5779, 6115, 5778
5198, 5004, 4999, 5003, 5422, 5147, 5150, 5152, 6026, 6888, 5750
5199, 271, 272, 4096, 5406, 1698, 4139, 4136, 6969, 6807, 6063
5200, 1453, 398, 406, 397, 6103, 2168, 6924, 6987, 401, 2165
5201, 965, 964, 3119, 897, 971, 3134, 3135, 2935, 2934, 6988
5202, 1017, 1016, 3303, 893, 1023, 3318, 3319, 2916, 2915, 6989
5203, 1116, 5432, 3408, 5436, 6459, 6380, 3419, 6544, 6339, 6645
5204, 289, 5014, 4992, 288, 6598, 5101, 6320, 1751, 5100, 5099
5205, 4107, 4490, 1705, 5415, 6478, 6945, 4161, 6620, 6670, 6990
5206, 2293, 2286, 2271, 5438, 2475, 2392, 2423, 6991, 6957, 6684
5207, 2089, 4908, 359, 4704, 4926, 4919, 2096, 4733, 6812, 4731
5208, 98, 3075, 2619, 5237, 6992, 6993, 6994, 6995, 6792, 6996
5209, 261, 4295, 260, 5440, 6901, 6997, 1681, 6902, 6903, 6998
5210, 5164, 2257, 330, 647, 6913, 6912, 5189, 5176, 6842, 5186
5211, 2282, 1153, 2286, 648, 6999, 6965, 2388, 6916, 5197, 6966
5212, 627, 614, 67, 797, 5854, 615, 2497, 2598, 7001, 7000
5213, 24, 462, 471, 5403, 466, 2215, 2214, 6920, 6923, 7002
5214, 4216, 290, 295, 5426, 4243, 1788, 6770, 6191, 6751, 6587
5215, 2268, 330, 646, 5163, 6961, 5185, 6894, 7003, 5188, 5187
5216, 5005, 4990, 1581, 1593, 5073, 6248, 6251, 5124, 5123, 4023
5217, 1144, 1046, 3297, 1143, 3379, 6826, 3313, 1150, 3378, 3340
5218, 2110, 1753, 4805, 1754, 5952, 7004, 5685, 5687, 1760, 5457
5219, 1097, 109, 1028, 3170, 3354, 1034, 3355, 3185, 6978, 7005
5220, 1033, 798, 2871, 1032, 7006, 6925, 6008, 1039, 5478, 5745
5221, 2286, 649, 1153, 523, 6940, 5198, 6965, 2387, 6941, 3544
5222, 647, 215, 5164, 2284, 5174, 5175, 5176, 6844, 6851, 7007
5223, 3423, 128, 3427, 5409, 3532, 3529, 3534, 6149, 7008, 6113
5224, 795, 1045, 2866, 796, 6512, 6035, 6511, 805, 5820, 6906
5225, 3424, 3423, 3440, 5417, 3537, 3563, 3564, 5981, 6523, 6036
5226, 4264, 304, 4262, 5424, 4291, 4286, 4276, 5924, 5991, 6263
5227, 3074, 878, 2283, 877, 6774, 6907, 6349, 7009, 884, 7010
5228, 2284, 5164, 2257, 516, 7007, 6913, 2382, 2380, 6914, 2377
5229, 2267, 553, 645, 552, 2394, 7011, 6582, 2393, 555, 7012
5230, 131, 132, 1579, 1180, 1177, 7013, 7014, 3540, 3539, 7015
5231, 5004, 5407, 4999, 5422, 6197, 6490, 5147, 6026, 6403, 6888
5232, 3009, 853, 2265, 5433, 7016, 7017, 6877, 6876, 6933, 6584
5233, 5009, 4998, 5004, 5407, 5149, 5146, 5148, 6198, 6489, 6197
5234, 1753, 4805, 4808, 2110, 7004, 4822, 7018, 5952, 5685, 6167
5235, 5162, 2282, 3425, 517, 6652, 7019, 6594, 6596, 2295, 6084
5236, 487, 5423, 496, 5427, 7020, 7021, 2235, 7022, 6875, 7023
5237, 801, 111, 2875, 5428, 7024, 6079, 6938, 6939, 6080, 5987
5238, 4694, 1420, 1803, 4854, 7025, 6874, 6099, 5900, 7026, 6181
5239, 4496, 4503, 1455, 191, 4560, 6813, 7027, 6109, 6324, 1459
5240, 363, 364, 1454, 379, 367, 7028, 7029, 2144, 2147, 7030
5241, 2877, 1019, 3297, 2874, 2905, 3311, 6252, 2958, 2970, 6235
5242, 1949, 4499, 4503, 1455, 4553, 4555, 4551, 7031, 6944, 6813
5243, 4993, 5014, 5002, 5408, 5141, 5142, 5139, 5788, 6187, 5856
5244, 2267, 645, 793, 5421, 6582, 7032, 6897, 6583, 6353, 6639
5245, 1800, 1412, 4861, 1799, 6665, 6734, 5880, 1806, 6736, 6737
5246, 1042, 110, 3005, 794, 1048, 3011, 3016, 7033, 7035, 7034
5247, 247, 248, 1627, 5440, 1626, 1629, 4048, 7036, 6772, 5578
5248, 243, 1610, 1453, 244, 5541, 5079, 5542, 1607, 4035, 7037
5249, 2482, 2973, 3455, 1030, 7038, 7039, 7040, 7041, 3000, 7042
5250, 645, 3074, 793, 5421, 6350, 7043, 7032, 6353, 6354, 6639
5251, 881, 2277, 2273, 5428, 6564, 2464, 6554, 6283, 6214, 5629
5252, 648, 215, 647, 2285, 5173, 5174, 653, 6429, 6852, 6853
5253, 1627, 1623, 247, 5440, 4047, 1625, 4048, 5578, 7044, 7036
5254, 1682, 262, 261, 5440, 1684, 1685, 4090, 6974, 6904, 6902
5255, 261, 1678, 1682, 5440, 1680, 4089, 4090, 6902, 5487, 6974
5256, 189, 5159, 214, 188, 5694, 5171, 5462, 1451, 5697, 7045
5257, 307, 5160, 248, 308, 7046, 5183, 7047, 1830, 6406, 5466
5258, 195, 233, 3884, 194, 7048, 5658, 3908, 1467, 7049, 3903
5259, 261, 311, 312, 4295, 7050, 1845, 7051, 6901, 4314, 4318
5260, 2974, 2274, 2613, 2607, 6705, 6370, 5769, 6891, 7053, 7052
5261, 267, 4212, 4099, 5405, 6385, 6274, 4129, 6357, 6275, 5591
5262, 2290, 2270, 3008, 853, 2402, 5623, 5593, 6931, 7054, 6932
5263, 2107, 4915, 4918, 4908, 7055, 4955, 6801, 6802, 4939, 4954
5264, 3121, 2876, 1117, 1116, 7056, 6762, 6968, 6686, 7057, 1123
5265, 330, 2257, 515, 2268, 6912, 2378, 7058, 6961, 2379, 2298
5266, 5014, 289, 5012, 288, 6598, 6809, 5102, 5100, 1751, 5098
5267, 1567, 1454, 1461, 4499, 6045, 3917, 4003, 6242, 5892, 6241
5268, 1375, 145, 3772, 5407, 1377, 3776, 3775, 7059, 7060, 6535
5269, 4263, 300, 4264, 5429, 4274, 4272, 6343, 6346, 7061, 6348
5270, 1072, 3077, 115, 5435, 3106, 6917, 7062, 6132, 6788, 6839
5271, 163, 161, 1799, 303, 1297, 7063, 7064, 7065, 7066, 1805
5272, 3441, 5417, 5409, 5430, 6037, 6524, 6070, 5610, 7067, 6072
5273, 5161, 330, 5164, 497, 5190, 5189, 5181, 7068, 6723, 7069
5274, 5164, 215, 5161, 497, 5175, 5180, 5181, 7069, 7070, 7068
5275, 1966, 2109, 4699, 4574, 7071, 6857, 4774, 4589, 6867, 6226
5276, 5225, 5222, 5217, 5425, 5367, 5368, 5361, 5861, 5601, 5837
5277, 1812, 1412, 1800, 1799, 6986, 6665, 4289, 4283, 6736, 1806
5278, 3445, 3428, 5413, 5423, 3557, 5866, 5867, 6706, 6442, 7072
5279, 129, 3423, 245, 5409, 3533, 6522, 1864, 7073, 6149, 6521
5280, 4996, 166, 3694, 4995, 5029, 3696, 6031, 5034, 5032, 7074
5281, 2119, 302, 1799, 1812, 5025, 4281, 7075, 5112, 1813, 4283
5282, 1709, 1839, 1705, 4490, 7076, 4404, 4160, 4507, 7077, 6945
5283, 3301, 1044, 1045, 795, 5474, 1051, 5476, 6513, 7078, 6512
5284, 865, 866, 3045, 2281, 872, 6024, 6155, 6276, 6209, 5723
5285, 204, 1518, 224, 203, 1520, 1519, 7079, 1476, 3958, 7080
5286, 4101, 4094, 4102, 5410, 4174, 4175, 4176, 6069, 6393, 6106
5287, 766, 1060, 3043, 1059, 7081, 3071, 7082, 7083, 1066, 3072
5288, 1730, 1729, 1577, 4581, 1736, 4198, 4201, 4590, 4591, 5543
5289, 1757, 1193, 1419, 1756, 7084, 3862, 7085, 1763, 6688, 6687
5290, 4431, 272, 1933, 5406, 4433, 1934, 4434, 6871, 6807, 6808
5291, 4496, 1712, 3992, 4504, 4532, 6971, 6537, 4534, 4525, 6671
5292, 3304, 3305, 1140, 1043, 3333, 3328, 3332, 6880, 6881, 3371
5293, 3242, 1126, 3247, 1071, 3271, 3275, 3276, 5585, 3399, 5584
5294, 2108, 2107, 1950, 4697, 2114, 7086, 5887, 6332, 7087, 6331
5295, 1803, 4996, 1804, 1420, 5984, 6032, 1810, 6874, 6727, 5640
5296, 4701, 2045, 4703, 4807, 4720, 4776, 4778, 6314, 4815, 7088
5297, 96, 849, 3005, 2256, 855, 6469, 5955, 5527, 6471, 5956
5298, 1705, 1840, 4392, 5415, 4405, 4401, 4393, 6990, 7090, 7089
5299, 4104, 1713, 4103, 4495, 4166, 4165, 4167, 6183, 4536, 6229
5300, 1083, 3121, 1056, 1084, 3145, 6952, 3383, 1090, 3144, 3386
5301, 3305, 1042, 1139, 1140, 7091, 3369, 3329, 3328, 3372, 1146
5302, 1125, 3242, 1070, 1126, 3272, 6315, 3397, 1132, 3271, 3400
5303, 2263, 2287, 2261, 5432, 2363, 2441, 2470, 6003, 5834, 6391
5304, 2284, 215, 5164, 516, 6851, 5175, 7007, 2380, 7092, 6914
5305, 260, 4295, 259, 5440, 6997, 6136, 1677, 6998, 6903, 7093
5306, 3409, 3408, 1114, 5433, 3414, 3418, 3416, 6697, 6382, 5919
5307, 1890, 252, 320, 321, 1891, 7094, 4360, 1892, 7095, 1854
5308, 204, 223, 1514, 205, 7096, 1515, 3955, 1477, 7097, 1516
5309, 322, 251, 1887, 321, 7098, 1888, 1889, 1855, 7099, 4357
5310, 198, 229, 1538, 199, 7100, 1539, 3973, 1471, 7101, 1540
5311, 316, 257, 1905, 315, 7102, 1906, 1907, 1849, 7103, 4375
5312, 1554, 233, 195, 194, 1555, 7048, 1556, 3985, 7049, 1467
5313, 311, 1917, 261, 312, 4387, 1918, 7050, 1845, 1919, 7051
5314, 1582, 1581, 5010, 5422, 1588, 6724, 6508, 6436, 6434, 6327
5315, 480, 28, 26, 5412, 484, 485, 2222, 7104, 7106, 7105
5316, 4100, 266, 267, 5405, 4126, 1693, 4128, 5898, 6360, 6357
5317, 285, 4217, 284, 5405, 5817, 7107, 1745, 7108, 6266, 7109
5318, 2255, 53, 2276, 2715, 2334, 2335, 2337, 5847, 2716, 5809
5319, 3449, 3433, 3437, 5430, 3585, 3583, 3586, 5625, 5903, 5611
5320, 330, 515, 2257, 516, 7058, 2378, 6912, 6915, 519, 2377
5321, 1192, 1375, 144, 5407, 7110, 1376, 3640, 5958, 7059, 7111
5322, 4006, 4106, 237, 1574, 6646, 4116, 4016, 4017, 6362, 1575
5323, 199, 198, 229, 3885, 1471, 7100, 7101, 3914, 3911, 5874
5324, 316, 4294, 257, 315, 4324, 7112, 7102, 1849, 4322, 7103
5325, 730, 70, 92, 94, 5839, 2509, 732, 7113, 2585, 7114
5326, 3760, 177, 5013, 5011, 3762, 5059, 6590, 6593, 5057, 5060
5327, 2268, 5202, 515, 5163, 7115, 6632, 2298, 7003, 6633, 6634
5328, 2110, 4808, 1753, 1752, 6167, 7018, 5952, 6296, 6297, 1759
5329, 1097, 3178, 1028, 1098, 3202, 7116, 3355, 1104, 3201, 3358
5330, 1057, 1084, 3121, 3120, 3385, 3144, 6951, 6797, 3148, 3149
5331, 5015, 169, 3712, 5007, 5039, 3714, 6694, 5043, 5042, 6693
5332, 645, 2127, 553, 2267, 5196, 5322, 7011, 6582, 6964, 2394
5333, 5163, 646, 2268, 2127, 5187, 6894, 7003, 5194, 5195, 6963
5334, 1086, 3111, 1085, 1058, 3150, 3151, 1092, 3390, 5938, 3387
5335, 1044, 1142, 1141, 3295, 3376, 1148, 3374, 5475, 3334, 3335
5336, 1141, 1043, 3304, 1140, 3373, 6880, 3331, 1147, 3371, 3332
5337, 1071, 1127, 1126, 3247, 3402, 1133, 3399, 5584, 3274, 3275
5338, 4694, 357, 2074, 4855, 4724, 4726, 4728, 5901, 6089, 4891
5339, 2265, 2262, 2264, 5435, 2473, 2454, 2428, 6585, 6475, 6170
5340, 1073, 1129, 3245, 1074, 3405, 3282, 5453, 1080, 3406, 5736
5341, 1046, 1144, 3297, 1047, 3379, 3313, 6826, 1053, 3370, 6254
5342, 3121, 1057, 3120, 1116, 6951, 6797, 3149, 6686, 6077, 6400
5343, 1729, 238, 1577, 4580, 4197, 1583, 4198, 4586, 7117, 5547
5344, 5211, 5215, 5209, 5412, 5347, 5329, 5340, 6180, 7118, 6179
5345, 2271, 2286, 524, 649, 2392, 2386, 2391, 6815, 6940, 6817
5346, 289, 4807, 337, 356, 6313, 4812, 4626, 6560, 4811, 2097
5347, 247, 1630, 249, 5440, 4051, 1632, 1633, 7036, 7120, 7119
5348, 247, 1623, 1630, 5440, 1625, 4050, 4051, 7036, 7044, 7120
5349, 1678, 261, 260, 5440, 1680, 1681, 4087, 5487, 6902, 6998
5350, 260, 1674, 1678, 5440, 1676, 4086, 4087, 6998, 5486, 5487
5351, 267, 4099, 4100, 5405, 4129, 4131, 4128, 6357, 5591, 5898
5352, 1950, 2107, 4915, 4697, 7086, 7055, 5632, 6331, 7087, 6541
5353, 5235, 5223, 5224, 5416, 5385, 5257, 5384, 6599, 7122, 7121
5354, 5007, 5015, 5014, 5408, 5043, 5155, 5137, 5949, 6440, 6187
5355, 4580, 238, 4695, 336, 7117, 7123, 7124, 4584, 7125, 4712
5356, 31, 29, 3451, 5423, 504, 3489, 3491, 6049, 7126, 6051
5357, 4441, 272, 4215, 5406, 4444, 6411, 6410, 6806, 6807, 6896
5358, 2283, 2267, 645, 552, 2397, 6582, 6351, 2395, 2393, 7012
5359, 244, 5409, 245, 5417, 6831, 6521, 1608, 6833, 6524, 6123
5360, 300, 4262, 4263, 4264, 4275, 4269, 4274, 4272, 4276, 6343
5361, 2110, 2062, 4808, 4807, 4977, 6799, 6167, 6299, 7127, 4819
5362, 357, 4694, 362, 4855, 4724, 7128, 2105, 6089, 5901, 5681
5363, 1546, 231, 197, 196, 1547, 6124, 1548, 3979, 6125, 1469
5364, 5009, 3778, 5008, 180, 6256, 6255, 5067, 5064, 3780, 5065
5365, 1420, 4701, 1803, 5408, 7129, 6013, 6874, 6146, 6014, 5680
5366, 1085, 1084, 1057, 3120, 1091, 3385, 3388, 3147, 3148, 6797
5367, 1974, 289, 4807, 337, 4627, 6313, 4813, 1980, 4626, 4812
5368, 417, 1834, 345, 5416, 7130, 6039, 7131, 7132, 6044, 6042
5369, 5213, 345, 349, 5232, 6451, 2017, 5307, 5308, 6041, 5304
5370, 2972, 3455, 1030, 649, 6414, 7042, 2998, 7133, 7135, 7134
5371, 3248, 3240, 899, 801, 3270, 6118, 6445, 6559, 6119, 2794
5372, 3432, 3454, 13, 5417, 3469, 3467, 3466, 5980, 6570, 6703
5373, 3177, 1098, 1099, 1029, 3205, 1105, 3204, 7136, 3357, 3359
5374, 517, 2284, 215, 2285, 2381, 6851, 6864, 2384, 2385, 6852
5375, 5413, 5423, 5404, 5427, 7072, 7137, 6764, 6768, 6875, 6767
5376, 282, 283, 5405, 5419, 1742, 7138, 7139, 7140, 7141, 6057
5377, 1070, 1071, 793, 3074, 1077, 6483, 6317, 3103, 3102, 7043
5378, 108, 2877, 1019, 3297, 2903, 2905, 1026, 3307, 6252, 3311
5379, 2873, 3119, 964, 897, 5851, 3134, 2936, 2937, 6988, 2934
5380, 5237, 3075, 645, 552, 6792, 6828, 7142, 5281, 6793, 7012
5381, 197, 230, 1542, 198, 6858, 1543, 3976, 1470, 6859, 1544
5382, 315, 258, 1908, 314, 6861, 1909, 1910, 1848, 6862, 4378
5383, 313, 1911, 259, 314, 4381, 1912, 6137, 1847, 1913, 6138
5384, 2048, 4799, 1438, 2047, 4836, 7143, 4763, 2054, 4835, 4762
5385, 1802, 1801, 4264, 362, 1808, 4290, 4279, 6497, 5835, 5923
5386, 1194, 154, 1330, 5408, 3662, 1332, 7144, 6145, 7145, 6624
5387, 2877, 1071, 793, 2868, 5790, 6483, 6638, 2910, 6292, 7146
5388, 3169, 1101, 1031, 1100, 3210, 3364, 7147, 3211, 1107, 3362
5389, 4705, 4581, 1962, 1435, 5545, 6148, 4749, 4750, 7148, 4748
5390, 1577, 191, 1578, 1415, 4010, 4011, 1584, 6601, 6621, 6623
5391, 793, 2877, 794, 110, 6638, 7149, 803, 6829, 5889, 7035
5392, 624, 625, 648, 795, 636, 2559, 2558, 2593, 2594, 6095
5393, 3931, 1491, 5159, 214, 3938, 5170, 7150, 3939, 1492, 5171
5394, 184, 4990, 4991, 3802, 5074, 5077, 5076, 3804, 6134, 6133
5395, 4700, 2107, 4908, 2106, 6804, 6802, 6803, 7151, 2113, 7152
5396, 330, 5164, 497, 516, 5189, 7069, 6723, 6915, 6914, 7153
5397, 497, 5164, 215, 516, 7069, 5175, 7070, 7153, 6914, 7092
5398, 103, 112, 3079, 2619, 1069, 3083, 3082, 7154, 7156, 7155
5399, 4505, 136, 1833, 1211, 6918, 7157, 6530, 6418, 1213, 6531
5400, 3439, 3440, 3438, 5417, 3569, 3599, 3475, 7158, 6036, 6729
5401, 4489, 335, 304, 1832, 4512, 6337, 6308, 6718, 6716, 1835
5402, 1420, 1804, 1803, 4854, 5640, 1810, 6874, 7026, 7159, 6181
5403, 1518, 1522, 224, 203, 3959, 3960, 1519, 3958, 1524, 7080
5404, 228, 1534, 1538, 199, 1535, 3971, 3972, 7160, 3970, 1540
5405, 231, 1546, 1550, 196, 1547, 3980, 3981, 6125, 3979, 1552
5406, 801, 800, 2875, 111, 810, 7161, 6938, 7024, 7162, 6079
5407, 3778, 1380, 144, 5407, 3781, 1382, 3782, 6257, 6574, 7111
5408, 1032, 2974, 2613, 2607, 3001, 5769, 5704, 6893, 6891, 7052
5409, 5003, 5000, 5010, 5422, 5151, 5086, 5153, 5750, 6510, 6327
5410, 489, 30, 28, 5412, 493, 494, 2229, 7163, 7164, 7106
5411, 28, 480, 489, 5412, 484, 2230, 2229, 7106, 7104, 7163
5412, 3409, 115, 3408, 5436, 3410, 3412, 3414, 6698, 6840, 6645
5413, 2262, 2261, 2260, 5436, 2469, 2439, 2457, 6402, 6392, 6053
5414, 1360, 3754, 147, 1755, 3757, 3755, 1361, 7165, 6927, 7166
5415, 794, 793, 110, 623, 803, 6829, 7035, 2592, 2590, 7167
5416, 3177, 3178, 1098, 1029, 3206, 3201, 3205, 7136, 7168, 3357
5417, 1966, 336, 2109, 4574, 1973, 7169, 7071, 4589, 4582, 6867
5418, 5228, 5211, 5219, 5412, 5349, 5350, 5352, 6481, 6180, 5918
5419, 1634, 250, 249, 5440, 1636, 1637, 4054, 5707, 7170, 7119
5420, 249, 1630, 1634, 5440, 1632, 4053, 4054, 7119, 7120, 5707
5421, 1674, 260, 259, 5440, 1676, 1677, 4084, 5486, 6998, 7093
5422, 259, 1670, 1674, 5440, 1672, 4083, 4084, 7093, 5552, 5486
5423, 297, 5406, 295, 5426, 7171, 6769, 1791, 6420, 6193, 6587
5424, 117, 108, 110, 3300, 1152, 6719, 3367, 3309, 3308, 7172
5425, 647, 5164, 2257, 2284, 5176, 6913, 6842, 6844, 7007, 2382
5426, 4701, 2045, 4807, 356, 4720, 4815, 6314, 4719, 2051, 4811
5427, 1949, 4499, 1455, 4500, 4553, 6944, 7031, 4547, 4554, 6943
5428, 1875, 4331, 5160, 248, 4334, 7173, 5184, 1876, 4333, 5183
5429, 631, 111, 800, 801, 6386, 7162, 2605, 2606, 7024, 810
5430, 2110, 2111, 4703, 4807, 2117, 7174, 7175, 6299, 7176, 7088
5431, 1593, 1581, 5005, 5010, 4023, 6251, 5124, 5085, 6724, 5125
5432, 2286, 648, 796, 5438, 6966, 7177, 6956, 6957, 6433, 6286
5433, 1917, 1914, 260, 312, 4383, 1915, 4382, 1919, 4384, 7178
5434, 1550, 1554, 232, 195, 3983, 3984, 1551, 3982, 1556, 7179
5435, 1890, 252, 1893, 320, 1891, 4358, 4359, 4360, 7094, 1895
5436, 1538, 1542, 229, 198, 3974, 3975, 1539, 3973, 1544, 7100
5437, 1908, 1905, 257, 315, 4374, 1906, 4373, 1910, 4375, 7103
5438, 222, 1510, 1514, 205, 1511, 3953, 3954, 7180, 3952, 1516
5439, 250, 1887, 1884, 322, 4352, 4353, 1885, 7181, 1889, 4354
5440, 1518, 223, 1514, 204, 3957, 1515, 3956, 1520, 7096, 3955
5441, 251, 1890, 1887, 321, 4355, 4356, 1888, 7099, 1892, 4357
5442, 256, 1905, 1902, 316, 4370, 4371, 1903, 7182, 1907, 4372
5443, 1911, 259, 1914, 313, 1912, 4379, 4380, 4381, 6137, 1916
5444, 233, 1554, 1558, 194, 1555, 3986, 3987, 7049, 3985, 1560
5445, 261, 1920, 1917, 311, 4385, 4386, 1918, 7050, 1922, 4387
5446, 1153, 2282, 5162, 648, 6999, 6652, 5167, 5197, 6916, 5177
5447, 1991, 4854, 1803, 1992, 4880, 6181, 4650, 1998, 4867, 4652
5448, 798, 2870, 1033, 2871, 7183, 5873, 7006, 6925, 2931, 6008
5449, 1113, 1046, 3409, 5433, 6115, 6755, 3415, 6555, 6289, 6697
5450, 1033, 798, 1032, 5420, 7006, 5478, 1039, 5936, 6866, 5823
5451, 1415, 4697, 1950, 1414, 6600, 6331, 6602, 1424, 6759, 6760
5452, 203, 1522, 225, 202, 1524, 1523, 6821, 1475, 3961, 6820
5453, 319, 1893, 253, 320, 4363, 1894, 6823, 1853, 1895, 6824
5454, 2261, 2287, 864, 5432, 2441, 6733, 6561, 6391, 5834, 6563
5455, 301, 4264, 300, 5429, 4271, 4272, 1795, 6740, 6348, 7061
5456, 117, 108, 3297, 110, 1152, 3307, 3306, 3367, 6719, 6309
5457, 1140, 3305, 1042, 1043, 3328, 7091, 3372, 3371, 6881, 1049
5458, 1126, 3242, 1070, 1071, 3271, 6315, 3400, 3399, 5585, 1077
5459, 2110, 1752, 2111, 4807, 6296, 5755, 2117, 6299, 6298, 7176
5460, 799, 2870, 1058, 5420, 6206, 5872, 6536, 6885, 6116, 5937
5461, 3009, 1046, 3008, 5433, 3040, 3039, 3031, 6876, 6289, 5596
5462, 850, 851, 3006, 2285, 857, 7184, 7185, 7186, 7187, 6430
5463, 1754, 1753, 287, 285, 1760, 4233, 4232, 6153, 5760, 1750
5464, 1059, 1058, 3045, 5420, 1065, 3069, 3070, 6691, 5937, 6112
5465, 113, 104, 111, 3116, 1096, 6744, 3381, 3125, 3124, 6322
5466, 1902, 1899, 255, 317, 4368, 1900, 4367, 1904, 4369, 6159
5467, 227, 1530, 1534, 200, 1531, 3968, 3969, 6160, 3967, 1536
5468, 852, 572, 2293, 851, 2759, 2418, 6711, 858, 2761, 6712
5469, 5000, 5003, 4999, 5422, 5151, 5150, 5092, 6510, 5750, 6888
5470, 5223, 5232, 5210, 5416, 5348, 5335, 5254, 7122, 6043, 7188
5471, 3076, 878, 879, 2289, 6775, 885, 6485, 6168, 6873, 6498
5472, 1143, 1045, 3296, 1142, 3377, 5491, 3337, 1149, 3375, 3338
5473, 3112, 1059, 1086, 1087, 7189, 3389, 3154, 3153, 3392, 1093
5474, 111, 1083, 3116, 1056, 3382, 3128, 6322, 1062, 3383, 6245
5475, 3433, 5423, 3426, 5430, 6443, 6444, 3572, 5903, 6950, 7190
5476, 2108, 238, 1577, 5437, 7191, 1583, 5885, 5946, 6379, 5945
5477, 2062, 2109, 2110, 4702, 4975, 2116, 4977, 4780, 7192, 6749
5478, 2873, 992, 1116, 991, 2948, 3234, 6399, 2966, 998, 3235
5479, 3247, 1127, 3243, 1072, 3274, 3278, 3279, 6789, 3401, 7193
5480, 113, 104, 3113, 111, 1096, 3123, 3122, 3381, 6744, 7194
5481, 2284, 215, 516, 517, 6851, 7092, 2380, 2381, 6864, 520
5482, 2262, 879, 2264, 5435, 6855, 6484, 2454, 6475, 6486, 6170
5483, 894, 976, 3176, 5439, 2920, 3190, 5731, 7195, 7197, 7196
5484, 2075, 4854, 4694, 4855, 4894, 5900, 4770, 4892, 4895, 5901
5485, 1084, 3121, 1056, 1057, 3144, 6952, 3386, 3385, 6951, 1063
5486, 2637, 2280, 42, 2278, 5618, 2312, 2639, 5617, 2314, 2310
5487, 1071, 1127, 3247, 1072, 3402, 3274, 5584, 1078, 3401, 6789
5488, 1043, 1141, 3304, 1044, 3373, 3331, 6880, 1050, 3374, 5939
5489, 4262, 4104, 1714, 277, 6261, 4153, 6618, 4266, 4152, 4151
5490, 1086, 1059, 3111, 1058, 3389, 7198, 3150, 3390, 1065, 5938
5491, 1044, 1142, 3295, 1045, 3376, 3334, 5475, 1051, 3375, 5477
5492, 2282, 2286, 2293, 5438, 2388, 2475, 2481, 7199, 6957, 6991
5493, 559, 836, 524, 837, 2745, 6814, 2302, 2748, 843, 6967
5494, 1129, 1074, 3240, 3245, 3406, 6117, 3281, 3282, 5736, 3283
5495, 3079, 801, 1074, 5428, 7200, 6558, 3110, 6282, 6939, 5669
5496, 5007, 170, 3724, 4992, 5041, 3729, 5948, 5046, 5044, 5947
5497, 3295, 1044, 3304, 1141, 5475, 5939, 3336, 3335, 3374, 3331
5498, 1085, 3111, 3120, 1058, 3151, 3152, 3147, 3387, 5938, 5913
5499, 2271, 3007, 2293, 5438, 6091, 6710, 2423, 6684, 6287, 6991
5500, 444, 435, 434, 5440, 2195, 438, 2198, 6911, 7202, 7201
5501, 434, 443, 444, 5440, 2196, 447, 2198, 7201, 6908, 6911
5502, 3041, 3042, 1057, 5432, 3057, 3067, 3066, 6547, 5717, 5926
5503, 5220, 5412, 5411, 5425, 5917, 6577, 5793, 5600, 5814, 6264
5504, 2870, 798, 1033, 5420, 7183, 7006, 5873, 6116, 6866, 5936
5505, 1117, 1116, 3408, 5436, 1123, 3419, 3413, 5989, 6544, 6645
5506, 1412, 1186, 1185, 136, 3848, 1197, 3846, 7203, 3620, 3619
5507, 1755, 1754, 4998, 5407, 1761, 6488, 6845, 6846, 5911, 6489
5508, 623, 624, 647, 794, 635, 2556, 2555, 2592, 2591, 7204
5509, 273, 272, 4431, 5406, 1699, 4433, 4432, 6872, 6807, 6871
5510, 3445, 5423, 5413, 5427, 6706, 7072, 5867, 6142, 6875, 6768
5511, 1117, 115, 1073, 5436, 1124, 6075, 5928, 5989, 6840, 5657
5512, 250, 1634, 1638, 5440, 1636, 4056, 4057, 7170, 5707, 5708
5513, 1638, 251, 250, 5440, 1640, 1641, 4057, 5708, 7205, 7170
5514, 1670, 258, 1666, 5440, 4081, 1668, 4080, 5552, 7206, 5551
5515, 258, 1670, 259, 5440, 4081, 1672, 1673, 7206, 5552, 7093
5516, 408, 416, 417, 5440, 2177, 420, 2174, 6937, 6278, 7207
5517, 408, 407, 416, 5440, 411, 2175, 2177, 6937, 6105, 6278
5518, 766, 3043, 2697, 1059, 7082, 7208, 2702, 7083, 3072, 7209
5519, 1154, 66, 3455, 1030, 3502, 3499, 3503, 7210, 7211, 7042
5520, 362, 1801, 2106, 4696, 5835, 5499, 2112, 7212, 6454, 6291
5521, 249, 1884, 1881, 323, 4349, 4350, 1882, 7213, 1886, 4351
5522, 221, 1506, 1510, 206, 1507, 3950, 3951, 7214, 3949, 1512
5523, 645, 1070, 3075, 5237, 6827, 3086, 6828, 7142, 7215, 6792
5524, 3009, 3008, 853, 5433, 3031, 6932, 7016, 6876, 5596, 6933
5525, 2876, 3121, 992, 1116, 7056, 6745, 2950, 7057, 6686, 3234
5526, 1211, 1833, 4490, 5415, 6531, 6529, 6417, 6629, 7216, 6670
5527, 1129, 1074, 1130, 3240, 3406, 3407, 1136, 3281, 6117, 3256
5528, 4215, 271, 4096, 5406, 6409, 4136, 6895, 6896, 6969, 6063
5529, 2869, 1114, 109, 3170, 7217, 6259, 6975, 6977, 7218, 6978
5530, 1755, 1360, 3754, 1756, 7165, 3757, 6927, 1762, 7219, 6928
5531, 2875, 2876, 3116, 962, 2946, 6243, 6244, 2887, 2944, 3126
5532, 1098, 3178, 1028, 1029, 3201, 7116, 3358, 3357, 7168, 1035
5533, 3120, 1057, 1085, 1058, 6797, 3388, 3147, 5913, 1064, 3387
5534, 29, 487, 27, 5423, 490, 2227, 495, 7126, 7020, 7220
5535, 230, 1542, 1546, 197, 1543, 3977, 3978, 6858, 3976, 1548
5536, 1911, 1908, 258, 314, 4377, 1909, 4376, 1913, 4378, 6862
5537, 1582, 5010, 1581, 239, 6508, 6724, 1588, 4020, 5084, 4022
5538, 1582, 280, 283, 5422, 6230, 1744, 6231, 6436, 7222, 7221
5539, 3431, 3420, 3453, 5427, 3551, 3559, 3558, 6819, 6140, 6141
5540, 43, 2292, 2280, 2649, 2316, 2317, 2313, 2651, 6128, 6127
5541, 294, 4216, 295, 5406, 7223, 6770, 1786, 7224, 6190, 6769
5542, 262, 1686, 263, 5440, 4093, 1688, 1689, 6904, 6426, 6427
5543, 1071, 793, 3074, 5421, 6483, 7043, 3102, 5506, 6639, 6354
5544, 1029, 1099, 3177, 1030, 3359, 3204, 7136, 1036, 3360, 7225
5545, 4978, 2108, 4979, 5437, 4988, 4986, 4984, 5942, 5946, 6048
5546, 570, 849, 2257, 850, 2754, 6470, 2412, 2756, 856, 6501
5547, 1101, 1032, 3171, 3169, 3363, 5746, 3213, 3210, 5480, 3214
5548, 3682, 1804, 1826, 5006, 7226, 4284, 7227, 7228, 6033, 5028
5549, 301, 299, 1803, 1802, 1797, 5701, 4277, 4278, 6020, 1809
5550, 796, 2271, 836, 649, 6407, 5968, 6616, 7229, 6815, 6816
5551, 2058, 2106, 4700, 4704, 4967, 7151, 4783, 4785, 5826, 4786
5552, 9, 7, 3432, 397, 405, 3462, 3463, 400, 2157, 7230
5553, 281, 1582, 238, 4574, 4195, 1589, 4196, 4583, 6225, 7231
5554, 646, 645, 793, 2267, 651, 7032, 6898, 6899, 6582, 6897
5555, 371, 364, 1454, 363, 2140, 7028, 6284, 2137, 367, 7029
5556, 296, 5406, 297, 5429, 7232, 7171, 1789, 7233, 6526, 7234
5557, 330, 515, 2022, 5163, 7058, 6631, 2023, 5188, 6634, 5192
5558, 215, 5162, 1618, 517, 5178, 5169, 1620, 6864, 6596, 6597
5559, 1642, 252, 251, 5440, 1644, 1645, 4060, 5753, 7235, 7205
5560, 251, 1638, 1642, 5440, 1640, 4059, 4060, 7205, 5708, 5753
5561, 257, 1666, 258, 5440, 4078, 1668, 1669, 7236, 5551, 7206
5562, 257, 1662, 1666, 5440, 1664, 4077, 4078, 7236, 5566, 5551
5563, 442, 451, 5404, 5431, 2202, 7237, 6635, 5877, 6219, 6637
5564, 3246, 106, 115, 2867, 6082, 1111, 6073, 5859, 2896, 6619
5565, 2127, 2268, 553, 2267, 6963, 2299, 5322, 6964, 2398, 2394
5566, 372, 1454, 371, 364, 5774, 6284, 375, 2142, 7028, 2140
5567, 2282, 35, 3425, 517, 2294, 3497, 7019, 2295, 521, 6084
5568, 114, 1033, 3171, 1102, 3352, 6007, 3181, 1109, 3356, 3186
5569, 3076, 3077, 1072, 5435, 3096, 3106, 3104, 5711, 6788, 6132
5570, 1193, 1757, 150, 1350, 7084, 7238, 3653, 7239, 7240, 1352
5571, 5230, 24, 5236, 5412, 5262, 5264, 5266, 5488, 7241, 5490
5572, 1412, 4704, 1413, 335, 6663, 7242, 1422, 6664, 5975, 7243
5573, 5002, 5014, 5015, 5408, 5142, 5155, 5154, 5856, 6187, 6440
5574, 1073, 2867, 115, 1117, 5860, 6619, 6075, 5928, 6312, 1124
5575, 2087, 2086, 4911, 1434, 2093, 4943, 4947, 4744, 4743, 7244
5576, 330, 498, 515, 516, 6721, 7245, 7058, 6915, 7246, 519
5577, 517, 497, 215, 516, 7247, 7070, 6864, 520, 7153, 7092
5578, 1045, 796, 648, 5438, 5820, 7177, 7248, 6285, 6286, 6433
5579, 96, 101, 110, 3005, 2825, 1041, 5582, 5955, 3010, 3011
5580, 515, 330, 2268, 5163, 7058, 6961, 2298, 6634, 5188, 7003
5581, 1522, 1526, 225, 202, 3962, 3963, 1523, 3961, 1528, 6820
5582, 1896, 1893, 253, 319, 4362, 1894, 4361, 1898, 4363, 6823
5583, 1826, 3682, 162, 3676, 7227, 3687, 5023, 7249, 7250, 3678
5584, 288, 4992, 289, 1757, 5099, 6320, 1751, 4239, 7251, 1764
5585, 213, 3925, 210, 5404, 3928, 3930, 1489, 6868, 6765, 7252
5586, 498, 330, 497, 516, 6721, 6723, 501, 7246, 6915, 7153
5587, 2619, 3075, 112, 5237, 6993, 3081, 7156, 6996, 6792, 7253
5588, 2265, 2290, 2263, 5433, 2426, 2364, 2472, 6584, 5597, 6004
5589, 8, 10, 5206, 399, 404, 5245, 5244, 2159, 403, 7254
5590, 2047, 4799, 1438, 4702, 4835, 7143, 4762, 4764, 5699, 4765
5591, 96, 575, 2289, 854, 2753, 2367, 6455, 861, 2755, 6172
5592, 1582, 5000, 280, 5422, 6509, 5082, 6230, 6436, 6510, 7222
5593, 850, 849, 3004, 924, 856, 6641, 6499, 2829, 2830, 3022
5594, 1591, 1172, 131, 1579, 5019, 1176, 5020, 4028, 7255, 7014
5595, 4704, 1412, 1413, 1432, 6663, 1422, 7242, 4734, 3867, 3869
5596, 794, 891, 2877, 793, 2795, 2906, 7149, 803, 2793, 6638
5597, 801, 800, 898, 2875, 810, 2806, 2809, 6938, 7161, 2885
5598, 252, 1646, 253, 5440, 4063, 1648, 1649, 7235, 7257, 7256
5599, 1642, 1646, 252, 5440, 4062, 4063, 1644, 5753, 7257, 7235
5600, 256, 1658, 1662, 5440, 1660, 4074, 4075, 7258, 5569, 5566
5601, 1662, 257, 256, 5440, 1664, 1665, 4075, 5566, 7236, 7258
5602, 3041, 864, 3042, 5432, 6562, 6785, 3057, 6547, 6563, 5717
5603, 2268, 646, 2256, 2267, 6894, 6550, 2465, 2398, 6899, 2466
5604, 2872, 1028, 1114, 3170, 7259, 5715, 7260, 7261, 7005, 7218
5605, 879, 599, 880, 2262, 2786, 2787, 886, 6855, 2452, 6689
5606, 3178, 3176, 3170, 5439, 3221, 3191, 3203, 7262, 7196, 7263
5607, 649, 796, 2286, 648, 7229, 6956, 6940, 654, 7177, 6966
5608, 4701, 1420, 1803, 4694, 7129, 6874, 6013, 4771, 7025, 6099
5609, 137, 1189, 1415, 1188, 3623, 3854, 7264, 3622, 1200, 3853
5610, 647, 623, 794, 646, 2555, 2592, 7204, 652, 2557, 7265
5611, 1127, 1128, 3243, 1072, 1134, 3277, 3278, 3401, 3404, 7193
5612, 3238, 3244, 106, 5418, 3285, 6083, 6081, 7266, 6936, 7267
5613, 1046, 3409, 1112, 1113, 6755, 3411, 6756, 6115, 3415, 1119
5614, 2875, 801, 1074, 2867, 6938, 6558, 5985, 2943, 6798, 5740
5615, 114, 105, 109, 3170, 1110, 6976, 3353, 3179, 3180, 6978
5616, 1113, 3409, 1114, 5433, 3415, 3416, 1120, 6555, 6697, 5919
5617, 2290, 2265, 853, 5433, 2426, 7017, 6931, 5597, 6584, 6933
5618, 4705, 1577, 2108, 4580, 5544, 5885, 6725, 5546, 5547, 7268
5619, 835, 95, 62, 2290, 841, 834, 2739, 5592, 5603, 2359
5620, 336, 281, 238, 4574, 1960, 4196, 7125, 4582, 4583, 7231
5621, 253, 1646, 1650, 5440, 1648, 4065, 4066, 7256, 7257, 7269
5622, 1650, 254, 253, 5440, 1652, 1653, 4066, 7269, 7270, 7256
5623, 255, 1658, 256, 5440, 4072, 1660, 1661, 7271, 5569, 7258
5624, 255, 1654, 1658, 5440, 1656, 4071, 4072, 7271, 7272, 5569
5625, 3991, 1453, 235, 193, 7273, 7274, 3999, 3997, 3905, 7275
5626, 3171, 1032, 1101, 1102, 5746, 3363, 3213, 3186, 3365, 1108
5627, 3796, 182, 4990, 5005, 3801, 5071, 6247, 6250, 5068, 5073
5628, 1454, 1212, 137, 4500, 5773, 1215, 7276, 5813, 5812, 7277
5629, 1654, 255, 254, 5440, 1656, 1657, 4069, 7272, 7271, 7270
5630, 1650, 1654, 254, 5440, 4068, 4069, 1652, 7269, 7272, 7270
5631, 1974, 1975, 4808, 1752, 1981, 4817, 4818, 4628, 4630, 6297
5632, 4996, 3694, 165, 5006, 6031, 3699, 5030, 5031, 6034, 5026
5633, 109, 105, 114, 3171, 6976, 1110, 3353, 7278, 3182, 3181
5634, 1375, 3772, 144, 5407, 3775, 3773, 1376, 7059, 6535, 7111
5635, 950, 878, 3074, 877, 2857, 6774, 3092, 2858, 884, 7009
5636, 3420, 3421, 3422, 5423, 3549, 3548, 3547, 6707, 6050, 6750
5637, 1112, 988, 2877, 2874, 3227, 2957, 5789, 6761, 2955, 2958
5638, 4107, 4105, 1710, 5415, 4163, 4159, 4164, 6620, 6669, 6548
5639, 1779, 4998, 1755, 1754, 5096, 6845, 4253, 4236, 6488, 1761
5640, 1074, 1075, 1130, 3240, 1081, 3398, 3407, 6117, 6954, 3256
5641, 836, 558, 524, 2271, 2744, 2389, 6814, 5968, 2390, 2391
5642, 5202, 515, 36, 2268, 6632, 518, 5277, 7115, 2298, 2297
5643, 1032, 1101, 1031, 3169, 3363, 3364, 1038, 5480, 3210, 7147
5644, 344, 1834, 2121, 5232, 5117, 5118, 5116, 6773, 6040, 5305
5645, 246, 1170, 1453, 3424, 5016, 5088, 5087, 6818, 3538, 5977
5646, 381, 380, 389, 5415, 384, 2155, 2156, 7279, 7280, 6948
5647, 238, 2109, 336, 4574, 6151, 7169, 7125, 7231, 6867, 4582
5648, 2126, 93, 1070, 5237, 5282, 7281, 7282, 5283, 5279, 7215
5649, 4802, 1418, 4799, 4804, 5473, 6211, 4840, 4845, 6210, 4843
5650, 1834, 4294, 4295, 5440, 4312, 4323, 4317, 6780, 7283, 6903
5651, 3433, 5430, 3426, 5431, 5903, 7190, 3572, 6979, 7284, 6981
5652, 1991, 1802, 1803, 4856, 4651, 1809, 4650, 4881, 6100, 6101
5653, 1060, 3043, 2697, 766, 3071, 7208, 7285, 7081, 7082, 2702
5654, 53, 2703, 2276, 2715, 2705, 5806, 2335, 2716, 5811, 5809
5655, 5013, 1755, 5011, 1779, 6591, 6592, 5060, 5127, 4253, 5126
5656, 389, 390, 381, 5415, 393, 2153, 2156, 6948, 6949, 7279
5657, 4006, 1574, 240, 5419, 4017, 4021, 4024, 6647, 6363, 7286
5658, 896, 2871, 3172, 979, 2930, 5744, 6078, 2928, 2929, 3197
5659, 245, 130, 3424, 129, 4328, 3535, 6122, 1864, 1169, 3536
5660, 1580, 1592, 4991, 3814, 4029, 5078, 6496, 7287, 7289, 7288
5661, 1840, 1833, 1834, 5415, 4327, 1837, 4316, 7090, 7216, 6777
5662, 2286, 2271, 796, 649, 2392, 6407, 6956, 6940, 6815, 7229
5663, 879, 599, 2262, 598, 2786, 2452, 6855, 2785, 605, 2451
5664, 2059, 2107, 4918, 4700, 4969, 6801, 6557, 4784, 6804, 6805
5665, 3116, 104, 2875, 962, 3124, 2886, 6244, 3126, 968, 2887
5666, 4856, 4854, 1803, 1991, 4882, 6181, 6101, 4881, 4880, 4650
5667, 3119, 2873, 2870, 897, 5851, 2938, 5852, 6988, 2937, 2927
5668, 426, 417, 416, 5440, 2181, 420, 2183, 7290, 7207, 6278
5669, 4696, 4704, 1412, 1800, 4738, 6663, 7291, 6010, 5828, 6665
5670, 4695, 2108, 238, 4580, 7292, 7191, 7123, 7124, 7268, 7117
5671, 1951, 4979, 2107, 5437, 6329, 4985, 7293, 6330, 6048, 7294
5672, 219, 215, 1618, 517, 1501, 1620, 4041, 7295, 6864, 6597
5673, 796, 1029, 2971, 5439, 6617, 2996, 5821, 6482, 6926, 5555
5674, 2282, 648, 2286, 5438, 6916, 6966, 2388, 7199, 6433, 6957
5675, 1074, 3079, 1075, 801, 3110, 3087, 1081, 6558, 7200, 6955
5676, 257, 258, 4294, 5440, 1669, 6860, 7112, 7236, 7206, 7283
5677, 425, 434, 435, 5440, 2189, 438, 2191, 7296, 7201, 7202
5678, 435, 426, 425, 5440, 2188, 429, 2191, 7202, 7290, 7296
5679, 1117, 3408, 115, 5436, 3413, 3412, 1124, 5989, 6645, 6840
5680, 1114, 2869, 1115, 991, 7217, 7297, 1121, 3233, 2892, 3236
5681, 426, 416, 425, 5440, 2183, 2184, 429, 7290, 6278, 7296
5682, 1578, 1731, 1730, 4578, 4203, 1737, 4200, 7298, 4593, 4594
5683, 110, 646, 793, 5421, 6614, 6898, 6829, 5583, 6615, 6639
5684, 292, 271, 1770, 4215, 1936, 4453, 1771, 4251, 6409, 4223
5685, 3425, 119, 1615, 3429, 3504, 1616, 6848, 3509, 3507, 6847
5686, 3431, 3453, 3430, 5427, 3558, 3516, 3582, 6819, 6141, 7299
5687, 1952, 4908, 2107, 2106, 6811, 6802, 7300, 5536, 7152, 2113
5688, 2111, 4694, 1802, 362, 6323, 6098, 6000, 2118, 7128, 6497
5689, 1330, 154, 3718, 5408, 1332, 3722, 3721, 6624, 7145, 6626
5690, 1582, 2109, 238, 4574, 6232, 6151, 1589, 6225, 6867, 7231
5691, 3076, 879, 3077, 5435, 6485, 6854, 3096, 5711, 6486, 6788
5692, 3041, 2260, 863, 864, 6139, 6437, 6017, 6562, 6588, 870
5693, 2265, 3009, 854, 853, 6877, 6795, 7301, 7017, 7016, 860
5694, 1711, 1710, 1567, 4501, 1717, 4158, 4156, 4520, 4521, 6047
5695, 2870, 991, 1115, 2871, 2967, 3236, 5871, 2931, 2954, 6610
5696, 266, 4479, 1941, 5419, 4480, 4483, 1942, 7302, 7304, 7303
5697, 1432, 1433, 1413, 4704, 1442, 3871, 3869, 4734, 4732, 7242
5698, 891, 794, 2877, 892, 2795, 7149, 2906, 901, 2796, 2904
5699, 801, 898, 899, 2875, 2809, 908, 2794, 6938, 2885, 2939
5700, 1045, 1143, 3296, 1046, 3377, 3337, 5491, 1052, 3378, 6685
5701, 109, 1033, 1115, 3171, 1040, 5559, 6307, 7278, 6007, 6611
5702, 5010, 1593, 1581, 239, 5085, 4023, 6724, 5084, 1597, 4022
5703, 1365, 147, 3760, 1755, 1367, 3764, 3763, 7305, 7166, 6589
5704, 2269, 2289, 2283, 5421, 2371, 2450, 2474, 5530, 6456, 6352
5705, 240, 1574, 239, 5419, 4021, 4019, 1598, 7286, 6363, 6878
5706, 2283, 2289, 878, 5421, 2450, 6873, 6907, 6352, 6456, 6776
5707, 3444, 3441, 3442, 5431, 3601, 3598, 3602, 6960, 6958, 6980
5708, 3992, 4504, 1566, 1461, 6671, 7306, 4001, 3993, 6672, 4005
5709, 318, 255, 1899, 317, 6158, 1900, 1901, 1851, 6159, 4369
5710, 227, 1530, 200, 201, 1531, 3967, 6160, 6161, 1532, 1473
5711, 161, 163, 1799, 2131, 1297, 7064, 7063, 5284, 5285, 7307
5712, 309, 4294, 1834, 5440, 4305, 4312, 1838, 7308, 7283, 6780
5713, 1115, 2869, 105, 991, 7297, 2889, 6946, 3236, 2892, 2891
5714, 3121, 1056, 3116, 1083, 6952, 6245, 3146, 3145, 3383, 3128
5715, 3443, 3442, 3426, 5431, 3577, 3574, 3576, 7309, 6980, 6981
5716, 3243, 3247, 1072, 5418, 3279, 6789, 7193, 6935, 6164, 6175
5717, 3814, 1580, 1592, 1579, 7287, 4029, 7289, 7310, 1586, 4030
5718, 989, 3298, 2874, 1113, 6648, 6236, 2956, 3232, 5778, 6238
5719, 1592, 185, 4991, 3814, 5018, 5075, 5078, 7289, 3817, 7288
5720, 926, 851, 3007, 925, 2834, 6713, 3025, 932, 2831, 3024
5721, 1112, 1047, 1046, 1113, 5787, 1053, 6756, 1119, 6887, 6115
5722, 256, 257, 4294, 5440, 1665, 7112, 7311, 7258, 7236, 7283
5723, 2062, 2109, 4702, 2061, 4975, 7192, 4780, 2068, 4972, 4794
5724, 797, 3177, 3176, 3173, 7312, 3224, 5606, 7313, 3217, 3223
5725, 31, 496, 29, 5423, 499, 2234, 504, 6049, 7021, 7126
5726, 487, 29, 496, 5423, 490, 2234, 2235, 7020, 7126, 7021
5727, 1097, 114, 109, 3170, 1103, 3353, 3354, 3185, 3179, 6978
5728, 1070, 3242, 1125, 3241, 6315, 3272, 3397, 6316, 3273, 3255
5729, 797, 3176, 3175, 3173, 5606, 3192, 5605, 7313, 3223, 3222
5730, 1112, 115, 3409, 5435, 1118, 3410, 3411, 5931, 6839, 6696
5731, 247, 249, 309, 5440, 1633, 7314, 5652, 7036, 7119, 7308
5732, 220, 1502, 1506, 207, 1503, 3947, 3948, 5648, 3946, 1508
5733, 1881, 1878, 247, 324, 4347, 1879, 4346, 1883, 4348, 5650
5734, 1028, 3178, 1097, 3170, 7116, 3202, 3355, 7005, 3203, 3185
5735, 4581, 1729, 1577, 4580, 4591, 4198, 5543, 4592, 4586, 5547
5736, 3079, 882, 2258, 881, 7315, 7316, 6667, 6279, 888, 6882
5737, 2268, 553, 5202, 5163, 2299, 5276, 7115, 7003, 7317, 6633
5738, 4498, 4494, 4489, 5424, 4563, 4567, 4566, 5501, 6228, 6186
5739, 3119, 3118, 965, 897, 3139, 3137, 3135, 6988, 6748, 2935
5740, 1073, 3243, 1128, 1072, 5548, 3277, 3403, 1079, 7193, 3404
5741, 293, 268, 4212, 1773, 1937, 6383, 4252, 1775, 4454, 4220
5742, 1032, 3171, 1033, 1102, 5746, 6007, 1039, 3365, 3186, 3356
5743, 5011, 1755, 1780, 1779, 6592, 4255, 5056, 5126, 4253, 1783
5744, 255, 256, 4294, 5440, 1661, 7311, 6157, 7271, 7258, 7283
5745, 2974, 838, 2607, 2488, 7318, 7319, 6891, 7320, 7322, 7321
5746, 238, 2109, 4695, 336, 6151, 7323, 7123, 7125, 7169, 4712
5747, 247, 339, 248, 5440, 7324, 6404, 1626, 7036, 6838, 6772
5748, 893, 3303, 1017, 2866, 6989, 3319, 2916, 2914, 5614, 2917
5749, 1976, 1753, 4805, 1975, 4633, 7004, 4820, 1982, 4631, 4821
5750, 42, 2637, 2278, 2625, 2639, 5617, 2310, 2626, 5795, 5515
5751, 991, 105, 1115, 980, 2891, 6946, 3236, 2890, 987, 6947
5752, 1578, 1730, 1577, 4581, 4200, 4201, 1584, 7325, 4590, 5543
5753, 1170, 7, 5, 388, 3461, 396, 3458, 7326, 391, 2150
5754, 388, 5, 1170, 379, 2150, 3458, 7326, 2151, 382, 7327
5755, 390, 6, 2121, 8, 2152, 5240, 7328, 394, 395, 5243
5756, 3246, 1004, 106, 2867, 3264, 2898, 6082, 5859, 2900, 2896
5757, 1113, 989, 3302, 2866, 3232, 6649, 5780, 6542, 2960, 5615
5758, 96, 923, 3005, 849, 2826, 3014, 5955, 855, 2827, 6469
5759, 877, 98, 3075, 949, 883, 6992, 6791, 2855, 2854, 3084
5760, 130, 1170, 246, 3424, 1173, 5016, 1863, 3535, 3538, 6818
5761, 5000, 239, 1582, 280, 5083, 4020, 6509, 5082, 1728, 6230
5762, 348, 344, 2121, 5232, 2015, 5116, 2125, 5303, 6773, 5305
5763, 3454, 3424, 3439, 5417, 3568, 3570, 3472, 6570, 5981, 7158
5764, 881, 3078, 880, 2266, 6494, 5688, 887, 6566, 5690, 5689
5765, 952, 879, 3077, 951, 2862, 6854, 3094, 958, 2859, 3095
5766, 2106, 2058, 4696, 4704, 4967, 4721, 6291, 5826, 4785, 4738
5767, 2869, 1114, 990, 991, 7217, 3230, 2964, 2892, 3233, 997
5768, 4495, 4489, 4494, 5424, 4540, 4567, 4538, 6185, 6186, 6228
5769, 2293, 3007, 851, 5438, 6710, 6713, 6712, 6991, 6287, 7329
5770, 109, 1114, 2869, 1115, 6259, 7217, 6975, 6307, 1121, 7297
5771, 191, 1577, 1455, 1415, 4010, 6714, 1459, 6621, 6601, 6796
5772, 877, 3075, 98, 5237, 6791, 6992, 883, 6790, 6792, 6995
5773, 3006, 795, 1044, 1043, 6093, 7078, 3034, 3035, 6096, 1050
5774, 629, 775, 76, 5420, 7330, 776, 2521, 6884, 7332, 7331
5775, 2673, 866, 46, 2288, 6023, 7333, 2674, 5962, 6025, 2321
5776, 4580, 281, 238, 336, 4585, 4196, 7117, 4584, 1960, 7125
5777, 1780, 1756, 1755, 5011, 4254, 1762, 4255, 5056, 6930, 6592
5778, 939, 865, 3045, 938, 2848, 6155, 3058, 945, 2845, 3059
5779, 2282, 3425, 523, 5162, 7019, 3496, 2296, 6652, 6594, 7334
5780, 1420, 1803, 4997, 5408, 6874, 5468, 6726, 6146, 5680, 5857
5781, 379, 1, 1454, 363, 2143, 7335, 7030, 2144, 366, 7029
5782, 1804, 1803, 4854, 1992, 1810, 6181, 7159, 4643, 4652, 4867
5783, 1578, 4578, 1730, 4581, 7298, 4594, 4200, 7325, 4595, 4590
5784, 2975, 840, 2279, 839, 5957, 6367, 5665, 5512, 846, 5666
5785, 285, 284, 282, 5405, 1745, 1746, 4210, 7108, 7109, 7139
5786, 3430, 3429, 3431, 5427, 3512, 3571, 3582, 7299, 6850, 6819
5787, 837, 913, 912, 2973, 2820, 919, 2817, 7336, 2989, 2988
5788, 575, 96, 2289, 63, 2753, 6455, 2367, 582, 848, 2368
5789, 523, 1153, 2286, 2282, 3544, 6965, 2387, 2296, 6999, 2388
5790, 6, 365, 1833, 2, 2145, 7337, 7338, 386, 369, 7339
5791, 365, 6, 1833, 381, 2145, 7338, 7337, 2146, 385, 7340
5792, 4992, 288, 1781, 1757, 5099, 1785, 5050, 7251, 4239, 4240
5793, 116, 107, 3240, 94, 1138, 3249, 3250, 7341, 7342, 6120
5794, 224, 204, 203, 190, 7079, 1476, 7080, 6144, 3896, 3895
5795, 3796, 1395, 141, 1417, 3799, 1397, 3800, 7343, 7345, 7344
5796, 1310, 3694, 157, 1420, 3697, 3695, 1311, 7346, 6863, 7347
5797, 289, 295, 290, 1752, 6970, 1788, 4238, 1758, 6586, 4241
5798, 285, 282, 283, 5405, 4210, 1742, 1747, 7108, 7139, 7138
5799, 116, 107, 94, 3241, 1138, 7342, 7341, 3252, 3251, 5869
5800, 3114, 897, 3118, 799, 6747, 6748, 3142, 6305, 2808, 6304
5801, 1112, 1072, 115, 5435, 5770, 7062, 1118, 5931, 6132, 6839
5802, 865, 3042, 864, 2291, 5727, 6785, 871, 5726, 5728, 6732
5803, 95, 62, 2287, 840, 834, 2361, 5831, 847, 2740, 5830
5804, 2058, 362, 2106, 4696, 4965, 2112, 4967, 4721, 7212, 6291
5805, 2058, 362, 4696, 357, 4965, 7212, 4721, 2064, 2105, 4722
5806, 2063, 4694, 362, 357, 4723, 7128, 4966, 2070, 4724, 2105
5807, 1455, 137, 1949, 4500, 7348, 7349, 7031, 6943, 7277, 4547
5808, 1526, 226, 202, 201, 1527, 6027, 1528, 3964, 6028, 1474
5809, 1896, 254, 318, 319, 1897, 7350, 4366, 1898, 7351, 1852
5810, 226, 1526, 1530, 201, 1527, 3965, 3966, 6028, 3964, 1532
5811, 1896, 254, 1899, 318, 1897, 4364, 4365, 4366, 7350, 1901
5812, 320, 252, 309, 321, 7094, 7352, 4307, 1854, 7095, 4308
5813, 851, 926, 3007, 852, 2834, 3025, 6713, 858, 2833, 5562
5814, 44, 2288, 2292, 2661, 2319, 2320, 2315, 2663, 5663, 5661
5815, 897, 2870, 3119, 799, 2927, 5852, 6988, 2808, 6206, 6207
5816, 799, 1058, 1059, 5420, 6536, 1065, 7353, 6885, 5937, 6691
5817, 850, 925, 3006, 851, 2832, 3020, 7185, 857, 2831, 7184
5818, 5163, 553, 5202, 2127, 7317, 5276, 6633, 5194, 5322, 5312
5819, 880, 599, 2260, 2262, 2787, 2458, 6052, 6689, 2452, 2457
5820, 4908, 355, 359, 335, 4920, 2104, 4919, 6810, 4681, 6886
5821, 355, 359, 335, 4909, 2104, 6886, 4681, 4921, 4922, 7354
5822, 1153, 523, 3425, 5162, 3544, 3496, 3506, 5167, 7334, 6594
5823, 1047, 117, 1144, 3297, 3366, 1151, 3370, 6254, 3306, 3313
5824, 3075, 1070, 112, 5237, 3086, 1076, 3081, 6792, 7215, 7253
5825, 553, 2126, 645, 552, 5320, 5165, 7011, 555, 5321, 7012
5826, 1154, 649, 524, 523, 5166, 6817, 3542, 3543, 6941, 526
5827, 1834, 408, 417, 5440, 7355, 2174, 7130, 6780, 6937, 7207
5828, 835, 62, 557, 2290, 2739, 563, 2741, 5592, 2359, 2358
5829, 865, 939, 3045, 866, 2848, 3058, 6155, 872, 2847, 6024
5830, 373, 1833, 1211, 5415, 7356, 6531, 5397, 6627, 7216, 6629
5831, 4496, 4504, 1455, 4499, 4534, 7357, 7027, 4571, 4529, 6944
5832, 2, 6, 2121, 1833, 386, 5240, 5239, 7339, 7338, 5136
5833, 1803, 1825, 4994, 301, 4280, 5111, 5467, 4277, 1827, 5109
5834, 469, 213, 210, 5404, 7358, 1489, 7359, 7360, 6868, 7252
5835, 1989, 1988, 1800, 4858, 1995, 4644, 4647, 4873, 4874, 5882
5836, 339, 247, 309, 5440, 7324, 5652, 4666, 6838, 7036, 7308
5837, 1951, 2107, 4915, 1950, 7293, 7055, 7361, 1957, 7086, 5632
5838, 3453, 3447, 123, 5427, 3519, 3518, 3515, 6141, 7363, 7362
5839, 338, 358, 186, 4860, 2098, 7364, 7365, 4865, 4864, 5906
5840, 3006, 1044, 795, 5438, 3034, 7078, 6093, 6431, 6288, 7366
5841, 993, 1117, 2875, 2876, 3228, 5986, 2969, 2968, 6762, 2946
5842, 2063, 2111, 4701, 4703, 4968, 6012, 4797, 4796, 7174, 4778
5843, 562, 2287, 62, 840, 2360, 2361, 569, 2742, 5830, 2740
5844, 3428, 3420, 3426, 5423, 3554, 3552, 3555, 6442, 6707, 6444
5845, 3408, 1116, 1115, 5432, 3419, 1122, 3417, 6380, 6459, 5718
5846, 3441, 3438, 5417, 5431, 3600, 6729, 6037, 6958, 6959, 5879
5847, 1729, 238, 4580, 281, 4197, 7117, 4586, 1735, 4196, 4585
5848, 2872, 1028, 3170, 5439, 7259, 7005, 7261, 7367, 5554, 7263
5849, 1581, 1417, 3796, 5005, 7368, 7343, 6249, 6251, 7369, 6250
5850, 95, 62, 2263, 2287, 834, 2362, 6002, 5831, 2361, 2363
5851, 109, 1114, 1028, 3170, 6259, 5715, 1034, 6978, 7218, 7005
5852, 4998, 1779, 287, 1754, 5096, 1782, 5093, 6488, 4236, 4232
5853, 250, 309, 249, 5440, 7370, 7314, 1637, 7170, 7308, 7119
5854, 2034, 1948, 4914, 2033, 4688, 7371, 4930, 2040, 4686, 4931
5855, 237, 236, 1574, 4103, 1590, 7372, 1575, 4112, 4111, 5533
5856, 1734, 1581, 4574, 1733, 4208, 6227, 4587, 1740, 4206, 4600
5857, 4702, 4799, 1438, 4698, 5699, 7143, 4765, 4766, 5797, 4755
5858, 2061, 2109, 4699, 1966, 4972, 6857, 4775, 4713, 7071, 4774
5859, 1579, 1172, 131, 1180, 7255, 1176, 7014, 7015, 3541, 3540
5860, 5163, 2268, 553, 2127, 7003, 2299, 7317, 5194, 6963, 5322
5861, 2109, 4698, 4702, 2061, 6446, 4766, 7192, 4972, 4795, 4794
5862, 988, 2877, 2868, 1112, 2957, 2910, 2893, 3227, 5789, 6293
5863, 879, 952, 3077, 880, 2862, 3094, 6854, 886, 2861, 5954
5864, 3176, 796, 894, 5439, 5635, 2798, 5731, 7196, 6482, 7195
5865, 878, 879, 951, 3076, 885, 2859, 2860, 6775, 6485, 3090
5866, 4801, 1756, 1978, 1979, 5674, 4637, 4827, 4814, 4638, 1985
5867, 240, 280, 279, 5419, 4194, 1727, 1726, 7286, 6879, 7373
5868, 1114, 2872, 2866, 5439, 7260, 2923, 6640, 6006, 7367, 6662
5869, 5417, 5430, 3441, 5431, 7067, 5610, 6037, 5879, 7284, 6958
5870, 1171, 4, 137, 1454, 3459, 5392, 7374, 5120, 7375, 7276
5871, 136, 3, 2120, 1833, 5390, 5241, 7376, 7157, 7377, 5134
5872, 2274, 41, 2278, 2613, 2308, 2309, 2311, 6370, 2614, 5961
5873, 5001, 1420, 4997, 5408, 6781, 6726, 5144, 5855, 6146, 5857
5874, 1455, 1461, 1454, 4499, 3902, 3917, 1458, 6944, 6241, 5892
5875, 1832, 1839, 1944, 4490, 4297, 7378, 6717, 6889, 7077, 4511
5876, 2872, 1114, 2869, 3170, 7260, 7217, 2952, 7261, 7218, 6977
5877, 2279, 585, 865, 2281, 2444, 2772, 5781, 2445, 2443, 6276
5878, 3442, 3441, 5430, 5431, 3598, 5610, 6239, 6980, 6958, 7284
5879, 1753, 4805, 1975, 4808, 7004, 4821, 4631, 7018, 4822, 4817
5880, 1461, 1462, 1454, 1567, 1464, 3916, 3917, 4003, 4004, 6045
5881, 2108, 4695, 4705, 4580, 7292, 4773, 6725, 7268, 7124, 5546
5882, 648, 2282, 2285, 5438, 6916, 2383, 6429, 6433, 7199, 6432
5883, 284, 287, 286, 4217, 4211, 1748, 1749, 7107, 4227, 4226
5884, 290, 295, 291, 4216, 1788, 4258, 1766, 4243, 6770, 4242
5885, 2263, 62, 95, 2290, 2362, 834, 6002, 2364, 2359, 5603
5886, 297, 296, 294, 5406, 1789, 1790, 4259, 7171, 7232, 7224
5887, 1757, 1756, 1781, 3742, 1763, 4256, 4240, 7379, 7381, 7380
5888, 3112, 1059, 3111, 1086, 7189, 7198, 3155, 3154, 3389, 3150
5889, 1142, 3295, 1045, 3296, 3334, 5477, 3375, 3338, 3339, 5491
5890, 381, 364, 380, 5415, 2148, 2149, 384, 7279, 7382, 7280
5891, 838, 837, 2973, 913, 844, 7336, 7383, 2819, 2820, 2989
5892, 305, 4489, 4262, 304, 6651, 6262, 4285, 1815, 6308, 4286
5893, 4099, 4212, 269, 4213, 6274, 4221, 4132, 5587, 4222, 4219
5894, 1839, 1832, 1833, 4490, 4297, 1836, 4326, 7077, 6889, 6529
5895, 265, 264, 4182, 5419, 1691, 4187, 4193, 7384, 7386, 7385
5896, 5000, 4999, 283, 5422, 5092, 5091, 5089, 6510, 6888, 7221
5897, 381, 365, 364, 5415, 2146, 368, 2148, 7279, 7387, 7382
5898, 3433, 3442, 5430, 5431, 3575, 6239, 5903, 6979, 6980, 7284
5899, 1455, 1172, 1216, 1171, 5080, 7388, 7389, 5121, 1175, 7390
5900, 1208, 2119, 1832, 2120, 7391, 5114, 7392, 7393, 2123, 5135
5901, 523, 1153, 2282, 5162, 3544, 6999, 2296, 7334, 5167, 6652
5902, 2046, 2062, 4703, 4807, 4781, 4782, 4777, 4831, 7127, 7088
5903, 4861, 1987, 1988, 1799, 4871, 1994, 4870, 6737, 4642, 4645
5904, 299, 1803, 4994, 301, 5701, 5467, 5108, 1797, 4277, 5109
5905, 4979, 1951, 2107, 2106, 6329, 7293, 4985, 4981, 6553, 2113
5906, 2132, 1208, 1832, 2120, 5398, 7392, 7394, 5242, 7393, 5135
5907, 1179, 1455, 1216, 1171, 7395, 7389, 5400, 3460, 5121, 7390
5908, 798, 1032, 2625, 2613, 5478, 5540, 6865, 7396, 5704, 5702
5909, 993, 1116, 2876, 992, 3237, 7057, 2968, 999, 3234, 2950
5910, 2062, 2111, 4703, 2110, 4976, 7174, 4782, 4977, 2117, 7175
5911, 2107, 2058, 2106, 4700, 4970, 4967, 2113, 6804, 4783, 7151
5912, 1112, 989, 2874, 1113, 3229, 2956, 6761, 1119, 3232, 6238
5913, 2107, 2058, 4700, 2059, 4970, 4783, 6804, 4969, 2065, 4784
5914, 1061, 630, 1060, 760, 6643, 6519, 1067, 7397, 7399, 7398
5915, 4408, 1822, 306, 4263, 4416, 1823, 4417, 7400, 4273, 4292
5916, 273, 1930, 4420, 5429, 1931, 4423, 4421, 7401, 7403, 7402
5917, 2033, 1947, 4917, 2032, 4685, 7404, 4927, 2039, 4683, 4928
5918, 2108, 2107, 4979, 5437, 2114, 4985, 4986, 5946, 7294, 6048
5919, 586, 865, 2281, 866, 2773, 6276, 2442, 2776, 872, 6209
5920, 4908, 1951, 2036, 2037, 7405, 4691, 4937, 4924, 4693, 2043
5921, 96, 63, 2269, 2289, 848, 2369, 5526, 6455, 2368, 2371
5922, 2126, 553, 645, 2127, 5320, 7011, 5165, 2129, 5322, 5196
5923, 649, 1154, 1153, 523, 5166, 1156, 5198, 6941, 3543, 3544
5924, 772, 1059, 78, 2673, 7406, 7407, 774, 2678, 6605, 2677
5925, 298, 296, 297, 5429, 1793, 1789, 4260, 7408, 7233, 7234
5926, 572, 852, 2293, 573, 2759, 6711, 2418, 579, 2760, 2417
5927, 4212, 4456, 286, 5405, 7409, 4462, 4228, 6275, 7411, 7410
5928, 5203, 5215, 5202, 5434, 5325, 5326, 5315, 7412, 7414, 7413
5929, 2637, 2625, 798, 5420, 5795, 6865, 7415, 5620, 5748, 6866
5930, 155, 3712, 1325, 5408, 3716, 3715, 1327, 7416, 6695, 7417
5931, 2060, 2059, 2107, 4697, 2066, 4969, 4971, 4787, 4788, 7087
5932, 1114, 989, 1113, 2866, 3231, 3232, 1120, 6640, 2960, 6542
5933, 5228, 5215, 5211, 5412, 5333, 5347, 5349, 6481, 7118, 6180
5934, 4107, 1705, 4105, 5415, 4161, 4123, 4163, 6620, 6990, 6669
5935, 3925, 211, 210, 5404, 3929, 1483, 3930, 6765, 7418, 7252
5936, 1951, 2036, 4915, 4908, 4691, 4938, 7361, 7405, 4937, 4939
5937, 288, 289, 5012, 290, 1751, 6809, 5098, 1765, 4238, 5097
5938, 283, 279, 280, 5419, 4209, 1727, 1744, 7141, 7373, 6879
5939, 2109, 2060, 4695, 2061, 4973, 4792, 7323, 4972, 2067, 4715
5940, 899, 1005, 3248, 2867, 2940, 3267, 6445, 2942, 2941, 5739
5941, 925, 850, 3006, 924, 2832, 7185, 3020, 931, 2829, 3019
5942, 950, 878, 951, 3076, 2857, 2860, 957, 3089, 6775, 3090
5943, 3006, 795, 648, 5438, 6093, 6095, 6094, 6431, 7366, 6433
5944, 4699, 4698, 2109, 2061, 4759, 6446, 6857, 4775, 4795, 4972
5945, 881, 600, 2277, 2266, 2790, 2463, 6564, 6566, 2456, 2435
5946, 250, 251, 309, 5440, 1641, 7419, 7370, 7170, 7205, 7308
5947, 1989, 1801, 4859, 4858, 4646, 7420, 4877, 4873, 6474, 4878
5948, 2260, 583, 863, 584, 2431, 2767, 6437, 2432, 590, 2769
5949, 584, 863, 2260, 864, 2769, 6437, 2432, 2770, 870, 6588
5950, 2120, 3, 2121, 1833, 5241, 5238, 2124, 5134, 7377, 5136
5951, 1171, 1170, 4, 1454, 1174, 3457, 3459, 5120, 5119, 7375
5952, 373, 372, 365, 5415, 376, 2141, 2139, 6627, 6628, 7387
5953, 364, 365, 372, 5415, 368, 2141, 2142, 7382, 7387, 6628
5954, 282, 279, 283, 5419, 1743, 4209, 1742, 7140, 7373, 7141
5955, 4914, 1948, 4917, 2033, 7371, 7421, 4932, 4931, 4686, 4927
5956, 3455, 2973, 2972, 1030, 7039, 2990, 6414, 7042, 3000, 2998
5957, 2260, 2261, 584, 864, 2439, 2438, 2432, 6588, 6561, 2770
5958, 1454, 4, 137, 371, 7375, 5392, 7276, 6284, 374, 5393
5959, 1833, 136, 3, 373, 7157, 5390, 7377, 7356, 5389, 377
5960, 3008, 2270, 852, 853, 5623, 7422, 5563, 6932, 7054, 859
5961, 205, 204, 223, 190, 1477, 7096, 7097, 3897, 3896, 6131
5962, 322, 309, 251, 321, 4309, 7419, 7098, 1855, 4308, 7099
5963, 469, 210, 211, 5404, 7359, 1483, 7423, 7360, 7252, 7418
5964, 4799, 1418, 1438, 4698, 6211, 3878, 7143, 5797, 6212, 4755
5965, 1581, 4699, 1417, 5422, 6223, 7424, 7368, 6434, 6435, 7425
5966, 1800, 1988, 4861, 4858, 4644, 4870, 5880, 5882, 4874, 4875
5967, 3168, 3169, 1031, 1100, 3212, 7147, 7426, 3207, 3211, 3362
5968, 1826, 164, 3682, 5006, 5024, 3684, 7227, 5028, 5027, 7228
5969, 893, 894, 795, 2866, 903, 2799, 2800, 2914, 2913, 6511
5970, 137, 1455, 1454, 4500, 7348, 1458, 7276, 7277, 6943, 5813
5971, 645, 622, 623, 793, 2505, 634, 2554, 7032, 2588, 2590
5972, 137, 1455, 1179, 1171, 7348, 7395, 5394, 7374, 5121, 3460
5973, 2132, 1832, 136, 2120, 7394, 7427, 5391, 5242, 5135, 7376
5974, 839, 2974, 838, 2274, 5768, 7318, 845, 6369, 6705, 7428
5975, 238, 2108, 1577, 4580, 7191, 5885, 1583, 7117, 7268, 5547
5976, 136, 3, 2132, 2120, 5390, 2135, 5391, 7376, 5241, 5242
5977, 1179, 4, 137, 1171, 1181, 5392, 5394, 3460, 3459, 7374
5978, 1171, 137, 1455, 1454, 7374, 7348, 5121, 5120, 7276, 1458
5979, 2120, 1832, 136, 1833, 5135, 7427, 7376, 5134, 1836, 7157
5980, 790, 2607, 68, 1031, 2612, 2610, 791, 6701, 6892, 7429
5981, 5230, 5403, 24, 5412, 6364, 6920, 5262, 5488, 6365, 7241
5982, 2261, 584, 864, 2287, 2438, 2770, 6561, 2441, 2440, 6733
5983, 2109, 2060, 2108, 4695, 4973, 4974, 2115, 7323, 4792, 7292
5984, 294, 295, 297, 5406, 1786, 1791, 4259, 7224, 6769, 7171
5985, 1581, 1734, 4574, 1582, 4208, 4587, 6227, 1588, 4199, 6225
5986, 4912, 1950, 1414, 1949, 5630, 6760, 6758, 6473, 1956, 7430
5987, 3918, 5409, 5404, 5413, 6741, 6830, 7431, 6743, 6378, 6764
5988, 4653, 5411, 5403, 5414, 6678, 7432, 7433, 6679, 6166, 7434
5989, 881, 600, 2273, 2277, 2790, 2462, 6554, 6564, 2463, 2464
5990, 355, 1952, 4908, 2037, 4680, 6811, 4920, 2044, 4684, 4924
5991, 877, 98, 61, 5237, 883, 7435, 7436, 6790, 6995, 5280
5992, 4504, 4496, 1455, 1461, 4534, 7027, 7357, 6672, 6673, 3902
5993, 349, 344, 5232, 345, 4671, 6773, 5304, 2017, 2011, 6041
5994, 284, 287, 4217, 285, 4211, 4227, 7107, 1745, 1750, 5817
5995, 295, 294, 291, 4216, 1786, 1787, 4258, 6770, 7223, 4242
5996, 1211, 1212, 372, 4492, 1214, 5401, 5402, 6644, 6408, 6603
5997, 148, 1756, 1193, 1355, 7437, 6688, 3649, 1356, 7439, 7438
5998, 98, 61, 65, 877, 7435, 2354, 876, 883, 7436, 2778
5999, 4859, 1990, 1801, 1989, 4876, 4649, 7420, 4877, 1996, 4646
6000, 5413, 5423, 3428, 5430, 7072, 6442, 5866, 6302, 6950, 5904
6001, 4695, 2109, 2061, 336, 7323, 4972, 4715, 4712, 7169, 4714
6002, 4910, 2034, 1949, 4914, 4934, 4687, 6472, 4935, 4930, 6708
6003, 1083, 111, 3116, 113, 3382, 6322, 3128, 1089, 3381, 3125
6004, 574, 854, 2265, 575, 2764, 7301, 2425, 581, 2755, 2424
6005, 854, 574, 2265, 853, 2764, 2425, 7301, 860, 2763, 7017
6006, 5006, 1804, 1826, 1825, 6033, 4284, 5028, 5129, 4293, 1828
6007, 216, 478, 487, 5427, 7440, 2228, 7441, 7442, 7443, 7022
6008, 1420, 5001, 3706, 5408, 6781, 6439, 7444, 6146, 5855, 6441
6009, 338, 358, 4854, 186, 2098, 4862, 4863, 7365, 7364, 7445
6010, 3440, 3439, 3424, 5417, 3569, 3570, 3564, 6036, 7158, 5981
6011, 111, 631, 85, 748, 6386, 2541, 6730, 6389, 6388, 749
6012, 1005, 3248, 1006, 899, 3267, 3268, 1012, 2940, 6445, 2882
6013, 989, 1112, 2874, 988, 3229, 6761, 2956, 995, 3227, 2955
6014, 800, 111, 104, 2875, 7162, 6744, 7446, 7161, 6079, 2886
6015, 914, 839, 2975, 2974, 2821, 5512, 2994, 2992, 5768, 2995
6016, 4493, 4491, 4490, 5415, 4522, 4568, 4519, 6549, 6271, 6670
6017, 297, 299, 298, 5429, 1794, 1792, 4260, 7234, 6739, 7408
6018, 2291, 585, 865, 2279, 2436, 2772, 5726, 2409, 2444, 5781
6019, 572, 851, 850, 2285, 2761, 857, 2758, 2415, 7187, 7186
6020, 2257, 570, 850, 571, 2412, 2756, 6501, 2411, 577, 2757
6021, 252, 309, 251, 5440, 7352, 7419, 1645, 7235, 7308, 7205
6022, 115, 1073, 3077, 1072, 6075, 3107, 6917, 7062, 1079, 3106
6023, 3043, 866, 939, 940, 6680, 2847, 3061, 3062, 2850, 946
6024, 5223, 5235, 5232, 5416, 5385, 5358, 5348, 7122, 6599, 6043
6025, 2264, 2262, 598, 879, 2454, 2451, 2453, 6484, 6855, 2785
6026, 1578, 1731, 4578, 1579, 4203, 4593, 7298, 1585, 4202, 7447
6027, 2109, 2061, 336, 1966, 4972, 4714, 7169, 7071, 4713, 1973
6028, 299, 301, 300, 5429, 1797, 1795, 4261, 6739, 6740, 7061
6029, 1114, 989, 2866, 990, 3231, 2960, 6640, 3230, 996, 2959
6030, 240, 239, 280, 5419, 1598, 1728, 4194, 7286, 6878, 6879
6031, 371, 1454, 1, 363, 6284, 7335, 2136, 2137, 7029, 366
6032, 836, 559, 524, 558, 2745, 2302, 6814, 2744, 565, 2389
6033, 4805, 1976, 4806, 1754, 4820, 4824, 4825, 5457, 4632, 6609
6034, 1833, 1832, 136, 4505, 1836, 7427, 7157, 6530, 6890, 6918
6035, 346, 417, 1834, 345, 7448, 7130, 7449, 2012, 7131, 6039
6036, 1056, 1117, 1057, 1116, 5997, 6702, 1063, 6953, 1123, 6077
6037, 2, 373, 365, 1833, 2138, 2139, 369, 7339, 7356, 7337
6038, 3006, 2285, 851, 5438, 6430, 7187, 7184, 6431, 6432, 7329
6039, 3676, 3682, 160, 303, 7250, 3686, 3677, 7450, 7452, 7451
6040, 878, 598, 2289, 597, 2784, 2448, 6873, 2783, 604, 2449
6041, 598, 878, 2289, 879, 2784, 6873, 2448, 2785, 885, 6498
6042, 953, 881, 3079, 3078, 2863, 6279, 3100, 3097, 6494, 3101
6043, 927, 3009, 3008, 853, 3030, 3031, 3027, 2835, 7016, 6932
6044, 2973, 3455, 37, 2482, 7039, 3500, 7453, 7038, 7040, 2484
6045, 953, 880, 3078, 952, 2864, 5688, 3097, 959, 2861, 3098
6046, 852, 926, 3008, 927, 2833, 3028, 5563, 2836, 933, 3027
6047, 462, 308, 307, 5403, 7454, 1830, 7455, 6923, 7457, 7456
6048, 562, 839, 561, 2279, 2751, 2750, 568, 2404, 5666, 2405
6049, 345, 5213, 361, 5414, 6451, 5306, 4907, 6450, 6204, 7458
6050, 2972, 911, 836, 2971, 2986, 2815, 6415, 2987, 2984, 5966
6051, 937, 3041, 864, 3042, 3054, 6562, 2843, 3056, 3057, 6785
6052, 990, 1114, 2872, 2866, 3230, 7260, 2965, 2959, 6640, 2923
6053, 2619, 61, 98, 5237, 2620, 7435, 6994, 6996, 5280, 6995
6054, 1112, 988, 106, 5418, 3227, 994, 3225, 6176, 7459, 7267
6055, 2257, 849, 570, 2256, 6470, 2754, 2412, 2413, 6471, 2366
6056, 3422, 3426, 3420, 5423, 3553, 3552, 3547, 6750, 6444, 6707
6057, 912, 2972, 911, 836, 2985, 2986, 918, 2818, 6415, 2815
6058, 938, 864, 3042, 937, 2846, 6785, 3055, 944, 2843, 3056
6059, 1413, 136, 4505, 1947, 7460, 6918, 7461, 7462, 6919, 4515
6060, 154, 1325, 3712, 5408, 1326, 3715, 3713, 7145, 7417, 6695
6061, 2875, 2867, 1117, 993, 2943, 6312, 5986, 2969, 2895, 3228
6062, 4701, 4694, 2111, 2063, 4771, 6323, 6012, 4797, 4723, 4968
6063, 37, 3455, 2973, 837, 3500, 7039, 7453, 7463, 6413, 7336
6064, 1591, 1172, 1579, 1180, 5019, 7255, 4028, 7464, 3541, 7015
6065, 649, 626, 796, 625, 2561, 2596, 7229, 2560, 637, 2595
6066, 4697, 2087, 4911, 1434, 4745, 4947, 5767, 4742, 4744, 7244
6067, 4808, 1974, 1752, 4807, 4818, 4628, 6297, 4819, 4813, 6298
6068, 1976, 1977, 4806, 1754, 1983, 4823, 4824, 4632, 4634, 6609
6069, 357, 2074, 4852, 2073, 4726, 4889, 6090, 4725, 2080, 4888
6070, 914, 838, 2974, 913, 2822, 7318, 2992, 920, 2819, 2991
6071, 252, 253, 309, 5440, 1649, 6822, 7352, 7235, 7256, 7308
6072, 2062, 2110, 4703, 4807, 4977, 7175, 4782, 7127, 6299, 7088
6073, 1415, 1434, 1435, 4697, 3873, 1444, 3875, 6600, 4742, 4741
6074, 894, 795, 2866, 796, 2799, 6511, 2913, 2798, 805, 6906
6075, 1434, 1415, 1414, 4697, 3873, 1424, 3872, 4742, 6600, 6759
6076, 1208, 136, 1832, 1412, 1210, 7427, 7392, 7465, 7203, 7466
6077, 4492, 4490, 4491, 5415, 4544, 4568, 4549, 6841, 6670, 6271
6078, 562, 839, 2279, 840, 2751, 5666, 2404, 2742, 846, 6367
6079, 1799, 163, 2119, 2131, 7064, 2122, 7075, 7307, 5285, 5286
6080, 645, 623, 646, 793, 2554, 2557, 651, 7032, 2590, 6898
6081, 137, 1216, 1179, 1455, 1217, 5400, 5394, 7348, 7389, 7395
6082, 1208, 136, 2132, 1832, 1210, 5391, 5398, 7392, 7427, 7394
6083, 1216, 1579, 1180, 1591, 7467, 7015, 5395, 7468, 4028, 7464
6084, 97, 588, 64, 2255, 2766, 595, 862, 5846, 2333, 2374
6085, 2277, 64, 97, 583, 2373, 862, 6310, 2372, 589, 2765
6086, 4572, 4575, 1416, 4577, 4613, 5538, 7469, 4616, 4618, 7470
6087, 1117, 106, 2867, 115, 3226, 2896, 6312, 1124, 1111, 6619
6088, 3455, 2973, 837, 2972, 7039, 7336, 6413, 6414, 2990, 6412
6089, 2121, 3, 2, 1833, 5238, 370, 5239, 5136, 7377, 7339
6090, 1, 4, 1170, 1454, 378, 3457, 3456, 7335, 7375, 5119
6091, 865, 586, 2281, 585, 2773, 2442, 6276, 2772, 592, 2443
6092, 46, 866, 2673, 2685, 7333, 6023, 2674, 2687, 6612, 6608
6093, 925, 3007, 3006, 851, 3024, 3026, 3020, 2831, 6713, 7184
6094, 2034, 2035, 4910, 1949, 2041, 4933, 4934, 4687, 4690, 6472
6095, 2287, 584, 864, 2291, 2440, 2770, 6733, 2410, 2437, 6732
6096, 1059, 3043, 2697, 2685, 3072, 7208, 7209, 6606, 6681, 7471
6097, 106, 1117, 2867, 993, 3226, 6312, 2896, 1000, 3228, 2895
6098, 4694, 2111, 2063, 362, 6323, 4968, 4723, 7128, 2118, 4966
6099, 2258, 57, 2655, 2259, 2348, 2657, 6668, 2349, 2344, 6377
6100, 3043, 866, 940, 867, 6680, 2850, 3062, 7472, 873, 2849
6101, 2972, 912, 837, 836, 2985, 2817, 6412, 6415, 2818, 843
6102, 3239, 3238, 1003, 5418, 3263, 3261, 3259, 6163, 7266, 7473
6103, 2059, 2088, 4916, 4697, 4790, 4949, 6556, 4788, 4789, 5765
6104, 4574, 1733, 1581, 4576, 4600, 4206, 6227, 4602, 4601, 7474
6105, 2293, 573, 852, 2271, 2417, 2760, 6711, 2423, 2422, 6092
6106, 4581, 4705, 1415, 1435, 5545, 6856, 7475, 7148, 4750, 3875
6107, 879, 598, 2264, 2289, 2785, 2453, 6484, 6498, 2448, 2430
6108, 1756, 4803, 4801, 1978, 5672, 4829, 5674, 4637, 4828, 4827
6109, 877, 596, 2283, 552, 2780, 2396, 7010, 6794, 2357, 2395
6110, 881, 3079, 954, 953, 6279, 3085, 2865, 2863, 3100, 960
6111, 927, 928, 3009, 853, 934, 3015, 3030, 2835, 2837, 7016
6112, 839, 915, 914, 2975, 2823, 921, 2821, 5512, 2981, 2994
6113, 570, 96, 2256, 849, 2752, 5527, 2366, 2754, 855, 6471
6114, 583, 97, 2277, 863, 2765, 6310, 2372, 2767, 869, 6213
6115, 98, 103, 3075, 949, 2853, 3080, 6992, 2854, 955, 3084
6116, 299, 300, 298, 5429, 4261, 1796, 1792, 6739, 7061, 7408
6117, 2284, 2257, 850, 571, 2382, 6501, 6502, 2416, 2411, 2757
6118, 1704, 1839, 1705, 1709, 4403, 4404, 1707, 4155, 7076, 4160
6119, 794, 108, 110, 2877, 7476, 6719, 7035, 7149, 2903, 5889
6120, 97, 868, 588, 2255, 875, 2768, 2766, 5846, 5995, 2333
6121, 128, 3423, 129, 5409, 3532, 3533, 1168, 7008, 6149, 7073
6122, 953, 880, 881, 3078, 2864, 887, 2863, 3097, 5688, 6494
6123, 927, 3008, 852, 853, 3027, 5563, 2836, 2835, 6932, 859
6124, 2625, 2278, 41, 2613, 5515, 2309, 2627, 5702, 5961, 2614
6125, 5000, 283, 280, 5422, 5089, 1744, 5082, 6510, 7221, 7222
6126, 2, 373, 1833, 3, 2138, 7356, 7339, 370, 377, 7377
6127, 1, 4, 1454, 371, 378, 7375, 7335, 2136, 374, 6284
6128, 2265, 575, 854, 2264, 2424, 2755, 7301, 2428, 2429, 6173
6129, 1944, 335, 1832, 4505, 1946, 6716, 6717, 4514, 4513, 6890
6130, 951, 879, 3077, 3076, 2859, 6854, 3095, 3090, 6485, 3096
6131, 600, 2273, 2259, 881, 2462, 2461, 2460, 2790, 6554, 6280
6132, 1154, 71, 66, 1030, 1157, 656, 3502, 7210, 7477, 7211
6133, 1975, 1753, 4808, 1752, 4631, 7018, 4817, 4630, 1759, 6297
6134, 600, 2259, 2258, 881, 2460, 2349, 2459, 2790, 6280, 6882
6135, 1455, 4503, 4496, 4499, 6813, 4560, 7027, 6944, 4555, 4571
6136, 938, 864, 865, 3042, 2846, 871, 2845, 3055, 6785, 5727
6137, 2293, 2285, 2282, 5438, 2419, 2383, 2481, 6991, 6432, 7199
6138, 4098, 4099, 269, 4213, 4135, 4132, 4133, 5794, 5587, 4219
6139, 381, 1833, 365, 5415, 7340, 7337, 2146, 7279, 7216, 7387
6140, 574, 2290, 2265, 853, 2427, 2426, 2425, 2763, 6931, 7017
6141, 1350, 1756, 1757, 3742, 7478, 1763, 7240, 3745, 7381, 7379
6142, 561, 2278, 2279, 839, 2406, 2407, 2405, 2750, 5510, 5666
6143, 914, 838, 839, 2974, 2822, 845, 2821, 2992, 7318, 5768
6144, 2488, 2607, 2974, 1031, 7321, 6891, 7320, 7479, 6892, 3002
6145, 460, 188, 189, 5404, 6195, 1451, 6194, 7480, 7482, 7481
6146, 600, 881, 880, 2266, 2790, 887, 2788, 2456, 6566, 5689
6147, 560, 839, 2274, 561, 2749, 6369, 2307, 567, 2750, 2403
6148, 923, 96, 3005, 101, 2826, 5955, 3014, 929, 2825, 3010
6149, 601, 881, 2258, 882, 2789, 6882, 2353, 2781, 888, 7316
6150, 5411, 5412, 5209, 5434, 6577, 6179, 5759, 6580, 6581, 7483
6151, 1455, 1950, 137, 1415, 6715, 7484, 7348, 6796, 6602, 7264
6152, 2667, 2655, 57, 2259, 6374, 2657, 2668, 6376, 6377, 2344
6153, 975, 2872, 2869, 3170, 2951, 2952, 2888, 3183, 7261, 6977
6154, 1001, 3241, 1002, 891, 3253, 3257, 1008, 2881, 5732, 2907
6155, 137, 1216, 1455, 1415, 1217, 7389, 7348, 7264, 7485, 6796
6156, 266, 1941, 5405, 5419, 1942, 6359, 6360, 7302, 7303, 6057
6157, 3448, 125, 3446, 5413, 3523, 3520, 3525, 6300, 7486, 6301
6158, 3422, 3451, 27, 5423, 3490, 3488, 3485, 6750, 6051, 7220
6159, 796, 649, 625, 648, 7229, 2560, 2595, 7177, 654, 2559
6160, 1752, 1753, 2110, 2111, 1759, 5952, 6296, 5755, 6371, 2117
6161, 553, 5202, 36, 2268, 5276, 5277, 556, 2299, 7115, 2297
6162, 839, 560, 2274, 838, 2749, 2307, 6369, 845, 2747, 7428
6163, 954, 882, 3079, 881, 2856, 7315, 3085, 2865, 888, 6279
6164, 928, 854, 3009, 853, 2828, 6795, 3015, 2837, 860, 7016
6165, 839, 915, 2975, 840, 2823, 2981, 5512, 846, 2814, 5957
6166, 585, 864, 2291, 865, 2771, 6732, 2436, 2772, 871, 5726
6167, 3442, 3443, 3444, 5431, 3577, 3481, 3602, 6980, 7309, 6960
6168, 630, 1061, 82, 760, 6643, 7487, 2534, 7399, 7397, 762
6169, 1950, 2036, 4915, 1951, 4692, 4938, 5632, 1957, 4691, 7361
6170, 3447, 5413, 123, 5427, 6361, 7488, 3518, 7363, 6768, 7362
6171, 4698, 5407, 1417, 5422, 5912, 5960, 7489, 6448, 6403, 7425
6172, 302, 2119, 1799, 163, 5025, 7075, 4281, 5022, 2122, 7064
6173, 1432, 2072, 4860, 2071, 4735, 4884, 5908, 4709, 2078, 4868
6174, 562, 2291, 2287, 840, 2408, 2410, 2360, 2742, 5921, 5830
6175, 2108, 2060, 2107, 4697, 4974, 4971, 2114, 6332, 4787, 7087
6176, 4653, 308, 339, 5403, 4655, 2000, 4657, 7433, 7457, 7490
6177, 93, 112, 1070, 5237, 7491, 1076, 7281, 5279, 7253, 7215
6178, 212, 189, 3918, 5404, 1487, 3923, 3922, 7492, 7481, 7431
6179, 597, 2283, 878, 877, 2447, 6907, 2783, 2782, 7010, 884
6180, 1194, 1330, 153, 5408, 7144, 1331, 3660, 6145, 6624, 6625
6181, 1116, 993, 2876, 1117, 3237, 2968, 7057, 1123, 3228, 6762
6182, 2062, 2111, 2063, 4703, 4976, 4968, 2069, 4782, 7174, 4796
6183, 1033, 109, 114, 3171, 1040, 3353, 3352, 6007, 7278, 3181
6184, 1567, 1461, 1566, 1711, 4003, 4005, 1569, 4156, 6883, 4157
6185, 5404, 5413, 5409, 5430, 6764, 6378, 6830, 7493, 6302, 6072
6186, 4653, 307, 308, 5403, 4654, 1830, 4655, 7433, 7456, 7457
6187, 911, 835, 2971, 910, 2816, 5734, 2984, 917, 2813, 2980
6188, 863, 936, 3041, 937, 2841, 3050, 6017, 2844, 943, 3054
6189, 941, 3044, 940, 867, 3051, 3064, 947, 2851, 7494, 2849
6190, 174, 173, 1781, 3742, 1348, 5048, 5051, 3744, 3747, 7380
6191, 2108, 2109, 4695, 238, 2115, 7323, 7292, 7191, 6151, 7123
6192, 2060, 2108, 4705, 4697, 4974, 6725, 4793, 4787, 6332, 4751
6193, 1208, 1185, 136, 1412, 3618, 3619, 1210, 7465, 3846, 7203
6194, 1114, 1028, 2872, 5439, 5715, 7259, 7260, 6006, 5554, 7367
6195, 800, 111, 2727, 1061, 7162, 6567, 7495, 6642, 1068, 6568
6196, 801, 899, 3248, 2867, 2794, 6445, 6559, 6798, 2942, 5739
6197, 835, 836, 2971, 2271, 842, 5966, 5734, 7496, 5968, 5967
6198, 4695, 4705, 4580, 1961, 4773, 5546, 7124, 4711, 4772, 4588
6199, 126, 3448, 3435, 5409, 3524, 3528, 3526, 7497, 5607, 5608
6200, 4859, 1801, 362, 4858, 7420, 5835, 6972, 4878, 6474, 5925
6201, 1192, 1370, 145, 5407, 7498, 1371, 3642, 5958, 7499, 7060
6202, 106, 115, 1112, 5418, 1111, 1118, 3225, 7267, 7500, 6176
6203, 272, 273, 4095, 5406, 1699, 4141, 4140, 6807, 6872, 6234
6204, 4456, 1938, 284, 5405, 4463, 1940, 4461, 7411, 6356, 7109
6205, 4497, 1713, 4103, 1712, 4530, 4165, 5531, 4531, 1719, 4115
6206, 373, 365, 1833, 5415, 2139, 7337, 7356, 6627, 7387, 7216
6207, 2871, 3171, 3172, 980, 5743, 3200, 5744, 2953, 3184, 3198
6208, 77, 2661, 775, 5420, 2665, 2666, 777, 7501, 6202, 7332
6209, 244, 5404, 243, 5409, 6832, 7502, 1607, 6831, 6830, 7503
6210, 309, 347, 339, 5440, 4667, 2014, 4666, 7308, 7504, 6838
6211, 881, 601, 2258, 600, 2789, 2353, 6882, 2790, 607, 2459
6212, 2727, 2255, 51, 868, 5993, 2332, 2729, 5994, 5995, 7505
6213, 2119, 1208, 2132, 2120, 7391, 5398, 5323, 2123, 7393, 5242
6214, 1179, 1216, 1172, 1171, 5400, 7388, 3546, 3460, 7390, 1175
6215, 265, 266, 4100, 5419, 1692, 4126, 4125, 7384, 7302, 6546
6216, 600, 880, 599, 2266, 2788, 2787, 606, 2456, 5689, 2455
6217, 341, 5231, 5218, 5411, 5287, 5296, 5294, 7506, 5643, 5644
6218, 5011, 1780, 3754, 175, 5056, 6982, 6929, 5054, 5052, 3759
6219, 3918, 189, 188, 5404, 3923, 1451, 3921, 7431, 7481, 7482
6220, 270, 4098, 269, 4213, 4134, 4133, 1696, 4218, 5794, 4219
6221, 1990, 1801, 1802, 4859, 4649, 1808, 4648, 4876, 7420, 7507
6222, 2264, 575, 854, 2289, 2429, 2755, 6173, 2430, 2367, 6172
6223, 798, 896, 2871, 3172, 2805, 2930, 6925, 5460, 6078, 5744
6224, 4992, 171, 3730, 172, 5045, 3735, 7508, 5047, 1338, 3732
6225, 131, 132, 3814, 1579, 1177, 3815, 3816, 7014, 7013, 7310
6226, 864, 585, 2291, 584, 2771, 2436, 6732, 2770, 591, 2437
6227, 5202, 351, 5163, 2127, 5309, 5193, 6633, 5312, 2130, 5194
6228, 799, 1087, 1059, 3112, 7509, 3392, 7353, 6303, 3153, 7189
6229, 2488, 2974, 838, 2973, 7320, 7318, 7322, 7510, 2993, 7383
6230, 1799, 302, 163, 303, 4281, 5022, 7064, 1805, 1798, 7065
6231, 5209, 5412, 5215, 5434, 6179, 7118, 5329, 7483, 6581, 7414
6232, 3044, 941, 868, 867, 3051, 2842, 6604, 7494, 2851, 874
6233, 835, 911, 2971, 836, 2816, 2984, 5734, 842, 2815, 5966
6234, 864, 863, 3041, 937, 870, 6017, 6562, 2843, 2844, 3054
6235, 912, 837, 2973, 2972, 2817, 7336, 2988, 2985, 6412, 2990
6236, 1754, 287, 4998, 285, 4232, 5093, 6488, 6153, 1750, 5094
6237, 4704, 335, 359, 1413, 5975, 6886, 4731, 7242, 7243, 7511
6238, 1028, 1029, 3178, 5439, 1035, 7168, 7116, 5554, 6926, 7262
6239, 1753, 1976, 4805, 1754, 4633, 4820, 7004, 1760, 4632, 5457
6240, 151, 1340, 3730, 1757, 1341, 3733, 3731, 7512, 7514, 7513
6241, 1801, 1989, 1800, 4858, 4646, 4647, 1807, 6474, 4873, 5882
6242, 586, 866, 2281, 2288, 2776, 6209, 2442, 2324, 6025, 2446
6243, 4800, 2062, 2110, 4702, 6800, 4977, 5686, 5698, 4780, 6749
6244, 202, 226, 225, 190, 6027, 1529, 6820, 3891, 6029, 6143
6245, 1776, 4212, 293, 4456, 4229, 4252, 1777, 4464, 7409, 4465
6246, 77, 2673, 2661, 5420, 2676, 5964, 2665, 7501, 6692, 6202
6247, 1592, 1591, 131, 1579, 1595, 5020, 5017, 4030, 4028, 7014
6248, 2274, 2974, 39, 2607, 6705, 7515, 2306, 7053, 6891, 2609
6249, 311, 262, 310, 4295, 7516, 7517, 1844, 4314, 6900, 4313
6250, 3884, 234, 193, 194, 5660, 7518, 3904, 3903, 7519, 1466
6251, 4861, 4860, 1987, 1799, 4872, 4866, 4871, 6737, 6735, 4642
6252, 3074, 878, 950, 3076, 6774, 2857, 3092, 3093, 6775, 3089
6253, 3004, 3006, 850, 924, 3023, 7185, 6499, 3022, 3019, 2829
6254, 793, 645, 1070, 3074, 7032, 6827, 6317, 7043, 6350, 3103
6255, 286, 284, 4217, 5405, 1749, 7107, 4226, 7410, 7109, 6266
6256, 118, 1153, 3425, 5162, 1155, 3506, 3505, 5168, 5167, 6594
6257, 93, 2126, 1070, 69, 5282, 7282, 7281, 726, 2128, 7520
6258, 137, 1189, 1216, 1415, 3623, 3625, 1217, 7264, 3854, 7485
6259, 963, 3115, 2873, 992, 3131, 6397, 2947, 2949, 6746, 2948
6260, 265, 4106, 264, 5419, 4124, 4121, 1691, 7384, 6058, 7386
6261, 4915, 2107, 1951, 4908, 7055, 7293, 7361, 4939, 6802, 7405
6262, 4918, 2088, 2059, 4700, 4951, 4790, 6557, 6805, 4791, 4784
6263, 2270, 2290, 574, 853, 2402, 2427, 2421, 7054, 6931, 2763
6264, 1031, 2974, 2488, 2973, 3002, 7320, 7479, 2999, 2993, 7510
6265, 96, 570, 2256, 63, 2752, 2366, 5527, 848, 576, 2365
6266, 4698, 1417, 4699, 5422, 7489, 7424, 4759, 6448, 7425, 6435
6267, 4908, 2107, 1951, 1952, 6802, 7293, 7405, 6811, 7300, 1958
6268, 1757, 1193, 1756, 1350, 7084, 6688, 1763, 7240, 7239, 7478
6269, 2276, 97, 64, 2255, 5808, 862, 2375, 2337, 5846, 2374
6270, 3455, 66, 2482, 1030, 3499, 2485, 7040, 7042, 7211, 7041
6271, 271, 270, 4215, 4096, 1697, 4224, 6409, 4136, 4137, 6895
6272, 800, 104, 111, 3113, 7446, 6744, 7162, 7521, 3123, 7194
6273, 3044, 3043, 2709, 1060, 3065, 7522, 7523, 3073, 3071, 7524
6274, 220, 1502, 207, 208, 1503, 3946, 5648, 5649, 1504, 1480
6275, 324, 1878, 247, 325, 4348, 1879, 5650, 1858, 1880, 5651
6276, 1310, 1195, 158, 1420, 7525, 3671, 1312, 7346, 3847, 5639
6277, 1191, 1395, 140, 1417, 7526, 1396, 3631, 3858, 7345, 6217
6278, 4803, 1756, 1755, 1978, 5672, 1762, 7527, 4828, 4637, 4636
6279, 4096, 272, 4095, 5406, 4139, 4140, 4142, 6063, 6807, 6234
6280, 596, 65, 61, 877, 602, 2354, 2356, 2780, 2778, 7436
6281, 3170, 1028, 3178, 5439, 7005, 7116, 3203, 7263, 5554, 7262
6282, 433, 244, 424, 5417, 7528, 7529, 2186, 6504, 6833, 6507
6283, 838, 2974, 39, 2274, 7318, 7515, 7530, 7428, 6705, 2306
6284, 3676, 161, 163, 303, 3680, 1297, 3681, 7450, 7066, 7065
6285, 2697, 79, 766, 1059, 2700, 767, 2702, 7209, 7531, 7083
6286, 992, 3115, 2873, 1116, 6746, 6397, 2948, 3234, 6398, 6399
6287, 1112, 2868, 988, 5418, 6293, 2893, 3227, 6176, 6328, 7459
6288, 4479, 266, 265, 5419, 4480, 1692, 4481, 7304, 7302, 7384
6289, 1417, 5005, 1581, 5422, 7369, 6251, 7368, 7425, 5749, 6434
6290, 3425, 523, 35, 2282, 3496, 525, 3497, 7019, 2296, 2294
6291, 5203, 5234, 5209, 5434, 5317, 5330, 5328, 7412, 7532, 7483
6292, 78, 1059, 769, 2685, 7407, 7533, 770, 2688, 6606, 2690
6293, 2276, 64, 97, 2277, 2375, 862, 5808, 2376, 2373, 6310
6294, 1018, 1017, 3302, 2866, 1024, 3321, 3322, 2961, 2917, 5615
6295, 270, 4213, 4215, 4096, 4218, 4225, 4224, 4137, 6062, 6895
6296, 47, 3043, 866, 2685, 7534, 6680, 7535, 2686, 6681, 6612
6297, 5231, 4653, 340, 5414, 6677, 4658, 5288, 5522, 6679, 7536
6298, 2087, 4916, 2088, 4697, 4948, 4949, 2094, 4745, 5765, 4789
6299, 266, 5405, 4100, 5419, 6360, 5898, 4126, 7302, 6057, 6546
6300, 913, 838, 2974, 2973, 2819, 7318, 2991, 2989, 7383, 2993
6301, 1952, 2107, 1951, 2106, 7300, 7293, 1958, 5536, 2113, 6553
6302, 939, 866, 3043, 3045, 2847, 6680, 3061, 3058, 6024, 3063
6303, 3303, 3299, 3301, 795, 3320, 3350, 3349, 7537, 6675, 6513
6304, 1948, 2034, 4914, 1949, 4688, 4930, 7371, 1955, 4687, 6708
6305, 989, 1018, 3302, 2866, 2962, 3322, 6649, 2960, 2961, 5615
6306, 1418, 1754, 1755, 5407, 6905, 1761, 7538, 5959, 5911, 6846
6307, 372, 1211, 4492, 5415, 5402, 6644, 6603, 6628, 6629, 6841
6308, 345, 349, 361, 5213, 2017, 2103, 4907, 6451, 5307, 5306
6309, 1047, 117, 3297, 110, 3366, 3306, 6254, 1054, 3367, 6309
6310, 110, 646, 623, 793, 6614, 2557, 7167, 6829, 6898, 2590
6311, 2270, 835, 557, 2290, 5622, 2741, 2401, 2402, 5592, 2358
6312, 1800, 4861, 1988, 1799, 5880, 4870, 4644, 1806, 6737, 4645
6313, 126, 3918, 3448, 5409, 3919, 6742, 3524, 7497, 6741, 5607
6314, 3790, 181, 182, 5005, 3795, 1388, 3792, 6983, 5069, 5068
6315, 498, 507, 515, 516, 2244, 2250, 7245, 7246, 2253, 519
6316, 794, 110, 108, 3300, 7035, 6719, 7476, 5722, 7172, 3308
6317, 865, 938, 3042, 3045, 2845, 3055, 5727, 6155, 3059, 3060
6318, 2277, 2266, 583, 863, 2435, 2434, 2372, 6213, 6016, 2767
6319, 975, 2869, 105, 3170, 2888, 2889, 981, 3183, 6977, 3180
6320, 505, 31, 33, 35, 2241, 513, 508, 2248, 3492, 514
6321, 497, 506, 516, 517, 2247, 2254, 7153, 7247, 2252, 520
6322, 507, 515, 34, 498, 2250, 2249, 511, 2244, 7245, 2243
6323, 498, 506, 507, 516, 2246, 510, 2244, 7246, 2254, 2253
6324, 571, 572, 850, 2285, 578, 2758, 2757, 2414, 2415, 7186
6325, 1416, 1405, 138, 1580, 6465, 1406, 6464, 7539, 7541, 7540
6326, 2033, 1947, 1948, 4917, 4685, 1954, 4686, 4927, 7404, 7421
6327, 3006, 3007, 1044, 5438, 3026, 3037, 3034, 6431, 6287, 6288
6328, 34, 36, 32, 498, 522, 5274, 512, 2243, 7542, 502
6329, 36, 34, 515, 498, 522, 2249, 518, 7542, 2243, 7245
6330, 5231, 340, 5216, 5414, 5288, 5291, 5293, 5522, 7536, 5521
6331, 505, 497, 517, 506, 2245, 7247, 2251, 509, 2247, 2252
6332, 497, 505, 517, 496, 2245, 2251, 7247, 500, 2242, 7543
6333, 498, 506, 516, 497, 2246, 2254, 7246, 501, 2247, 7153
6334, 4215, 294, 4442, 5406, 7544, 4447, 7545, 6896, 7224, 7546
6335, 106, 3238, 1003, 1004, 6081, 3261, 2897, 2898, 3262, 1010
6336, 646, 3005, 110, 794, 6551, 3011, 6614, 7265, 7034, 7035
6337, 2037, 4908, 1951, 1952, 4924, 7405, 4693, 4684, 6811, 1958
6338, 2733, 3044, 2727, 868, 7547, 6569, 7548, 7549, 6604, 5994
6339, 838, 39, 2974, 2607, 7530, 7515, 7318, 7319, 2609, 6891
6340, 2047, 4800, 4799, 4702, 4833, 4837, 4835, 4764, 5698, 5699
6341, 2283, 597, 878, 2289, 2447, 2783, 6907, 2450, 2449, 6873
6342, 754, 800, 2727, 1061, 7550, 7495, 2732, 7551, 6642, 6568
6343, 3427, 127, 3435, 5409, 3530, 3527, 3531, 6113, 7552, 5608
6344, 562, 2279, 2291, 840, 2404, 2409, 2408, 2742, 6367, 5921
6345, 115, 3243, 1073, 1072, 6973, 5548, 6075, 7062, 7193, 1079
6346, 880, 599, 2266, 2260, 2787, 2455, 5689, 6052, 2458, 2433
6347, 836, 557, 2271, 835, 2743, 2399, 5968, 842, 2741, 7496
6348, 4100, 4106, 265, 5419, 4127, 4124, 4125, 6546, 6058, 7384
6349, 894, 2866, 2872, 5439, 2913, 2923, 2922, 7195, 6662, 7367
6350, 3170, 3176, 976, 5439, 3191, 3190, 3187, 7263, 7196, 7197
6351, 4495, 4104, 1713, 1714, 6183, 4166, 4536, 4535, 4153, 1720
6352, 3448, 3918, 125, 5413, 6742, 3920, 3523, 6300, 6743, 7486
6353, 4097, 274, 275, 5429, 4144, 1701, 4145, 6347, 7554, 7553
6354, 1414, 4911, 4912, 4913, 7555, 4960, 6758, 7556, 4946, 4961
6355, 1832, 335, 136, 4505, 6716, 7557, 7427, 6890, 4513, 6918
6356, 2607, 838, 39, 2488, 7319, 7530, 2609, 7321, 7322, 2489
6357, 2288, 45, 2673, 2661, 2318, 2675, 5962, 5663, 2662, 5964
6358, 5236, 26, 5205, 5412, 5265, 5268, 5269, 5490, 7105, 6480
6359, 4913, 4912, 1414, 4914, 4961, 6758, 7556, 4963, 4957, 7558
6360, 1059, 78, 2673, 2685, 7407, 2677, 6605, 6606, 2688, 6608
6361, 2727, 1061, 3044, 2733, 6568, 3053, 6569, 7548, 7559, 7547
6362, 183, 182, 4990, 3796, 1393, 5071, 5072, 3798, 3801, 6247
6363, 341, 4653, 5231, 5411, 4656, 6677, 5287, 7506, 6678, 5643
6364, 5203, 5209, 5215, 5434, 5328, 5329, 5325, 7412, 7483, 7414
6365, 1961, 4580, 4695, 336, 4588, 7124, 4711, 1967, 4584, 4712
6366, 852, 573, 2270, 2271, 2760, 2420, 7422, 6092, 2422, 2400
6367, 3007, 852, 926, 3008, 5562, 2833, 3025, 3029, 5563, 3028
6368, 952, 880, 3078, 3077, 2861, 5688, 3098, 3094, 5954, 3099
6369, 3006, 851, 3007, 5438, 7184, 6713, 3026, 6431, 7329, 6287
6370, 231, 230, 197, 3885, 1549, 6858, 6124, 5863, 5864, 3912
6371, 3243, 115, 3244, 5418, 6973, 6074, 3292, 6935, 7500, 6936
6372, 5009, 179, 3778, 180, 5062, 3783, 6256, 5064, 1378, 3780
6373, 4705, 4697, 1415, 1435, 4751, 6600, 6856, 4750, 4741, 3875
6374, 1003, 3238, 106, 5418, 3261, 6081, 2897, 7473, 7266, 7267
6375, 2613, 2274, 40, 2607, 6370, 2305, 2615, 7052, 7053, 2608
6376, 360, 5213, 5212, 5414, 5318, 5319, 5290, 7560, 6204, 6368
6377, 5409, 5417, 5404, 5430, 6524, 6636, 6830, 6072, 7067, 7493
6378, 2062, 4800, 2046, 4702, 6800, 4832, 4781, 4780, 5698, 4779
6379, 1461, 1455, 4504, 4499, 3902, 7357, 6672, 6241, 6944, 4529
6380, 294, 1933, 4442, 5406, 1935, 4452, 4447, 7224, 6808, 7546
6381, 123, 5413, 3925, 5427, 7488, 6763, 3926, 7362, 6768, 6766
6382, 838, 2488, 2973, 2482, 7322, 7510, 7383, 7561, 7562, 7038
6383, 1418, 1755, 1370, 5407, 7538, 7563, 7564, 5959, 6846, 7499
6384, 2256, 96, 63, 2269, 5527, 848, 2365, 2370, 5526, 2369
6385, 1350, 1757, 150, 3742, 7240, 7238, 1352, 3745, 7379, 3746
6386, 243, 424, 433, 244, 6395, 2186, 6394, 1607, 7529, 7528
6387, 1412, 335, 136, 1832, 6664, 7557, 7203, 7466, 6716, 7427
6388, 557, 835, 2270, 2271, 2741, 5622, 2401, 2399, 7496, 2400
6389, 268, 4212, 269, 4099, 6383, 4221, 1695, 4130, 6274, 4132
6390, 282, 4467, 1941, 5405, 4473, 4475, 1943, 7139, 7565, 6359
6391, 284, 1938, 4467, 5405, 1940, 4476, 4474, 7109, 6356, 7565
6392, 894, 796, 2866, 5439, 2798, 6906, 2913, 7195, 6482, 6662
6393, 306, 275, 4263, 1819, 1926, 7566, 4292, 1821, 4406, 4268
6394, 199, 229, 228, 3885, 7101, 1541, 7160, 3914, 5874, 5783
6395, 1767, 4442, 292, 4215, 4449, 4450, 1769, 4248, 7545, 4251
6396, 990, 1114, 2869, 2872, 3230, 7217, 2964, 2965, 7260, 2952
6397, 214, 1494, 1502, 208, 1495, 3944, 3945, 5461, 3943, 1504
6398, 248, 1878, 1872, 325, 4343, 4344, 1873, 5464, 1880, 4345
6399, 769, 1059, 79, 2685, 7533, 7531, 771, 2690, 6606, 2689
6400, 5009, 3772, 179, 178, 6532, 3774, 5062, 5061, 3777, 1373
6401, 4294, 257, 256, 316, 7112, 1665, 7311, 4324, 7102, 7182
6402, 2283, 597, 596, 877, 2447, 603, 2396, 7010, 2782, 2780
6403, 1416, 4575, 4576, 4577, 5538, 4622, 7567, 7470, 4618, 4623
6404, 3814, 1592, 131, 1579, 7289, 5017, 3816, 7310, 4030, 7014
6405, 344, 349, 5232, 348, 4671, 5304, 6773, 2015, 2016, 5303
6406, 130, 245, 3424, 246, 4328, 6122, 3535, 1863, 1609, 6818
6407, 1574, 236, 237, 192, 7372, 1590, 1575, 4008, 4014, 4013
6408, 3244, 3238, 3239, 5418, 3285, 3263, 3286, 6936, 7266, 6163
6409, 328, 462, 307, 5403, 7568, 7455, 1862, 7569, 6923, 7456
6410, 1005, 3246, 3248, 2867, 3265, 3269, 3267, 2941, 5859, 5739
6411, 4577, 4572, 4573, 1416, 4616, 4610, 4617, 7470, 7469, 5572
6412, 1755, 4806, 1977, 1754, 7570, 4823, 4635, 1761, 6609, 4634
6413, 373, 1833, 136, 1211, 7356, 7157, 5389, 5397, 6531, 1213
6414, 1212, 1454, 137, 371, 5773, 7276, 1215, 5399, 6284, 5393
6415, 291, 4216, 294, 5406, 4242, 7223, 1787, 7571, 6190, 7224
6416, 3244, 3239, 3247, 5418, 3286, 3289, 3290, 6936, 6163, 6164
6417, 120, 1615, 3429, 5427, 4042, 6847, 3508, 7572, 6849, 6850
6418, 5008, 3784, 181, 180, 7573, 3786, 5066, 5065, 3789, 1383
6419, 5011, 3754, 176, 175, 6929, 3756, 5055, 5054, 3759, 1358
6420, 106, 988, 2868, 5418, 994, 2893, 2894, 7267, 7459, 6328
6421, 5212, 5216, 340, 5414, 5292, 5291, 5289, 6368, 5521, 7536
6422, 630, 80, 1060, 763, 2530, 7574, 6519, 7575, 764, 7576
6423, 5001, 168, 167, 3706, 5035, 1318, 5036, 6439, 3708, 3711
6424, 3304, 3301, 3299, 795, 3344, 3350, 3351, 6676, 6513, 6675
6425, 4407, 275, 274, 5429, 4409, 1701, 4410, 7577, 7553, 7554
6426, 1950, 4910, 2035, 1949, 5849, 4933, 4689, 1956, 6472, 4690
6427, 178, 177, 5013, 3766, 1368, 5059, 5058, 3768, 3771, 7578
6428, 273, 5406, 1930, 5429, 6872, 6870, 1931, 7401, 6526, 7403
6429, 25, 3450, 3422, 5423, 3483, 3487, 3486, 7579, 6962, 6750
6430, 248, 4331, 326, 1872, 4333, 4336, 5465, 1873, 4332, 1874
6431, 1494, 214, 3931, 209, 1495, 3939, 3934, 1496, 5463, 3933
6432, 3298, 2874, 1018, 989, 6236, 2963, 3324, 6648, 2956, 2962
6433, 867, 3043, 2697, 2709, 7472, 7208, 7580, 7581, 7522, 7582
6434, 853, 573, 2270, 852, 2762, 2420, 7054, 859, 2760, 7422
6435, 853, 573, 574, 2270, 2762, 580, 2763, 7054, 2420, 2421
6436, 1712, 3992, 4504, 1566, 6971, 6671, 4525, 4114, 4001, 7306
6437, 3430, 120, 3429, 5427, 3510, 3508, 3512, 7299, 7572, 6850
6438, 303, 160, 3676, 1292, 7451, 3677, 7450, 7583, 1293, 3679
6439, 1072, 1112, 115, 5418, 5770, 1118, 7062, 6175, 6176, 7500
6440, 352, 5202, 350, 2018, 5311, 5310, 2026, 4676, 7584, 2020
6441, 4430, 296, 1930, 5406, 4437, 1932, 4439, 7585, 7232, 6870
6442, 4456, 284, 286, 5405, 4461, 1749, 4462, 7411, 7109, 7410
6443, 3451, 29, 27, 5423, 3489, 495, 3488, 6051, 7126, 7220
6444, 2488, 1031, 2973, 2482, 7479, 2999, 7510, 7562, 7586, 7038
6445, 3700, 1315, 157, 1420, 3703, 1317, 3704, 6784, 7587, 7347
6446, 1390, 3790, 141, 1417, 3793, 3791, 1391, 7588, 7589, 7344
6447, 5403, 5414, 5411, 5425, 7434, 6166, 7432, 6366, 6390, 6264
6448, 242, 4006, 4106, 237, 4015, 6646, 4117, 1605, 4016, 4116
6449, 3426, 5430, 5423, 5431, 7190, 6950, 6444, 6981, 7284, 7590
6450, 211, 188, 460, 5404, 1484, 6195, 7591, 7418, 7482, 7480
6451, 4183, 241, 1599, 4006, 4189, 1601, 4186, 7592, 4026, 4025
6452, 112, 93, 2619, 5237, 7491, 2623, 7156, 7253, 5279, 6996
6453, 778, 2649, 75, 5420, 2654, 2652, 779, 7593, 6129, 7594
6454, 3425, 119, 118, 1615, 3504, 1158, 3505, 6848, 1616, 4039
6455, 168, 5015, 169, 3712, 5038, 5039, 1323, 3717, 6694, 3714
6456, 3043, 2697, 47, 867, 7208, 2699, 7534, 7472, 7580, 7595
6457, 47, 2697, 3043, 2685, 2699, 7208, 7534, 2686, 7471, 6681
6458, 3700, 166, 167, 4995, 3705, 1313, 3702, 6783, 5032, 5033
6459, 866, 3043, 47, 867, 6680, 7534, 7535, 873, 7472, 7595
6460, 3694, 165, 166, 4996, 3699, 1308, 3696, 6031, 5030, 5029
6461, 5207, 342, 5218, 5411, 5297, 5295, 5299, 5758, 7596, 5644
6462, 867, 2721, 3044, 2709, 7597, 7598, 7494, 7581, 7599, 7523
6463, 3676, 302, 1826, 303, 7600, 1829, 7249, 7450, 1798, 4282
6464, 4097, 4095, 274, 5429, 4146, 4143, 4144, 6347, 6525, 7554
6465, 649, 3455, 1030, 1154, 7135, 7042, 7134, 5166, 3503, 7210
6466, 128, 129, 245, 5409, 1168, 1864, 4330, 7008, 7073, 6521
6467, 4097, 275, 4263, 5429, 4145, 7566, 6345, 6347, 7553, 6346
6468, 211, 460, 469, 5404, 7591, 2216, 7423, 7418, 7480, 7360
6469, 1952, 355, 4908, 335, 4680, 4920, 6811, 1959, 4681, 6810
6470, 4705, 4695, 2108, 2060, 4773, 7292, 6725, 4793, 4792, 4974
6471, 5404, 5430, 5417, 5431, 7493, 7067, 6636, 6637, 7284, 5879
6472, 2703, 54, 53, 2276, 2704, 544, 2705, 5806, 2336, 2335
6473, 3117, 3112, 3118, 799, 3159, 3162, 3163, 6208, 6303, 6304
6474, 3111, 3112, 3117, 799, 3155, 3159, 3158, 7601, 6303, 6208
6475, 132, 133, 1579, 1180, 1178, 7602, 7013, 3539, 1183, 7015
6476, 2266, 2260, 583, 863, 2433, 2431, 2434, 6016, 6437, 2767
6477, 2661, 76, 775, 5420, 2664, 776, 2666, 6202, 7331, 7332
6478, 5223, 5210, 16, 5416, 5254, 5251, 5252, 7122, 7188, 6514
6479, 3808, 4991, 184, 185, 7603, 5076, 3813, 3810, 5075, 1403
6480, 124, 3447, 3446, 5413, 3517, 3522, 3521, 7604, 6361, 6301
6481, 1413, 335, 359, 4909, 7243, 6886, 7511, 7605, 7354, 4922
6482, 3730, 1340, 152, 1419, 3733, 1342, 3734, 7606, 7608, 7607
6483, 572, 2293, 851, 2285, 2418, 6712, 2761, 2415, 2419, 7187
6484, 4804, 4802, 1418, 4803, 4845, 5473, 6210, 4850, 4849, 5472
6485, 4213, 270, 4098, 4096, 4218, 4134, 5794, 6062, 4137, 4138
6486, 629, 77, 775, 5420, 2523, 777, 7330, 6884, 7501, 7332
6487, 205, 223, 222, 190, 7097, 1517, 7180, 3897, 6131, 6015
6488, 251, 250, 309, 322, 1641, 7370, 7419, 7098, 7181, 4309
6489, 4492, 1947, 1211, 1948, 4542, 6419, 6644, 4543, 1954, 7609
6490, 24, 5230, 22, 5403, 5262, 5261, 467, 6920, 6364, 6922
6491, 277, 4262, 4104, 4097, 4266, 6261, 4152, 4148, 6335, 4154
6492, 1059, 2697, 79, 2685, 7209, 2700, 7531, 6606, 7471, 2689
6493, 1618, 3425, 118, 1615, 6595, 3505, 1619, 4040, 6848, 4039
6494, 2733, 2727, 51, 868, 7548, 2729, 2734, 7549, 5994, 7505
6495, 360, 345, 361, 5414, 7610, 4907, 2102, 7560, 6450, 7458
6496, 162, 164, 3682, 1826, 1298, 3684, 3687, 5023, 5024, 7227
6497, 2293, 851, 2285, 5438, 6712, 7187, 2419, 6991, 7329, 6432
6498, 264, 241, 4006, 1602, 1722, 4026, 7611, 4181, 1603, 4027
6499, 145, 1375, 1192, 5407, 1377, 7110, 3642, 7060, 7059, 5958
6500, 3688, 164, 165, 5006, 3693, 1303, 3690, 7612, 5027, 5026
6501, 898, 800, 104, 2875, 2806, 7446, 2883, 2885, 7161, 2886
6502, 170, 171, 3724, 4992, 1333, 3726, 3729, 5044, 5045, 5947
6503, 1933, 294, 4430, 5406, 1935, 4436, 4438, 6808, 7224, 7585
6504, 586, 867, 48, 587, 2774, 7613, 2325, 593, 2775, 2326
6505, 3170, 975, 2872, 976, 3183, 2951, 7261, 3187, 982, 2921
6506, 1440, 1420, 4701, 4694, 3868, 7129, 4767, 4769, 7025, 4771
6507, 4660, 5411, 343, 5434, 6578, 7614, 4665, 6579, 6580, 7615
6508, 1412, 4704, 4696, 1432, 6663, 4738, 7291, 3867, 4734, 4736
6509, 793, 891, 2877, 2868, 2793, 2906, 6638, 7146, 2908, 2910
6510, 260, 261, 312, 4295, 1681, 7051, 7178, 6997, 6901, 4318
6511, 3884, 232, 233, 195, 5659, 1557, 5658, 3908, 7179, 7048
6512, 1360, 148, 3754, 1756, 1362, 3758, 3757, 7219, 7437, 6928
6513, 233, 234, 3884, 194, 1561, 5660, 5658, 7049, 7519, 3903
6514, 311, 261, 262, 4295, 7050, 1685, 7516, 4314, 6901, 6900
6515, 3429, 120, 119, 1615, 3508, 1159, 3507, 6847, 4042, 1616
6516, 3304, 1044, 3301, 795, 5939, 5474, 3344, 6676, 7078, 6513
6517, 524, 3455, 649, 1154, 3501, 7135, 6817, 3542, 3503, 5166
6518, 5237, 645, 2126, 552, 7142, 5165, 5283, 5281, 7012, 5321
6519, 122, 3430, 3453, 5427, 3513, 3516, 3514, 7616, 7299, 6141
6520, 106, 3244, 115, 5418, 6083, 6074, 1111, 7267, 6936, 7500
6521, 176, 177, 3760, 5011, 1363, 3762, 3765, 5055, 5057, 6593
6522, 1409, 1219, 138, 1190, 3842, 1221, 1411, 7617, 3610, 3626
6523, 1288, 160, 135, 1292, 1289, 3617, 3613, 3675, 1293, 7618
6524, 1243, 146, 1370, 1192, 1245, 1372, 3834, 3643, 3644, 7498
6525, 158, 1195, 1310, 1279, 3671, 7525, 1312, 1281, 3670, 3822
6526, 1390, 1231, 142, 1191, 3838, 1233, 1392, 7619, 3634, 3635
6527, 152, 1194, 1264, 1335, 3658, 3659, 1265, 1336, 7620, 3827
6528, 154, 1330, 1267, 1194, 1332, 3826, 1269, 3662, 7144, 3661
6529, 1228, 1395, 140, 1191, 3839, 1396, 1229, 3632, 7526, 3631
6530, 1276, 156, 1195, 1315, 1277, 3667, 3668, 3823, 1316, 7621
6531, 144, 1240, 1375, 1192, 1241, 3835, 1376, 3640, 3641, 7110
6532, 1255, 150, 1350, 1193, 1257, 1352, 3830, 3652, 3653, 7239
6533, 1252, 1355, 148, 1193, 3831, 1356, 1253, 3650, 7438, 3649
6534, 1413, 136, 335, 4505, 7460, 7557, 7243, 7461, 6918, 4513
6535, 894, 2872, 976, 5439, 2922, 2921, 2920, 7195, 7367, 7197
6536, 230, 229, 198, 3885, 1545, 7100, 6859, 5864, 5874, 3911
6537, 258, 257, 4294, 315, 1669, 7112, 6860, 6861, 7103, 4322
6538, 170, 3718, 169, 5007, 3720, 3723, 1328, 5041, 7622, 5042
6539, 55, 54, 2691, 2275, 545, 2693, 2692, 2339, 2338, 7623
6540, 76, 2649, 778, 5420, 2653, 2654, 780, 7331, 6129, 7593
6541, 2625, 73, 798, 2613, 2628, 7624, 6865, 5702, 2617, 7396
6542, 1799, 134, 161, 2131, 7625, 1291, 7063, 7307, 2133, 5284
6543, 1350, 149, 1756, 3742, 1351, 7626, 7478, 3745, 3743, 7381
6544, 362, 1802, 1801, 4859, 6497, 1808, 5835, 6972, 7507, 7420
6545, 1420, 1320, 3706, 156, 7627, 3709, 7444, 7628, 1322, 3710
6546, 3454, 3439, 15, 5417, 3472, 3470, 3468, 6570, 7158, 6506
6547, 1019, 3297, 2874, 3298, 3311, 6235, 2970, 3325, 3327, 6236
6548, 850, 2284, 571, 2285, 6502, 2416, 2757, 7186, 2385, 2414
6549, 188, 214, 189, 209, 7045, 5462, 1451, 3887, 5463, 3886
6550, 307, 248, 326, 308, 7047, 5465, 4298, 1830, 5466, 4299
6551, 1433, 4704, 359, 1413, 4732, 4731, 4729, 3871, 7242, 7511
6552, 108, 794, 892, 2877, 7476, 2796, 2901, 2903, 7149, 2904
6553, 2089, 4918, 4908, 4700, 4952, 4954, 4926, 4798, 6805, 6803
6554, 4580, 4705, 1962, 1961, 5546, 4749, 4604, 4588, 4772, 1968
6555, 2709, 2721, 3044, 1060, 7599, 7598, 7523, 7524, 7629, 3073
6556, 2488, 68, 2607, 1031, 2492, 2610, 7321, 7479, 7429, 6892
6557, 3243, 1072, 115, 5418, 7193, 7062, 6973, 6935, 6175, 7500
6558, 1949, 4500, 1212, 1948, 4547, 5812, 7630, 1955, 4546, 6334
6559, 274, 4095, 273, 5429, 4143, 4141, 1700, 7554, 6525, 7401
6560, 899, 801, 2875, 2867, 2794, 6938, 2939, 2942, 6798, 2943
6561, 867, 49, 2721, 2709, 7631, 2723, 7597, 7581, 2710, 7599
6562, 2679, 56, 55, 2272, 2680, 546, 2681, 7632, 2341, 2342
6563, 867, 2697, 48, 2709, 7580, 2698, 7613, 7581, 7582, 2711
6564, 2488, 838, 38, 2482, 7322, 7633, 2490, 7562, 7561, 2483
6565, 1418, 146, 1370, 1755, 7634, 1372, 7564, 7538, 7635, 7563
6566, 2280, 42, 43, 2637, 2312, 533, 2313, 5618, 2639, 2638
6567, 1031, 67, 614, 797, 7636, 615, 7637, 7638, 7000, 7001
6568, 1003, 106, 2868, 5418, 2897, 2894, 2899, 7473, 7267, 6328
6569, 5411, 5412, 5403, 5425, 6577, 6365, 7432, 6264, 5814, 6366
6570, 265, 4182, 1723, 5419, 4193, 4190, 1724, 7384, 7385, 7639
6571, 4803, 1418, 4804, 4806, 5472, 6210, 4850, 4830, 7640, 4851
6572, 557, 836, 2271, 558, 2743, 5968, 2399, 564, 2744, 2390
6573, 866, 46, 47, 2685, 7333, 537, 7535, 6612, 2687, 2686
6574, 273, 4420, 274, 5429, 4421, 4422, 1700, 7401, 7402, 7554
6575, 839, 561, 2278, 2274, 2750, 2406, 5510, 6369, 2403, 2311
6576, 754, 2727, 83, 1061, 2732, 2730, 755, 7551, 6568, 7641
6577, 4095, 5406, 273, 5429, 6234, 6872, 4141, 6525, 6526, 7401
6578, 4456, 1776, 4212, 286, 4464, 4229, 7409, 4462, 1778, 4228
6579, 183, 4990, 184, 3802, 5072, 5074, 1398, 3807, 6134, 3804
6580, 302, 1826, 162, 3676, 1829, 5023, 5021, 7600, 7249, 3678
6581, 4407, 4263, 275, 5429, 7642, 7566, 4409, 7577, 6346, 7553
6582, 2721, 3044, 49, 867, 7598, 7643, 2723, 7597, 7494, 7631
6583, 1618, 118, 3425, 5162, 1619, 3505, 6595, 5169, 5168, 6594
6584, 2292, 43, 44, 2649, 2316, 534, 2315, 6128, 2651, 2650
6585, 2278, 41, 42, 2625, 2309, 532, 2310, 5515, 2627, 2626
6586, 3814, 132, 1580, 1579, 3815, 7644, 7287, 7310, 7013, 1586
6587, 4442, 291, 294, 4215, 4448, 1787, 4447, 7545, 4247, 7544
6588, 1172, 1591, 1216, 1180, 5019, 7468, 7388, 3541, 7464, 5395
6589, 351, 2022, 5202, 5163, 2024, 6630, 5309, 5193, 5192, 6633
6590, 2255, 51, 52, 2727, 2332, 542, 2331, 5993, 2729, 2728
6591, 3239, 1003, 2868, 5418, 3259, 2899, 6709, 6163, 7473, 6328
6592, 797, 3174, 3169, 3173, 5497, 3219, 7645, 7313, 3220, 3216
6593, 40, 41, 2274, 2613, 531, 2308, 2305, 2615, 2614, 6370
6594, 172, 1781, 173, 3736, 5049, 5048, 1343, 3741, 7646, 3738
6595, 4479, 265, 1723, 5419, 4481, 1724, 4482, 7304, 7384, 7639
6596, 2255, 52, 53, 2715, 2331, 543, 2334, 5847, 2717, 2716
6597, 90, 736, 632, 801, 738, 7647, 2552, 6837, 7648, 2589
6598, 628, 72, 798, 787, 2512, 6835, 2601, 7649, 788, 7650
6599, 350, 351, 2018, 5202, 2021, 4674, 2020, 5310, 5309, 7584
6600, 264, 4106, 4006, 5419, 4121, 6646, 7611, 7386, 6058, 6647
6601, 37, 838, 2973, 2482, 7651, 7383, 7453, 2484, 7561, 7038
6602, 739, 89, 2667, 801, 741, 2671, 2672, 7652, 7654, 7653
6603, 2625, 798, 73, 784, 6865, 7624, 2628, 2630, 7655, 785
6604, 1979, 4801, 1419, 337, 4814, 7656, 7657, 1986, 4810, 7658
6605, 965, 3118, 966, 897, 3137, 3138, 972, 2935, 6748, 2932
6606, 225, 224, 203, 190, 1525, 7080, 6821, 6143, 6144, 3895
6607, 2126, 1070, 645, 5237, 7282, 6827, 5165, 5283, 7215, 7142
6608, 2876, 3116, 962, 963, 6243, 3126, 2944, 2945, 3130, 969
6609, 3814, 1580, 132, 1409, 7287, 7644, 3815, 3818, 7659, 1410
6610, 351, 2022, 2018, 5202, 2024, 4673, 4674, 5309, 6630, 7584
6611, 795, 3304, 1044, 1043, 6676, 5939, 7078, 6096, 6880, 1050
6612, 799, 1087, 1060, 1059, 7509, 3391, 6520, 7353, 3392, 1066
6613, 2673, 46, 45, 2288, 2674, 536, 2675, 5962, 2321, 2318
6614, 253, 252, 309, 320, 1649, 7352, 6822, 6824, 7094, 4307
6615, 1799, 161, 134, 303, 7063, 1291, 7625, 1805, 7066, 7660
6616, 264, 4006, 4182, 5419, 7611, 7661, 4187, 7386, 6647, 7385
6617, 2119, 1799, 2131, 1208, 7075, 7307, 5286, 7391, 7662, 5396
6618, 4263, 4097, 4262, 276, 6345, 6335, 4269, 4267, 4147, 4265
6619, 4577, 4573, 4578, 1416, 4617, 4620, 4619, 7470, 5572, 7663
6620, 800, 2727, 84, 754, 7495, 2731, 7664, 7550, 2732, 756
6621, 3736, 1345, 151, 1757, 3739, 1347, 3740, 7665, 7666, 7512
6622, 3700, 156, 1315, 1420, 3701, 1316, 3703, 6784, 7628, 7587
6623, 142, 3790, 1390, 1417, 3794, 3793, 1392, 7667, 7589, 7588
6624, 2667, 57, 56, 2259, 2668, 547, 2669, 6376, 2344, 2345
6625, 964, 3119, 2873, 3115, 3134, 5851, 2936, 3132, 3136, 6397
6626, 1180, 1216, 1172, 1179, 5395, 7388, 3541, 1182, 5400, 3546
6627, 1208, 2131, 2119, 2132, 5396, 5286, 7391, 5398, 2134, 5323
6628, 264, 242, 4006, 4106, 1690, 4015, 7611, 4121, 4117, 6646
6629, 3168, 1031, 3169, 797, 7426, 7147, 3212, 7668, 7638, 7645
6630, 766, 1060, 1059, 799, 7081, 1066, 7083, 7669, 6520, 7353
6631, 98, 882, 65, 60, 889, 2779, 876, 7670, 7671, 2355
6632, 292, 271, 4215, 4441, 1936, 6409, 4251, 4445, 4443, 6410
6633, 2709, 3043, 2697, 1060, 7522, 7208, 7582, 7524, 3071, 7285
6634, 588, 49, 868, 587, 2329, 7672, 2768, 594, 2327, 2777
6635, 867, 587, 868, 49, 2775, 2777, 874, 7631, 2327, 7672
6636, 18, 5224, 5223, 5416, 5256, 5257, 5253, 6515, 7121, 7122
6637, 2733, 50, 3044, 868, 2735, 7673, 7547, 7549, 7674, 6604
6638, 4504, 1566, 1461, 1711, 7306, 4005, 6672, 4526, 4157, 6883
6639, 1949, 1414, 4912, 4914, 7430, 6758, 6473, 6708, 7558, 4957
6640, 614, 68, 2488, 1031, 616, 2492, 2493, 7637, 7429, 7479
6641, 882, 601, 65, 60, 2781, 608, 2779, 7671, 2352, 2355
6642, 1437, 1417, 4699, 4698, 3880, 7424, 4758, 4754, 7489, 4759
6643, 44, 45, 2288, 2661, 535, 2318, 2319, 2663, 2662, 5663
6644, 28, 30, 5205, 5412, 494, 5270, 5267, 7106, 7164, 6480
6645, 3736, 150, 1345, 1757, 3737, 1346, 3739, 7665, 7238, 7666
6646, 1419, 3730, 1340, 1757, 7606, 3733, 7608, 7085, 7513, 7514
6647, 838, 837, 37, 2973, 844, 7463, 7651, 7383, 7336, 7453
6648, 60, 59, 2631, 882, 550, 2633, 2632, 7671, 7676, 7675
6649, 781, 2637, 74, 798, 2642, 2640, 782, 7677, 7415, 7678
6650, 3439, 3438, 17, 5417, 3475, 3474, 3471, 7158, 6729, 6505
6651, 1992, 4854, 1804, 186, 4867, 7159, 4643, 7679, 7445, 7680
6652, 2655, 58, 57, 2258, 2656, 548, 2657, 6668, 2347, 2348
6653, 4419, 1930, 296, 5429, 4427, 1932, 4425, 7681, 7403, 7233
6654, 866, 586, 46, 2288, 2776, 2323, 7333, 6025, 2324, 2321
6655, 1822, 4408, 300, 4263, 4416, 4414, 1824, 4273, 7400, 4274
6656, 2697, 48, 47, 867, 2698, 538, 2699, 7580, 7613, 7595
6657, 39, 40, 2274, 2607, 530, 2305, 2306, 2609, 2608, 7053
6658, 1413, 355, 335, 4909, 7682, 4681, 7243, 7605, 4921, 7354
6659, 1436, 4573, 4572, 1416, 5570, 4610, 7683, 3876, 5572, 7469
6660, 204, 224, 223, 190, 7079, 1521, 7096, 3896, 6144, 6131
6661, 1125, 94, 1070, 3241, 7684, 7685, 3397, 3255, 5869, 6316
6662, 1192, 1418, 1370, 5407, 3861, 7564, 7498, 5958, 5959, 7499
6663, 2872, 3170, 976, 5439, 7261, 3187, 2921, 7367, 7263, 7197
6664, 309, 252, 251, 321, 7352, 1645, 7419, 4308, 7095, 7099
6665, 2870, 798, 896, 2871, 7183, 2805, 2926, 2931, 6925, 2930
6666, 69, 93, 112, 1070, 726, 7491, 7686, 7520, 7281, 1076
6667, 293, 268, 4455, 4212, 1937, 4457, 4460, 4252, 6383, 6384
6668, 1187, 1948, 1414, 1212, 6752, 6753, 3851, 3674, 6334, 7687
6669, 5404, 5423, 5413, 5430, 7137, 7072, 6764, 7493, 6950, 6302
6670, 127, 3427, 128, 5409, 3530, 3529, 1167, 7552, 6113, 7008
6671, 1927, 4407, 274, 5429, 4411, 4410, 1928, 7688, 7577, 7554
6672, 19, 5417, 3438, 5431, 5876, 6729, 3473, 5878, 5879, 6959
6673, 235, 1562, 3991, 193, 1563, 3998, 3999, 7275, 1564, 3997
6674, 223, 1518, 224, 204, 3957, 1519, 1521, 7096, 1520, 7079
6675, 228, 1538, 229, 199, 3972, 1539, 1541, 7160, 1540, 7101
6676, 1522, 225, 224, 203, 1523, 1525, 3960, 1524, 6821, 7080
6677, 214, 1494, 208, 209, 1495, 3943, 5461, 5463, 1496, 1481
6678, 326, 248, 1872, 325, 5465, 1873, 1874, 1859, 5464, 4345
6679, 230, 229, 1542, 198, 1545, 3975, 1543, 6859, 7100, 1544
6680, 257, 258, 1908, 315, 1669, 1909, 4373, 7103, 6861, 1910
6681, 234, 233, 1558, 194, 1561, 3987, 1559, 7519, 7049, 1560
6682, 1920, 261, 262, 311, 4385, 1685, 1921, 1922, 7050, 7516
6683, 1890, 251, 252, 321, 4355, 1645, 1891, 1892, 7099, 7095
6684, 223, 222, 1514, 205, 1517, 3954, 1515, 7097, 7180, 1516
6685, 250, 251, 1887, 322, 1641, 1888, 4352, 7181, 7098, 1889
6686, 1905, 256, 257, 316, 4370, 1665, 1906, 1907, 7182, 7102
6687, 252, 253, 1893, 320, 1649, 1894, 4358, 7094, 6824, 1895
6688, 260, 261, 1917, 312, 1681, 1918, 4382, 7178, 7051, 1919
6689, 233, 232, 1554, 195, 1557, 3984, 1555, 7048, 7179, 1556
6690, 1941, 4478, 282, 5419, 4487, 4485, 1943, 7303, 7689, 7140
6691, 1923, 263, 4392, 310, 1924, 4394, 4395, 1925, 7690, 4402
6692, 2667, 88, 739, 801, 2670, 740, 2672, 7653, 7691, 7652
6693, 74, 798, 2625, 784, 7678, 6865, 2629, 786, 7655, 2630
6694, 2619, 92, 112, 2631, 2622, 7692, 7156, 7693, 2635, 7694
6695, 1546, 231, 230, 197, 1547, 1549, 3978, 1548, 6124, 6858
6696, 1042, 3004, 1043, 647, 3033, 3032, 1049, 7695, 6843, 7696
6697, 798, 2637, 74, 2625, 7415, 2640, 7678, 6865, 5795, 2629
6698, 258, 259, 1911, 314, 1673, 1912, 4376, 6862, 6138, 1913
6699, 48, 49, 867, 2709, 539, 7631, 7613, 2711, 2710, 7581
6700, 4442, 1767, 291, 4215, 4449, 1768, 4448, 7545, 4248, 4247
6701, 2032, 355, 1413, 4909, 2038, 7682, 7697, 4923, 4921, 7605
6702, 1060, 2697, 80, 766, 7285, 2701, 7574, 7081, 2702, 768
6703, 1927, 274, 4420, 5429, 1928, 4422, 4424, 7688, 7554, 7402
6704, 226, 225, 1526, 202, 1529, 3963, 1527, 6027, 6820, 1528
6705, 254, 1896, 253, 319, 1897, 4361, 1653, 7351, 1898, 6823
6706, 3444, 19, 3438, 5431, 3477, 3473, 3478, 6960, 5878, 6959
6707, 4215, 291, 294, 5406, 4247, 1787, 7544, 6896, 7571, 7224
6708, 1755, 1418, 1360, 1756, 7538, 7698, 7165, 1762, 5673, 7219
6709, 4573, 1436, 4572, 1963, 5570, 7683, 4610, 4606, 4747, 4608
6710, 4703, 2045, 2046, 4807, 4776, 2052, 4777, 7088, 4815, 4831
6711, 24, 26, 5236, 5412, 476, 5265, 5264, 7241, 7105, 5490
6712, 1075, 94, 1130, 3240, 7699, 7700, 3398, 6954, 6120, 3256
6713, 2721, 81, 760, 1060, 2724, 761, 2726, 7629, 7701, 7398
6714, 1014, 892, 108, 3300, 2902, 2901, 1020, 3310, 5613, 3308
6715, 799, 1059, 78, 772, 7353, 7407, 7702, 7703, 7406, 774
6716, 1360, 147, 1418, 1755, 1361, 7704, 7698, 7165, 7166, 7538
6717, 343, 4660, 342, 5411, 4665, 4664, 2006, 7614, 6578, 7596
6718, 94, 69, 112, 1070, 7705, 7686, 7706, 7685, 7520, 1076
6719, 4699, 1966, 4574, 1965, 4774, 4589, 6226, 4757, 1972, 4614
6720, 123, 124, 3925, 5413, 1163, 3927, 3926, 7488, 7604, 6763
6721, 3169, 3168, 797, 3173, 3212, 7668, 7645, 3216, 3215, 7313
6722, 51, 50, 2733, 868, 541, 2735, 2734, 7505, 7674, 7549
6723, 138, 1580, 3814, 1409, 7540, 7287, 3819, 1411, 7659, 3818
6724, 1061, 2727, 83, 2733, 6568, 2730, 7641, 7559, 7548, 2737
6725, 310, 1920, 262, 311, 4390, 1921, 7517, 1844, 1922, 7516
6726, 193, 234, 1558, 194, 7518, 1559, 3988, 1466, 7519, 1560
6727, 2482, 1031, 66, 610, 7586, 7707, 2485, 2487, 7708, 611
6728, 83, 757, 1061, 2733, 759, 7709, 7641, 2737, 2738, 7559
6729, 838, 38, 39, 2488, 7633, 529, 7530, 7322, 2490, 2489
6730, 341, 4653, 340, 5231, 4656, 4658, 2002, 5287, 6677, 5288
6731, 3918, 125, 126, 3448, 3920, 1165, 3919, 6742, 3523, 3524
6732, 117, 794, 1139, 3300, 7710, 7711, 1145, 3309, 5722, 3312
6733, 1941, 282, 5405, 5419, 1943, 7139, 6359, 7303, 7140, 6057
6734, 3044, 49, 50, 2721, 7643, 540, 7673, 7598, 2723, 2722
6735, 4860, 1987, 1799, 186, 4866, 4642, 6735, 5906, 7713, 7712
6736, 240, 4183, 1599, 4006, 4185, 4186, 1600, 4024, 7592, 4025
6737, 1061, 757, 82, 2733, 7709, 758, 7487, 7559, 2738, 2736
6738, 1088, 800, 113, 3113, 7714, 7715, 1095, 3129, 7521, 3122
6739, 2274, 39, 838, 560, 2306, 7530, 7428, 2307, 2304, 2747
6740, 1530, 227, 226, 201, 1531, 1533, 3966, 1532, 6161, 6028
6741, 1899, 254, 255, 318, 4364, 1657, 1900, 1901, 7350, 6158
6742, 2871, 3172, 979, 980, 5744, 3197, 2929, 2953, 3198, 986
6743, 303, 134, 1799, 186, 7660, 7625, 1805, 7716, 7717, 7712
6744, 3111, 1059, 3112, 799, 7198, 7189, 3155, 7601, 7353, 6303
6745, 4107, 1709, 4493, 1710, 4162, 4518, 6479, 4164, 1716, 4517
6746, 623, 646, 110, 794, 2557, 6614, 7167, 2592, 7265, 7035
6747, 117, 110, 794, 3300, 3367, 7035, 7710, 3309, 7172, 5722
6748, 1414, 1949, 1948, 4914, 7430, 1955, 6753, 7558, 6708, 7371
6749, 2047, 2046, 4800, 4702, 2053, 4832, 4833, 4764, 4779, 5698
6750, 122, 3453, 123, 5427, 3514, 3515, 1162, 7616, 6141, 7362
6751, 797, 1099, 1100, 1030, 7718, 1106, 7719, 7720, 3360, 3361
6752, 1418, 147, 1365, 1755, 7704, 1367, 7721, 7538, 7166, 7305
6753, 3115, 2873, 964, 963, 6397, 2936, 3132, 3131, 2947, 970
6754, 3454, 15, 13, 5417, 3468, 432, 3467, 6570, 6506, 6703
6755, 1756, 4803, 1755, 1418, 5672, 7527, 1762, 5673, 5472, 7538
6756, 343, 342, 5207, 5411, 2006, 5297, 5298, 7614, 7596, 5758
6757, 61, 98, 60, 2619, 7435, 7670, 551, 2620, 6994, 2621
6758, 1002, 3239, 1003, 2868, 3258, 3259, 1009, 2909, 6709, 2899
6759, 5423, 5430, 5404, 5431, 6950, 7493, 7137, 7590, 7284, 6637
6760, 4696, 4853, 2072, 2073, 6009, 4885, 4737, 4727, 4886, 2079
6761, 1350, 1756, 149, 1193, 7478, 7626, 1351, 7239, 6688, 3651
6762, 1930, 5406, 296, 5429, 6870, 7232, 1932, 7403, 6526, 7233
6763, 1100, 1031, 797, 1030, 3362, 7638, 7719, 3361, 1037, 7720
6764, 4097, 277, 4262, 276, 4148, 4266, 6335, 4147, 1703, 4265
6765, 838, 37, 38, 2482, 7651, 528, 7633, 7561, 2484, 2483
6766, 306, 275, 4407, 4263, 1926, 4409, 4412, 4292, 7566, 7642
6767, 282, 284, 4467, 5405, 1746, 4474, 4473, 7139, 7109, 7565
6768, 152, 1194, 1335, 1419, 3658, 7620, 1336, 7607, 3863, 7722
6769, 113, 1061, 800, 1088, 3380, 6642, 7715, 1095, 3384, 7714
6770, 4575, 4572, 1416, 1436, 4613, 7469, 5538, 5508, 7683, 3876
6771, 1004, 3246, 1005, 2867, 3264, 3265, 1011, 2900, 5859, 2941
6772, 121, 120, 3430, 5427, 1160, 3510, 3511, 7723, 7572, 7299
6773, 28, 5205, 26, 5412, 5267, 5268, 485, 7106, 6480, 7105
6774, 360, 361, 5213, 5414, 2102, 5306, 5318, 7560, 7458, 6204
6775, 123, 3447, 124, 5413, 3518, 3517, 1163, 7488, 6361, 7604
6776, 892, 794, 108, 3300, 2796, 7476, 2901, 5613, 5722, 3308
6777, 1099, 1100, 3168, 797, 1106, 3207, 3208, 7718, 7719, 7668
6778, 294, 296, 4430, 5406, 1790, 4437, 4436, 7224, 7232, 7585
6779, 727, 92, 112, 2619, 728, 7692, 7724, 2624, 2622, 7156
6780, 588, 49, 50, 868, 2329, 540, 2328, 2768, 7672, 7674
6781, 800, 111, 113, 3113, 7162, 3381, 7715, 7521, 7194, 3122
6782, 335, 1413, 4505, 1947, 7243, 7461, 4513, 1953, 7462, 4515
6783, 2074, 2075, 4694, 4855, 2081, 4770, 4728, 4891, 4892, 5901
6784, 1018, 1019, 2874, 3298, 1025, 2970, 2963, 3324, 3325, 6236
6785, 126, 3435, 127, 5409, 3526, 3527, 1166, 7497, 5608, 7552
6786, 4579, 4576, 4577, 1416, 4603, 4623, 4624, 7725, 7567, 7470
6787, 1502, 220, 214, 208, 1503, 1505, 3945, 1504, 5649, 5461
6788, 248, 247, 1878, 325, 1626, 1879, 4343, 5464, 5651, 1880
6789, 1192, 146, 1370, 1418, 3644, 1372, 7498, 3861, 7634, 7564
6790, 70, 92, 727, 723, 2509, 728, 7726, 2504, 724, 2562
6791, 629, 772, 78, 678, 7727, 774, 2525, 2524, 2577, 680
6792, 736, 714, 90, 632, 2565, 716, 738, 7647, 2551, 2552
6793, 784, 666, 74, 628, 2581, 668, 786, 7728, 2515, 2516
6794, 699, 84, 631, 751, 700, 2539, 2540, 2570, 752, 7729
6795, 702, 86, 748, 631, 704, 750, 2569, 2542, 2543, 6388
6796, 72, 628, 663, 787, 2512, 2513, 664, 788, 7649, 2582
6797, 739, 632, 88, 711, 7730, 2548, 740, 2566, 2549, 712
6798, 675, 76, 629, 775, 676, 2521, 2522, 2578, 776, 7330
6799, 690, 82, 760, 630, 692, 762, 2573, 2533, 2534, 7399
6800, 687, 80, 630, 763, 688, 2530, 2531, 2574, 764, 7575
6801, 610, 618, 67, 627, 2494, 620, 612, 7731, 2496, 2497
6802, 110, 1139, 794, 1042, 3368, 7711, 7035, 1048, 3369, 7033
6803, 5234, 5203, 354, 5434, 5317, 5316, 5300, 7532, 7412, 7732
6804, 614, 2488, 67, 1031, 2493, 2491, 615, 7637, 7479, 7636
6805, 300, 4263, 4408, 5429, 4274, 7400, 4414, 7061, 6346, 7733
6806, 3748, 1756, 148, 1355, 7734, 7437, 3749, 3751, 7439, 1356
6807, 2482, 67, 1031, 610, 2486, 7636, 7586, 2487, 612, 7708
6808, 1732, 1579, 1416, 1731, 4205, 7735, 7736, 1738, 4202, 7737
6809, 163, 302, 3676, 303, 5022, 7600, 3681, 7065, 1798, 7450
6810, 149, 1756, 3748, 1355, 7626, 7734, 3752, 1357, 7439, 3751
6811, 160, 135, 1292, 186, 3617, 7618, 1293, 6467, 3843, 7738
6812, 1409, 138, 1416, 1190, 1411, 6464, 7739, 7617, 3626, 3855
6813, 837, 838, 37, 559, 844, 7651, 7463, 2748, 2746, 2303
6814, 264, 241, 4182, 4006, 1722, 4188, 4187, 7611, 4026, 7661
6815, 1292, 303, 160, 186, 7583, 7451, 1293, 7738, 7716, 6467
6816, 838, 559, 560, 37, 2746, 566, 2747, 7651, 2303, 2301
6817, 4918, 2089, 2088, 4700, 4952, 2095, 4951, 6805, 4798, 4791
6818, 1059, 78, 769, 799, 7407, 770, 7533, 7353, 7702, 7740
6819, 138, 1416, 1580, 1409, 6464, 7539, 7540, 1411, 7739, 7659
6820, 360, 5212, 340, 5414, 5290, 5289, 2100, 7560, 6368, 7536
6821, 112, 1125, 94, 1070, 3396, 7684, 7706, 1076, 3397, 7685
6822, 116, 1075, 94, 1130, 3394, 7699, 7341, 1137, 3398, 7700
6823, 4183, 4006, 240, 5419, 7592, 4024, 4185, 7741, 6647, 7286
6824, 341, 5218, 342, 5411, 5294, 5295, 2004, 7506, 5644, 7596
6825, 2697, 80, 2709, 1060, 2701, 2712, 7582, 7285, 7574, 7524
6826, 337, 1757, 1419, 1979, 4625, 7085, 7658, 1986, 4629, 7657
6827, 124, 3446, 125, 5413, 3521, 3520, 1164, 7604, 6301, 7486
6828, 2709, 81, 2721, 1060, 2713, 2724, 7599, 7524, 7701, 7629
6829, 1059, 79, 766, 799, 7531, 767, 7083, 7353, 7742, 7669
6830, 1755, 1418, 4803, 4806, 7538, 5472, 7527, 7570, 7640, 4830
6831, 25, 3422, 27, 5423, 3486, 3485, 486, 7579, 6750, 7220
6832, 868, 2255, 51, 588, 5995, 2332, 7505, 2768, 2333, 2330
6833, 1340, 151, 1419, 1757, 1341, 7743, 7608, 7514, 7512, 7085
6834, 1732, 4579, 1731, 1416, 4596, 4597, 1738, 7736, 7725, 7737
6835, 80, 2709, 1060, 763, 2712, 7524, 7574, 764, 2714, 7576
6836, 131, 185, 1592, 3814, 1408, 5018, 5017, 3816, 3817, 7289
6837, 1060, 2709, 81, 763, 7524, 2713, 7701, 7576, 2714, 765
6838, 4854, 1992, 338, 186, 4867, 1999, 4863, 7445, 7679, 7365
6839, 1031, 2488, 67, 2482, 7479, 2491, 7636, 7586, 7562, 2486
6840, 338, 1992, 1804, 186, 1999, 4643, 4639, 7365, 7679, 7680
6841, 1061, 113, 800, 111, 3380, 7715, 6642, 1068, 3381, 7162
6842, 977, 3176, 976, 3175, 5493, 3190, 983, 3189, 3192, 3188
6843, 275, 4097, 4263, 276, 4145, 6345, 7566, 1702, 4147, 4267
6844, 354, 343, 5234, 5434, 2031, 5301, 5300, 7732, 7615, 7532
6845, 121, 3430, 122, 5427, 3511, 3513, 1161, 7723, 7299, 7616
6846, 1923, 1920, 262, 310, 4389, 1921, 4388, 1925, 4390, 7517
6847, 234, 1558, 1562, 193, 1559, 3989, 3990, 7518, 3988, 1564
6848, 586, 46, 47, 866, 2323, 537, 2322, 2776, 7333, 7535
6849, 1579, 1732, 1416, 1580, 4205, 7736, 7735, 1586, 4204, 7539
6850, 303, 1987, 186, 1799, 4641, 7713, 7716, 1805, 4642, 7712
6851, 1139, 110, 794, 117, 3368, 7035, 7711, 1145, 3367, 7710
6852, 769, 79, 1059, 799, 771, 7531, 7533, 7740, 7742, 7353
6853, 1987, 303, 186, 338, 4641, 7716, 7713, 1993, 4640, 7365
6854, 4408, 1927, 298, 5429, 4415, 1929, 4413, 7733, 7688, 7408
6855, 279, 1723, 4183, 5419, 1725, 4192, 4184, 7373, 7639, 7741
6856, 1987, 4860, 338, 186, 4866, 4865, 1993, 7713, 5906, 7365
6857, 1757, 337, 1419, 289, 4625, 7658, 7085, 1764, 4626, 7744
6858, 4183, 240, 279, 5419, 4185, 1726, 4184, 7741, 7286, 7373
6859, 601, 2258, 59, 882, 2353, 2350, 2351, 2781, 7316, 7676
6860, 1191, 141, 1395, 1417, 3633, 1397, 7526, 3858, 7344, 7345
6861, 1310, 157, 1195, 1420, 1311, 3669, 7525, 7346, 7347, 3847
6862, 630, 760, 81, 1060, 7399, 761, 2532, 6519, 7398, 7701
6863, 1100, 1031, 3168, 797, 3362, 7426, 3207, 7719, 7638, 7668
6864, 116, 94, 1125, 3241, 7341, 7684, 1131, 3252, 5869, 3255
6865, 1414, 1949, 1212, 1948, 7430, 7630, 7687, 6753, 1955, 6334
6866, 17, 3438, 19, 5417, 3474, 3473, 450, 6505, 6729, 5876
6867, 1125, 112, 94, 116, 3396, 7706, 7684, 1131, 3395, 7341
6868, 335, 2032, 1413, 1947, 4682, 7697, 7243, 1953, 4683, 7462
6869, 298, 1927, 4419, 5429, 1929, 4428, 4426, 7408, 7688, 7681
6870, 4478, 1723, 279, 5419, 4486, 1725, 4484, 7689, 7639, 7373
6871, 335, 2032, 355, 1413, 4682, 2038, 4681, 7243, 7697, 7682
6872, 1315, 156, 1195, 1420, 1316, 3667, 7621, 7587, 7628, 3847
6873, 1191, 142, 1390, 1417, 3635, 1392, 7619, 3858, 7667, 7588
6874, 1001, 99, 107, 3241, 2879, 2878, 1007, 3253, 5733, 3251
6875, 1075, 116, 94, 112, 3394, 7341, 7699, 1082, 3395, 7706
6876, 303, 338, 1804, 186, 4640, 4639, 1811, 7716, 7365, 7680
6877, 751, 84, 631, 800, 752, 2539, 7729, 7745, 7664, 2605
6878, 3177, 1099, 3168, 797, 3204, 3208, 3209, 7312, 7718, 7668
6879, 21, 3444, 3443, 5431, 3476, 3481, 3479, 6221, 6960, 7309
6880, 797, 1031, 67, 610, 7638, 7636, 7000, 7746, 7708, 612
6881, 298, 300, 4408, 5429, 1796, 4414, 4413, 7408, 7061, 7733
6882, 1436, 4575, 4572, 1964, 5508, 4613, 7683, 4753, 4611, 4609
6883, 797, 3177, 1099, 1030, 7312, 3204, 7718, 7720, 7225, 3360
6884, 5223, 16, 18, 5416, 5252, 440, 5253, 7122, 6514, 6515
6885, 1566, 4504, 1712, 1711, 7306, 4525, 4114, 4157, 4526, 1718
6886, 4419, 296, 298, 5429, 4425, 1793, 4426, 7681, 7233, 7408
6887, 610, 67, 797, 627, 612, 7000, 7746, 7731, 2497, 2598
6888, 303, 3676, 161, 1292, 7450, 3680, 7066, 7583, 3679, 1294
6889, 772, 78, 799, 629, 774, 7702, 7703, 7727, 2525, 2602
6890, 59, 60, 601, 882, 550, 2352, 2351, 7676, 7671, 2781
6891, 4478, 279, 282, 5419, 4484, 1743, 4485, 7689, 7373, 7140
6892, 1770, 270, 4215, 271, 1772, 4224, 4223, 4453, 1697, 6409
6893, 83, 800, 754, 1061, 7747, 7550, 755, 7641, 6642, 7551
6894, 94, 116, 1130, 3240, 7341, 1137, 7700, 6120, 3250, 3256
6895, 3168, 3177, 797, 3173, 3209, 7312, 7668, 3215, 3217, 7313
6896, 15, 3439, 17, 5417, 3470, 3471, 441, 6506, 7158, 6505
6897, 1416, 1732, 4579, 1580, 7736, 4596, 7725, 7539, 4204, 7748
6898, 92, 94, 70, 727, 7114, 2585, 2509, 728, 7749, 7726
6899, 162, 163, 302, 3676, 1295, 5022, 5021, 3678, 3681, 7600
6900, 727, 112, 93, 2619, 7724, 7491, 729, 2624, 7156, 2623
6901, 1355, 149, 1756, 1193, 1357, 7626, 7439, 7438, 3651, 6688
6902, 1416, 4578, 1731, 1579, 7663, 4593, 7737, 7735, 7447, 4202
6903, 94, 107, 99, 3241, 7342, 2878, 890, 5869, 3251, 5733
6904, 112, 94, 92, 727, 7706, 7114, 7692, 7724, 7749, 728
6905, 1731, 4579, 4578, 1416, 4597, 4598, 4593, 7737, 7725, 7663
6906, 244, 190, 243, 1610, 4034, 4033, 1607, 4035, 1611, 5541
6907, 628, 798, 73, 787, 2601, 7624, 2514, 7649, 7650, 789
6908, 632, 736, 89, 801, 7647, 737, 2550, 2589, 7648, 7654
6909, 4577, 4578, 4579, 1416, 4619, 4598, 4624, 7470, 7663, 7725
6910, 739, 88, 632, 801, 740, 2548, 7730, 7652, 7691, 2589
6911, 784, 74, 798, 628, 786, 7678, 7655, 7728, 2516, 2601
6912, 269, 4212, 268, 1773, 4221, 6383, 1695, 1774, 4220, 4454
6913, 1602, 264, 242, 4006, 4181, 1690, 1604, 4027, 7611, 4015
6914, 81, 630, 1060, 763, 2532, 6519, 7701, 765, 7575, 7576
6915, 1315, 1195, 157, 1420, 7621, 3669, 1317, 7587, 3847, 7347
6916, 1191, 1390, 141, 1417, 7619, 1391, 3633, 3858, 7588, 7344
6917, 51, 50, 868, 588, 541, 7674, 7505, 2330, 2328, 2768
6918, 3175, 3174, 978, 895, 3196, 3194, 3193, 5495, 5496, 2925
6919, 838, 39, 38, 560, 7530, 529, 7633, 2747, 2304, 2300
6920, 838, 38, 37, 560, 7633, 528, 7651, 2747, 2300, 2301
6921, 235, 234, 1562, 193, 1565, 3990, 1563, 7275, 7518, 1564
6922, 19, 3444, 21, 5431, 3477, 3476, 459, 5878, 6960, 6221
6923, 263, 1923, 262, 310, 1924, 4388, 1689, 7690, 1925, 7517
6924, 23, 21, 3443, 5431, 468, 3479, 3480, 6220, 6221, 7309
6925, 134, 303, 1292, 186, 7660, 7583, 7750, 7717, 7716, 7738
6926, 65, 61, 98, 60, 2354, 7435, 876, 2355, 551, 7670
6927, 161, 134, 303, 1292, 1291, 7660, 7066, 1294, 7750, 7583
6928, 739, 632, 89, 801, 7730, 2550, 741, 7652, 2589, 7654
6929, 784, 798, 73, 628, 7655, 7624, 785, 7728, 2601, 2514
6930, 48, 49, 587, 867, 539, 2327, 2326, 7613, 7631, 2775
6931, 94, 112, 69, 727, 7706, 7686, 7705, 7749, 7724, 7751
6932, 4263, 1819, 275, 276, 4268, 4406, 7566, 4267, 1820, 1702
6933, 1409, 1416, 133, 1190, 7739, 7752, 7753, 7617, 3855, 3608
6934, 1292, 135, 134, 186, 7618, 1184, 7750, 7738, 3843, 7717
6935, 797, 71, 610, 627, 7754, 7755, 7746, 2598, 2510, 7731
6936, 69, 112, 93, 727, 7686, 7491, 726, 7751, 7724, 729
6937, 94, 69, 70, 727, 7705, 621, 2585, 7749, 7751, 7726
6938, 1243, 1370, 145, 1192, 3834, 1371, 1244, 3643, 7498, 3642
6939, 141, 1231, 1390, 1191, 1232, 3838, 1391, 3633, 3634, 7619
6940, 1310, 1195, 157, 1279, 7525, 3669, 1311, 3822, 3670, 1280
6941, 1267, 1330, 153, 1194, 3826, 1331, 1268, 3661, 7144, 3660
6942, 1264, 1194, 153, 1335, 3659, 3660, 1266, 3827, 7620, 1337
6943, 141, 1395, 1228, 1191, 1397, 3839, 1230, 3633, 7526, 3632
6944, 1276, 1195, 157, 1315, 3668, 3669, 1278, 3823, 7621, 1317
6945, 1375, 1240, 145, 1192, 3835, 1242, 1377, 7110, 3641, 3642
6946, 1255, 1350, 149, 1193, 3830, 1351, 1256, 3652, 7239, 3651
6947, 1252, 149, 1355, 1193, 1254, 1357, 3831, 3650, 3651, 7438
6948, 977, 3175, 978, 895, 3189, 3193, 984, 2919, 5495, 2925
6949, 1436, 1963, 1964, 4572, 4747, 1970, 4753, 7683, 4608, 4609
6950, 629, 77, 772, 678, 2523, 773, 7727, 2524, 679, 2577
6951, 784, 73, 666, 628, 785, 667, 2581, 7728, 2514, 2515
6952, 89, 714, 736, 632, 715, 2565, 737, 2550, 2551, 7647
6953, 702, 748, 85, 631, 2569, 749, 703, 2542, 6388, 2541
6954, 699, 631, 85, 751, 2540, 2541, 701, 2570, 7729, 753
6955, 663, 628, 73, 787, 2513, 2514, 665, 2582, 7649, 789
6956, 89, 632, 739, 711, 2550, 7730, 741, 713, 2549, 2566
6957, 690, 760, 81, 630, 2573, 761, 691, 2533, 7399, 2532
6958, 675, 629, 77, 775, 2522, 2523, 677, 2578, 7330, 777
6959, 630, 81, 687, 763, 2532, 689, 2531, 7575, 765, 2574
6960, 133, 1219, 1409, 1190, 3607, 3842, 7753, 3608, 3610, 7617
6961, 1288, 135, 134, 1292, 3613, 1184, 3612, 3675, 7618, 7750
6962, 71, 618, 610, 627, 2495, 2494, 7755, 2510, 2496, 7731
6963, 727, 69, 70, 723, 7751, 621, 7726, 2562, 2503, 2504
6964, 134, 161, 1288, 1292, 1291, 1290, 3612, 7750, 1294, 3675
6965, 1219, 132, 133, 1409, 1220, 1178, 3607, 3842, 1410, 7753
6966, 66, 71, 618, 610, 656, 2495, 619, 611, 7755, 2494
6967, 93, 69, 727, 723, 726, 7751, 729, 725, 2503, 2562
6968, 1412, 186, 4860, 1799, 1421, 5906, 5907, 6736, 7712, 6735
6969, 3682, 160, 162, 3676, 3686, 1296, 3687, 7250, 3677, 3678
6970, 733, 91, 632, 717, 735, 2506, 5840, 2564, 719, 2553
6971, 57, 89, 2655, 2667, 821, 2658, 2657, 2668, 2671, 6374
6972, 143, 1380, 1192, 1237, 1381, 5449, 3638, 1238, 3836, 3639
6973, 793, 94, 3241, 1070, 802, 5869, 5870, 6317, 7685, 6316
6974, 93, 61, 2619, 5237, 815, 2620, 2623, 5279, 5280, 6996
6975, 81, 49, 2709, 2721, 830, 2710, 2713, 2724, 2723, 7599
6976, 3455, 66, 37, 2482, 3499, 609, 3500, 7040, 2485, 2484
6977, 72, 40, 2607, 2613, 812, 2608, 2611, 2616, 2615, 7052
6978, 74, 42, 2625, 2637, 816, 2626, 2629, 2640, 2639, 5795
6979, 1579, 133, 1216, 1180, 7602, 1218, 7467, 7015, 1183, 5395
6980, 67, 38, 2482, 2488, 613, 2483, 2486, 2491, 2490, 7562
6981, 143, 1417, 1191, 1192, 7756, 3858, 3637, 3638, 3859, 1203
6982, 1566, 236, 1712, 3992, 1568, 4113, 4114, 4001, 4002, 6971
6983, 1190, 1405, 139, 1222, 5444, 1407, 3628, 3627, 3841, 1224
6984, 134, 1208, 2131, 1799, 1209, 5396, 2133, 7625, 7662, 7307
6985, 1325, 155, 1194, 1270, 1327, 3664, 5448, 3825, 1272, 3663
6986, 1418, 1439, 1419, 4801, 3882, 3881, 1428, 5471, 5735, 7656
6987, 135, 1300, 159, 186, 5445, 1301, 3615, 3843, 6466, 7757
6988, 627, 614, 68, 657, 5854, 616, 2499, 2498, 2584, 659
6989, 799, 79, 630, 629, 7742, 2528, 2603, 2602, 2527, 641
6990, 1300, 135, 159, 1285, 5445, 3615, 1301, 3820, 3616, 1286
6991, 1414, 1188, 1187, 1212, 3852, 1199, 3851, 7687, 3624, 3674
6992, 1462, 193, 1453, 3991, 1465, 3905, 3906, 3996, 3997, 7273
6993, 346, 361, 360, 345, 2101, 2102, 4906, 2012, 4907, 7610
6994, 186, 159, 135, 1195, 7757, 3615, 3843, 3845, 3614, 1207
6995, 2126, 1070, 69, 645, 7282, 7520, 2128, 5165, 6827, 650
6996, 730, 70, 91, 720, 5839, 2507, 731, 2563, 2508, 721
6997, 70, 730, 91, 94, 5839, 731, 2507, 2585, 7113, 7758
6998, 94, 91, 70, 632, 7758, 2507, 2585, 2587, 2506, 644
6999, 87, 801, 631, 632, 7759, 2606, 2545, 2546, 2589, 643
7000, 87, 631, 745, 705, 2545, 5842, 747, 707, 2544, 2568
7001, 53, 85, 2703, 2715, 829, 2706, 2705, 2716, 2719, 5811
7002, 51, 83, 2727, 2733, 833, 2730, 2729, 2734, 2737, 7548
7003, 1015, 3305, 892, 3300, 6786, 5720, 2912, 3314, 3330, 5613
7004, 80, 48, 2697, 2709, 828, 2698, 2701, 2712, 2711, 7582
7005, 3114, 897, 799, 898, 6747, 2808, 6305, 5567, 907, 2807
7006, 3114, 800, 898, 799, 7760, 2806, 5567, 6305, 809, 2807
7007, 78, 46, 2673, 2685, 824, 2674, 2677, 2688, 2687, 6608
7008, 629, 75, 778, 672, 2519, 779, 5843, 2520, 673, 2579
7009, 798, 75, 629, 628, 7761, 2519, 2600, 2601, 2518, 640
7010, 68, 790, 628, 660, 791, 5841, 2500, 661, 2583, 2501
7011, 614, 627, 68, 797, 5854, 2499, 616, 7001, 2598, 7762
7012, 649, 71, 1154, 1030, 655, 1157, 5166, 7134, 7477, 7210
7013, 1433, 1434, 1414, 2085, 1443, 3872, 3870, 4740, 4739, 7763
7014, 73, 41, 2613, 2625, 813, 2614, 2617, 2628, 2627, 5702
7015, 79, 47, 2685, 2697, 826, 2686, 2689, 2700, 2699, 7471
7016, 1420, 155, 1195, 1194, 7764, 3665, 3847, 3864, 3664, 1206
7017, 797, 798, 3169, 3174, 807, 5458, 7645, 5497, 5459, 3219
7018, 2085, 1413, 1414, 1433, 7765, 1423, 7763, 4740, 3871, 3870
7019, 3114, 897, 898, 966, 6747, 907, 5567, 3140, 2932, 2933
7020, 68, 797, 627, 628, 7762, 2598, 2499, 2500, 2599, 639
7021, 1418, 147, 1193, 1192, 7704, 3647, 3860, 3861, 3646, 1204
7022, 77, 45, 2661, 2673, 822, 2662, 2665, 2676, 2675, 5964
7023, 94, 801, 3240, 1075, 811, 6119, 6120, 7699, 6955, 6954
7024, 1419, 151, 1194, 1193, 7743, 3656, 3863, 3862, 3655, 1205
7025, 218, 120, 217, 1615, 1621, 4044, 1499, 4043, 4042, 7766
7026, 1195, 1305, 159, 1282, 5446, 1307, 3614, 3672, 3821, 1284
7027, 60, 92, 2619, 2631, 814, 2622, 2621, 2632, 2635, 7693
7028, 331, 352, 2018, 332, 2025, 4676, 4675, 1868, 4677, 7767
7029, 1418, 1419, 1756, 4801, 1428, 6687, 5673, 5471, 7656, 5674
7030, 800, 83, 631, 630, 7747, 2537, 2605, 2604, 2536, 642
7031, 3305, 892, 794, 795, 5720, 2796, 5721, 6674, 2797, 804
7032, 68, 39, 2488, 2607, 617, 2489, 2492, 2610, 2609, 7321
7033, 139, 1400, 1191, 1225, 1401, 5447, 3629, 1226, 3840, 3630
7034, 4575, 1416, 4576, 1417, 5538, 7567, 4622, 5509, 1426, 7768
7035, 1419, 1439, 1420, 5408, 3881, 3883, 1429, 6147, 7769, 6146
7036, 1948, 1413, 4917, 1947, 6754, 7770, 7421, 1954, 7462, 7404
7037, 2032, 4917, 1413, 1947, 4928, 7770, 7697, 4683, 7404, 7462
7038, 2032, 1413, 4917, 4909, 7697, 7770, 4928, 4923, 7605, 4929
7039, 151, 1340, 1194, 1261, 1341, 7771, 3656, 1262, 3828, 3657
7040, 151, 1194, 1340, 1419, 3656, 7771, 1341, 7743, 3863, 7608
7041, 152, 1194, 1340, 1261, 3658, 7771, 1342, 1263, 3657, 3828
7042, 152, 1340, 1194, 1419, 1342, 7771, 3658, 7607, 7608, 3863
7043, 147, 1365, 1192, 1418, 1367, 7772, 3646, 7704, 7721, 3861
7044, 147, 1192, 1365, 1246, 3646, 7772, 1367, 1248, 3645, 3833
7045, 146, 1192, 1365, 1418, 3644, 7772, 1366, 7634, 3861, 7721
7046, 146, 1365, 1192, 1246, 1366, 7772, 3644, 1247, 3833, 3645
7047, 632, 91, 801, 94, 2506, 7773, 2589, 2587, 7758, 811
7048, 632, 801, 91, 733, 2589, 7773, 2506, 5840, 6836, 735
7049, 1075, 801, 91, 94, 6955, 7773, 7774, 7699, 811, 7758
7050, 1420, 1804, 159, 1305, 5640, 7775, 7776, 5638, 5642, 1307
7051, 159, 1804, 1420, 186, 7775, 5640, 7776, 7757, 7680, 1430
7052, 159, 1195, 1420, 1305, 3614, 3847, 7776, 1307, 5446, 5638
7053, 1420, 1195, 159, 186, 3847, 3614, 7776, 1430, 3845, 7757
7054, 757, 83, 630, 693, 759, 2536, 5844, 2572, 695, 2535
7055, 1832, 1412, 2119, 1208, 7466, 7777, 5114, 7392, 7465, 7391
7056, 1832, 2119, 1412, 304, 5114, 7777, 7466, 1835, 5113, 6985
7057, 1812, 1412, 2119, 304, 6986, 7777, 5112, 1814, 6985, 5113
7058, 766, 79, 630, 799, 767, 2528, 5845, 7669, 7742, 2603
7059, 766, 630, 79, 684, 5845, 2528, 767, 2575, 2529, 685
7060, 3884, 232, 5440, 1674, 5659, 7778, 5481, 5484, 1675, 5486
7061, 1670, 5440, 232, 1674, 5552, 7778, 4082, 4083, 5486, 1675
7062, 3117, 2873, 3115, 3120, 5850, 6397, 3166, 3160, 5916, 3167
7063, 3115, 2873, 3117, 3119, 6397, 5850, 3166, 3136, 5851, 3165
7064, 208, 189, 220, 214, 3890, 7779, 5649, 5461, 5462, 1505
7065, 208, 220, 189, 190, 5649, 7779, 3890, 3889, 5647, 1452
7066, 212, 189, 220, 190, 1487, 7779, 7780, 4032, 1452, 5647
7067, 325, 308, 247, 309, 4301, 7781, 5651, 4302, 1831, 5652
7068, 325, 247, 308, 248, 5651, 7781, 4301, 5464, 1626, 5466
7069, 339, 247, 308, 309, 7324, 7781, 2000, 4666, 5652, 1831
7070, 339, 308, 247, 248, 2000, 7781, 7324, 6404, 5466, 1626
7071, 1658, 227, 5440, 1654, 4070, 7782, 5569, 4071, 1655, 7272
7072, 1658, 5440, 227, 3885, 5569, 7782, 4070, 5568, 5483, 5784
7073, 3239, 1071, 793, 3242, 5586, 6483, 7783, 3288, 5585, 6318
7074, 3239, 793, 1071, 2868, 7783, 6483, 5586, 6709, 7146, 6292
7075, 891, 793, 3239, 2868, 2793, 7783, 7784, 2908, 7146, 6709
7076, 1002, 891, 3239, 2868, 2907, 7784, 3258, 2909, 2908, 6709
7077, 5407, 1192, 1380, 144, 5958, 5449, 6574, 7111, 3640, 1382
7078, 5433, 109, 835, 95, 6068, 7785, 5595, 5604, 6067, 841
7079, 461, 451, 212, 452, 2211, 6683, 7786, 2210, 455, 6682
7080, 461, 5159, 212, 189, 5693, 5576, 7786, 5695, 5694, 1487
7081, 212, 5159, 461, 452, 5576, 5693, 7786, 6682, 6201, 2210
7082, 5408, 1325, 1194, 154, 7417, 5448, 6145, 7145, 1326, 3662
7083, 190, 1630, 5440, 1634, 5895, 7120, 5575, 5706, 4053, 5707
7084, 2971, 5433, 109, 835, 5634, 6068, 2977, 5734, 5595, 7785
7085, 109, 5433, 2971, 1028, 6068, 5634, 2977, 1034, 5633, 2982
7086, 1006, 107, 94, 3240, 1013, 7342, 7787, 3254, 3249, 6120
7087, 94, 107, 1006, 99, 7342, 1013, 7787, 890, 2878, 2880
7088, 94, 899, 1006, 3240, 2792, 2882, 7787, 6120, 6118, 3254
7089, 1006, 899, 94, 99, 2882, 2792, 7787, 2880, 909, 890
7090, 359, 2084, 1413, 4909, 2090, 7788, 7511, 4922, 4925, 7605
7091, 359, 1413, 2084, 1433, 7511, 7788, 2090, 4729, 3871, 4730
7092, 2085, 1413, 2084, 4909, 7765, 7788, 2091, 4941, 7605, 4925
7093, 2085, 2084, 1413, 1433, 2091, 7788, 7765, 4740, 4730, 3871
7094, 3884, 231, 5440, 232, 6126, 7789, 5481, 5659, 1553, 7778
7095, 3884, 5440, 231, 3885, 5481, 7789, 6126, 3913, 5483, 5863
7096, 1670, 5440, 231, 232, 5552, 7789, 1671, 4082, 7778, 1553
7097, 1670, 231, 5440, 3885, 1671, 7789, 5552, 5550, 5863, 5483
7098, 5403, 327, 462, 471, 7790, 7791, 6923, 7002, 7792, 2215
7099, 5403, 462, 327, 328, 6923, 7791, 7790, 7569, 7568, 1861
7100, 5160, 462, 327, 471, 6325, 7791, 7793, 6326, 2215, 7792
7101, 5160, 327, 462, 328, 7793, 7791, 6325, 7794, 1861, 7568
7102, 4807, 4800, 2062, 4808, 4834, 6800, 7127, 4819, 4848, 6799
7103, 4807, 2062, 4800, 2046, 7127, 6800, 4834, 4831, 4781, 4832
7104, 2071, 358, 186, 187, 2077, 7364, 7795, 4707, 4706, 1431
7105, 186, 358, 2071, 4860, 7364, 2077, 7795, 5906, 4864, 4868
7106, 186, 1432, 2071, 187, 3866, 4709, 7795, 1431, 1441, 4707
7107, 2071, 1432, 186, 4860, 4709, 3866, 7795, 4868, 5908, 5906
7108, 83, 754, 631, 696, 755, 7796, 2537, 697, 2571, 2538
7109, 83, 631, 754, 800, 2537, 7796, 755, 7747, 2605, 7550
7110, 84, 631, 754, 696, 2539, 7796, 756, 698, 2538, 2571
7111, 84, 754, 631, 800, 756, 7796, 2539, 7664, 7550, 2605
7112, 1043, 648, 2285, 3006, 6097, 6429, 7797, 3035, 6094, 6430
7113, 2285, 648, 1043, 647, 6429, 6097, 7797, 6853, 653, 7696
7114, 1686, 1453, 234, 235, 7798, 7799, 4091, 1687, 7274, 1565
7115, 193, 1453, 234, 3884, 3905, 7799, 7518, 3904, 3907, 5660
7116, 193, 234, 1453, 235, 7518, 7799, 3905, 7275, 1565, 7274
7117, 5440, 212, 190, 243, 5579, 4032, 5575, 5890, 1606, 4033
7118, 835, 2271, 852, 2270, 7496, 6092, 7800, 5622, 2400, 7422
7119, 852, 2271, 835, 2971, 6092, 7496, 7800, 5564, 5967, 5734
7120, 852, 3008, 835, 2270, 5563, 5594, 7800, 7422, 5623, 5622
7121, 835, 3008, 852, 2971, 5594, 5563, 7800, 5734, 5516, 5564
7122, 1650, 5440, 227, 1654, 7269, 7782, 4067, 4068, 7272, 1655
7123, 1591, 1415, 1172, 1216, 6622, 7801, 5019, 7468, 7485, 7388
7124, 1591, 1172, 1415, 191, 5019, 7801, 6622, 1594, 5081, 6621
7125, 1455, 1172, 1415, 1216, 5080, 7801, 6796, 7389, 7388, 7485
7126, 1455, 1415, 1172, 191, 6796, 7801, 5080, 1459, 6621, 5081
7127, 5440, 243, 443, 212, 5890, 6461, 6908, 5579, 1606, 6462
7128, 5440, 443, 243, 434, 6908, 6461, 5890, 7201, 2196, 6396
7129, 190, 1623, 5440, 1630, 5894, 7044, 5575, 5895, 4050, 7120
7130, 79, 769, 629, 799, 771, 7802, 2527, 7742, 7740, 2602
7131, 79, 629, 769, 681, 2527, 7802, 771, 683, 2526, 2576
7132, 78, 629, 769, 799, 2525, 7802, 770, 7702, 2602, 7740
7133, 78, 769, 629, 681, 770, 7802, 2525, 682, 2576, 2526
7134, 285, 5405, 5410, 4217, 7108, 6055, 5764, 5817, 6266, 5818
7135, 5410, 5405, 285, 283, 6055, 7108, 5764, 5763, 7138, 1747
7136, 5410, 2110, 5426, 4978, 5953, 7803, 5974, 6165, 4989, 5941
7137, 5410, 5426, 2110, 1753, 5974, 7803, 5953, 5762, 5973, 5952
7138, 2111, 5426, 2110, 4978, 6492, 7803, 2117, 4983, 5941, 4989
7139, 2111, 2110, 5426, 1753, 2117, 7803, 6492, 6371, 5952, 5973
7140, 517, 1615, 3425, 1618, 7804, 6848, 6084, 6597, 4040, 6595
7141, 517, 3425, 1615, 5427, 6084, 6848, 7804, 6088, 6086, 6849
7142, 54, 2276, 2691, 2275, 2336, 7805, 2693, 2338, 2340, 7623
7143, 434, 424, 5440, 425, 2190, 7806, 7201, 2189, 428, 7296
7144, 434, 5440, 424, 243, 7201, 7806, 2190, 6396, 5890, 6395
7145, 227, 226, 5440, 1650, 1533, 7807, 7782, 4067, 1651, 7269
7146, 1646, 5440, 226, 1650, 7257, 7807, 4064, 4065, 7269, 1651
7147, 4858, 4696, 362, 4853, 6011, 7212, 5925, 4900, 6009, 5782
7148, 4858, 362, 4696, 1801, 5925, 7212, 6011, 6474, 5835, 6454
7149, 1941, 1938, 5405, 4467, 4477, 6356, 6359, 4475, 4476, 7565
7150, 5405, 1938, 1941, 4468, 6356, 4477, 6359, 6358, 4472, 4471
7151, 1930, 1933, 5406, 4431, 4440, 6808, 6870, 4435, 4434, 6871
7152, 5406, 1933, 1930, 4430, 6808, 4440, 6870, 7585, 4438, 4439
7153, 1941, 1723, 5419, 4479, 4488, 7639, 7303, 4483, 4482, 7304
7154, 5419, 1723, 1941, 4478, 7639, 4488, 7303, 7689, 4486, 4487
7155, 1930, 1927, 5429, 4419, 4429, 7688, 7403, 4427, 4428, 7681
7156, 1930, 5429, 1927, 4420, 7403, 7688, 4429, 4423, 7402, 4424
7157, 452, 212, 5440, 443, 6682, 5579, 6910, 2203, 6462, 6908
7158, 5440, 212, 452, 5159, 5579, 6682, 6910, 5580, 5576, 6201
7159, 5440, 5159, 5160, 1627, 5580, 5200, 6771, 5578, 5172, 5182
7160, 5440, 5160, 5159, 452, 6771, 5200, 5580, 6910, 6200, 6201
7161, 1627, 220, 189, 214, 4046, 7779, 7808, 1628, 1505, 5462
7162, 189, 220, 1627, 212, 7779, 4046, 7808, 1487, 7780, 5577
7163, 189, 5159, 1627, 214, 5694, 5172, 7808, 5462, 5171, 1628
7164, 1627, 5159, 189, 212, 5172, 5694, 7808, 5577, 5576, 1487
7165, 135, 1208, 186, 1185, 3611, 7809, 3843, 1196, 3618, 3844
7166, 1412, 1208, 186, 1799, 7465, 7809, 1421, 6736, 7662, 7712
7167, 1412, 186, 1208, 1185, 1421, 7809, 7465, 3846, 3844, 3618
7168, 220, 1627, 5440, 1623, 4046, 5578, 7810, 1624, 4047, 7044
7169, 5440, 1627, 220, 212, 5578, 4046, 7810, 5579, 5577, 7780
7170, 5440, 190, 220, 1623, 5575, 5647, 7810, 7044, 5894, 1624
7171, 220, 190, 5440, 212, 5647, 5575, 7810, 7780, 4032, 5579
7172, 5422, 2109, 283, 1582, 6449, 5800, 7221, 6436, 6232, 6231
7173, 5422, 283, 2109, 1754, 7221, 5800, 6449, 6613, 6154, 6258
7174, 3694, 4995, 1420, 4996, 7074, 6728, 6863, 6031, 5034, 6727
7175, 4853, 1800, 1412, 4861, 5881, 6665, 7811, 4901, 5880, 6734
7176, 1412, 1800, 4853, 4696, 6665, 5881, 7811, 7291, 6010, 6009
7177, 1432, 1412, 4853, 4696, 3867, 7811, 7812, 4736, 7291, 6009
7178, 2072, 1432, 4853, 4696, 4735, 7812, 4885, 4737, 4736, 6009
7179, 1642, 225, 5440, 190, 4061, 7813, 5753, 5752, 6143, 5575
7180, 1642, 5440, 225, 1646, 5753, 7813, 4061, 4062, 7257, 1647
7181, 226, 5440, 225, 190, 7807, 7813, 1529, 6029, 5575, 6143
7182, 226, 225, 5440, 1646, 1529, 7813, 7807, 4064, 1647, 7257
7183, 453, 452, 339, 5440, 456, 7814, 7815, 6909, 6910, 6838
7184, 5160, 339, 452, 5440, 6405, 7814, 6200, 6771, 6838, 6910
7185, 5410, 5419, 280, 1574, 6059, 6879, 5897, 6189, 6363, 6188
7186, 5421, 854, 3076, 3009, 6457, 7816, 5505, 5741, 6795, 5710
7187, 5421, 3076, 854, 2289, 5505, 7816, 6457, 6456, 6168, 6172
7188, 5435, 3076, 854, 3009, 5711, 7816, 6174, 5712, 5710, 6795
7189, 5435, 854, 3076, 2289, 6174, 7816, 5711, 6171, 6172, 6168
7190, 307, 5160, 462, 328, 7046, 6325, 7455, 1862, 7794, 7568
7191, 1042, 3004, 2257, 3005, 3033, 6500, 7817, 3016, 3021, 6468
7192, 1042, 2257, 3004, 647, 7817, 6500, 3033, 7695, 6842, 6843
7193, 5440, 424, 416, 425, 7806, 2182, 6278, 7296, 428, 2184
7194, 460, 5404, 212, 451, 7480, 7492, 7818, 2208, 7237, 6683
7195, 212, 5404, 460, 189, 7492, 7480, 7818, 1487, 7481, 6194
7196, 212, 461, 460, 451, 7786, 464, 7818, 6683, 2211, 2208
7197, 460, 461, 212, 189, 464, 7786, 7818, 6194, 5695, 1487
7198, 339, 453, 461, 452, 7815, 2212, 7819, 7814, 456, 2210
7199, 339, 5160, 461, 308, 6405, 6199, 7819, 2000, 6406, 7820
7200, 461, 5160, 339, 452, 6199, 6405, 7819, 2210, 6200, 7814
7201, 5427, 3447, 3445, 3453, 7363, 3603, 6142, 6141, 3519, 3560
7202, 5427, 3445, 3447, 5413, 6142, 3603, 7363, 6768, 5867, 6361
7203, 362, 4856, 4859, 4857, 5683, 4883, 6972, 5682, 4903, 4904
7204, 4859, 4856, 362, 1802, 4883, 5683, 6972, 7507, 6100, 6497
7205, 1881, 323, 247, 249, 4351, 7821, 4346, 1882, 7213, 1633
7206, 1881, 247, 323, 324, 4346, 7821, 4351, 1883, 5650, 1857
7207, 309, 247, 323, 249, 5652, 7821, 4310, 7314, 1633, 7213
7208, 309, 323, 247, 324, 4310, 7821, 5652, 4311, 1857, 5650
7209, 190, 206, 220, 221, 3898, 7822, 5647, 5893, 7214, 1509
7210, 190, 220, 206, 207, 5647, 7822, 3898, 3899, 5648, 1479
7211, 1506, 220, 206, 221, 3948, 7822, 3949, 1507, 1509, 7214
7212, 1506, 206, 220, 207, 3949, 7822, 3948, 1508, 1479, 5648
7213, 3116, 3115, 2876, 3121, 3133, 7823, 6243, 3146, 3164, 7056
7214, 3116, 2876, 3115, 963, 6243, 7823, 3133, 3130, 2945, 3131
7215, 992, 2876, 3115, 3121, 2950, 7823, 6746, 6745, 7056, 3164
7216, 992, 3115, 2876, 963, 6746, 7823, 2950, 2949, 3131, 2945
7217, 100, 910, 109, 95, 916, 7824, 1027, 2811, 2812, 6067
7218, 100, 109, 910, 2971, 1027, 7824, 916, 2976, 2977, 2980
7219, 835, 109, 910, 95, 7785, 7824, 2813, 841, 6067, 2812
7220, 835, 910, 109, 2971, 2813, 7824, 7785, 5734, 2980, 2977
7221, 5161, 1491, 470, 479, 5179, 6660, 7825, 7826, 6657, 2224
7222, 470, 1875, 5161, 479, 6654, 5191, 7825, 2224, 6661, 7826
7223, 291, 4213, 5406, 4215, 4249, 6064, 7571, 4247, 4225, 6896
7224, 291, 5406, 4213, 4216, 7571, 6064, 4249, 4242, 6190, 4250
7225, 936, 111, 102, 97, 7827, 1055, 942, 2840, 7828, 2839
7226, 102, 111, 936, 3041, 1055, 7827, 942, 3046, 3047, 3050
7227, 863, 5428, 111, 97, 6018, 6080, 7829, 869, 6311, 7828
7228, 111, 5428, 863, 3041, 6080, 6018, 7829, 3047, 5934, 6017
7229, 936, 863, 111, 97, 2841, 7829, 7827, 2840, 869, 7828
7230, 111, 863, 936, 3041, 7829, 2841, 7827, 3047, 6017, 3050
7231, 326, 328, 248, 307, 4300, 7830, 5465, 4298, 1862, 7047
7232, 5160, 248, 328, 307, 5183, 7830, 7794, 7046, 7047, 1862
7233, 4213, 286, 5405, 4212, 4230, 7410, 5590, 4222, 4228, 6275
7234, 4213, 5405, 286, 4217, 5590, 7410, 4230, 4231, 6266, 4226
7235, 4696, 4852, 362, 4853, 6222, 5684, 7212, 6009, 4890, 5782
7236, 362, 4852, 4696, 357, 5684, 6222, 7212, 2105, 6090, 4722
7237, 211, 188, 461, 460, 1484, 5696, 7831, 7591, 6195, 464
7238, 461, 188, 211, 5159, 5696, 1484, 7831, 5693, 5697, 7832
7239, 461, 469, 211, 460, 2217, 7423, 7831, 464, 2216, 7591
7240, 211, 469, 461, 5159, 7423, 2217, 7831, 7832, 7833, 5693
7241, 3296, 3297, 1046, 1143, 3341, 6826, 6685, 3337, 3340, 3378
7242, 1046, 3297, 3296, 3298, 6826, 3341, 6685, 6825, 3327, 3345
7243, 1193, 1757, 1345, 150, 7084, 7666, 5450, 3653, 7238, 1346
7244, 4856, 362, 4694, 4855, 5683, 7128, 5902, 4902, 5681, 5901
7245, 4856, 4694, 362, 1802, 5902, 7128, 5683, 6100, 6098, 6497
7246, 5159, 211, 214, 188, 7832, 7834, 5171, 5697, 1484, 7045
7247, 209, 214, 211, 188, 5463, 7834, 3888, 3887, 7045, 1484
7248, 5415, 372, 1454, 4491, 6628, 5774, 6272, 6271, 5776, 5777
7249, 5415, 1454, 372, 364, 6272, 5774, 6628, 7382, 7028, 2142
7250, 4331, 334, 5160, 327, 4337, 7835, 7173, 4335, 1871, 7793
7251, 4331, 5160, 334, 1875, 7173, 7835, 4337, 4334, 5184, 4342
7252, 471, 5160, 334, 327, 6326, 7835, 7836, 7792, 7793, 1871
7253, 471, 334, 5160, 1875, 7836, 7835, 6326, 6656, 4342, 5184
7254, 3239, 3241, 891, 1002, 3260, 5732, 7784, 3258, 3257, 2907
7255, 498, 331, 497, 329, 7837, 7838, 501, 6720, 1867, 6722
7256, 496, 497, 218, 219, 500, 7839, 7840, 7841, 7842, 1500
7257, 2256, 5421, 2267, 646, 5529, 6583, 2466, 6550, 6615, 6899
7258, 2267, 5421, 2256, 2269, 6583, 5529, 2466, 2467, 5530, 2370
7259, 86, 111, 2703, 748, 6387, 6731, 2707, 750, 6389, 2708
7260, 1193, 1360, 1756, 148, 5451, 7219, 6688, 3649, 1362, 7437
7261, 1193, 1756, 1360, 1418, 6688, 7219, 5451, 3860, 5673, 7698
7262, 496, 5427, 3421, 517, 7023, 6087, 7843, 7543, 6088, 6085
7263, 3421, 5427, 496, 5423, 6087, 7023, 7843, 6050, 6875, 7021
7264, 4694, 1420, 2075, 1440, 7025, 7844, 4770, 4769, 3868, 4768
7265, 4694, 2075, 1420, 4854, 4770, 7844, 7025, 5900, 4894, 7026
7266, 2076, 2075, 1420, 1440, 2082, 7844, 6458, 4710, 4768, 3868
7267, 2076, 1420, 2075, 4854, 6458, 7844, 2082, 4869, 7026, 4894
7268, 219, 1615, 517, 1618, 1617, 7804, 7295, 4041, 4040, 6597
7269, 1705, 263, 5415, 4392, 1708, 6425, 6990, 4393, 4394, 7089
7270, 5415, 263, 1705, 4105, 6425, 1708, 6990, 6669, 4122, 4123
7271, 622, 94, 69, 70, 2586, 7705, 2502, 633, 2585, 621
7272, 254, 318, 5440, 255, 7350, 7845, 7270, 1657, 6158, 7271
7273, 4294, 5440, 318, 255, 7283, 7845, 4306, 6157, 7271, 6158
7274, 4294, 318, 5440, 309, 4306, 7845, 7283, 4305, 4303, 7308
7275, 201, 226, 5440, 227, 6028, 7807, 7846, 6161, 1533, 7782
7276, 5440, 226, 201, 190, 7807, 6028, 7846, 5575, 6029, 3892
7277, 5440, 3885, 201, 227, 5483, 3893, 7846, 7782, 5784, 6161
7278, 201, 3885, 5440, 190, 3893, 5483, 7846, 3892, 3894, 5575
7279, 3074, 877, 552, 3075, 7009, 6794, 7847, 3091, 6791, 6793
7280, 552, 877, 3074, 2283, 6794, 7009, 7847, 2395, 7010, 6349
7281, 552, 645, 3074, 3075, 7012, 6350, 7847, 6793, 6828, 3091
7282, 3074, 645, 552, 2283, 6350, 7012, 7847, 6349, 6351, 2395
7283, 2727, 868, 111, 97, 5994, 7848, 6567, 5992, 875, 7828
7284, 2727, 111, 868, 3044, 6567, 7848, 5994, 6569, 3048, 6604
7285, 102, 111, 868, 97, 1055, 7848, 2838, 2839, 7828, 875
7286, 102, 868, 111, 3044, 2838, 7848, 1055, 3049, 6604, 3048
7287, 105, 1115, 109, 2869, 6946, 6307, 6976, 2889, 7297, 6975
7288, 105, 109, 1115, 3171, 6976, 6307, 6946, 3182, 7278, 6611
7289, 5230, 5403, 5229, 22, 6364, 7849, 5263, 5261, 6922, 5258
7290, 5230, 5229, 5403, 5425, 5263, 7849, 6364, 5441, 5470, 6366
7291, 415, 416, 5440, 424, 419, 6278, 7850, 2179, 2182, 7806
7292, 415, 5440, 416, 1453, 7850, 6278, 419, 6934, 5482, 6277
7293, 243, 415, 5440, 424, 7851, 7850, 5890, 6395, 2179, 7806
7294, 243, 5440, 415, 1453, 5890, 7850, 7851, 5542, 5482, 6934
7295, 244, 415, 243, 424, 7852, 7851, 1607, 7529, 2179, 6395
7296, 244, 243, 415, 1453, 1607, 7851, 7852, 7037, 5542, 6934
7297, 20, 5229, 5403, 22, 5259, 7849, 7853, 458, 5258, 6922
7298, 5403, 453, 20, 22, 6921, 2200, 7853, 6922, 457, 458
7299, 3303, 795, 2866, 893, 7537, 6511, 5614, 6989, 2800, 2914
7300, 2866, 795, 3303, 3301, 6511, 7537, 5614, 5616, 6513, 3349
7301, 896, 799, 2870, 897, 2804, 6206, 2926, 906, 2808, 2927
7302, 444, 20, 5403, 453, 448, 7853, 7854, 2201, 2200, 6921
7303, 199, 3885, 227, 200, 3914, 5784, 7855, 1472, 3915, 6160
7304, 227, 3885, 199, 228, 5784, 3914, 7855, 1537, 5783, 7160
7305, 227, 1534, 199, 200, 3969, 3970, 7855, 6160, 1536, 1472
7306, 199, 1534, 227, 228, 3970, 3969, 7855, 7160, 1535, 1537
7307, 316, 1902, 255, 317, 4372, 4367, 7856, 1850, 1904, 6159
7308, 255, 1902, 316, 256, 4367, 4372, 7856, 1661, 1903, 7182
7309, 255, 4294, 316, 317, 6157, 4324, 7856, 6159, 4325, 1850
7310, 316, 4294, 255, 256, 4324, 6157, 7856, 7182, 7311, 1661
7311, 647, 646, 2257, 330, 652, 6552, 6842, 5186, 5185, 6912
7312, 4860, 1432, 4853, 2072, 5908, 7812, 4887, 4884, 4735, 4885
7313, 5417, 3434, 3423, 3440, 6038, 3566, 6523, 6036, 3567, 3563
7314, 5417, 3423, 3434, 5409, 6523, 3566, 6038, 6524, 6149, 6071
7315, 798, 799, 2870, 896, 808, 6206, 7183, 2805, 2804, 2926
7316, 2870, 799, 798, 5420, 6206, 808, 7183, 6116, 6885, 6866
7317, 1453, 1170, 7, 3432, 5088, 3461, 7857, 5978, 3464, 3462
7318, 7, 1170, 1453, 388, 3461, 5088, 7857, 391, 7326, 7858
7319, 7, 397, 1453, 3432, 2157, 6987, 7857, 3462, 7230, 5978
7320, 1453, 397, 7, 388, 6987, 2157, 7857, 7858, 2158, 391
7321, 1834, 399, 2121, 5206, 7859, 7860, 5118, 6666, 7254, 5246
7322, 1834, 2121, 399, 390, 5118, 7860, 7859, 7861, 7328, 2160
7323, 8, 2121, 399, 5206, 5243, 7860, 2159, 5244, 5246, 7254
7324, 8, 399, 2121, 390, 2159, 7860, 5243, 394, 2160, 7328
7325, 778, 5420, 629, 76, 7593, 6884, 5843, 780, 7331, 2521
7326, 745, 631, 111, 86, 5842, 6386, 7862, 746, 2543, 6387
7327, 793, 645, 94, 1070, 7032, 7863, 802, 6317, 6827, 7685
7328, 793, 94, 645, 622, 802, 7863, 7032, 2588, 2586, 2505
7329, 69, 94, 645, 1070, 7705, 7863, 650, 7520, 7685, 6827
7330, 69, 645, 94, 622, 650, 7863, 7705, 2502, 2505, 2586
7331, 4915, 4697, 2059, 4916, 6541, 4788, 7864, 4964, 5765, 6556
7332, 2059, 4697, 4915, 2107, 4788, 6541, 7864, 4969, 7087, 7055
7333, 2059, 4918, 4915, 4916, 6557, 4955, 7864, 6556, 4953, 4964
7334, 4915, 4918, 2059, 2107, 4955, 6557, 7864, 7055, 6801, 4969
7335, 100, 840, 109, 2975, 2810, 7865, 1027, 2979, 5957, 2978
7336, 100, 109, 840, 95, 1027, 7865, 2810, 2811, 6067, 847
7337, 5432, 109, 840, 2975, 6066, 7865, 5832, 5848, 2978, 5957
7338, 5432, 840, 109, 95, 5832, 7865, 6066, 5833, 847, 6067
7339, 854, 5421, 110, 3009, 6457, 5583, 7866, 6795, 5741, 3012
7340, 110, 5421, 854, 96, 5583, 6457, 7866, 5582, 5528, 861
7341, 110, 101, 854, 3009, 1041, 2824, 7866, 3012, 3013, 6795
7342, 854, 101, 110, 96, 2824, 1041, 7866, 861, 2825, 5582
7343, 5440, 453, 347, 339, 6909, 7867, 7504, 6838, 7815, 2014
7344, 1914, 312, 259, 260, 4384, 7868, 4379, 1915, 7178, 1677
7345, 1914, 259, 312, 313, 4379, 7868, 4384, 1916, 6137, 1846
7346, 4295, 259, 312, 260, 6136, 7868, 4318, 6997, 1677, 7178
7347, 4295, 312, 259, 313, 4318, 7868, 6136, 4319, 1846, 6137
7348, 1550, 195, 231, 196, 3982, 7869, 3981, 1552, 1468, 6125
7349, 1550, 231, 195, 232, 3981, 7869, 3982, 1551, 1553, 7179
7350, 3884, 231, 195, 196, 6126, 7869, 3908, 3909, 6125, 1468
7351, 3884, 195, 231, 232, 3908, 7869, 6126, 5659, 7179, 1553
7352, 1415, 4581, 1577, 4705, 7475, 5543, 6601, 6856, 5545, 5544
7353, 1415, 1577, 4581, 1578, 6601, 5543, 7475, 6623, 1584, 7325
7354, 408, 398, 1834, 399, 2169, 6779, 7355, 2167, 402, 7859
7355, 408, 1834, 398, 5440, 7355, 6779, 2169, 6937, 6780, 6104
7356, 398, 390, 1834, 399, 2162, 7861, 6779, 402, 2160, 7859
7357, 1834, 390, 398, 5415, 7861, 2162, 6779, 6777, 6949, 6778
7358, 836, 3455, 649, 524, 6416, 7135, 6816, 6814, 3501, 6817
7359, 836, 649, 3455, 2972, 6816, 7135, 6416, 6415, 7133, 6414
7360, 258, 314, 5440, 259, 6862, 7870, 7206, 1673, 6138, 7093
7361, 258, 5440, 314, 4294, 7206, 7870, 6862, 6860, 7283, 4321
7362, 4295, 5440, 314, 259, 6903, 7870, 4320, 6136, 7093, 6138
7363, 4295, 314, 5440, 4294, 4320, 7870, 6903, 4323, 4321, 7283
7364, 5419, 283, 5410, 280, 7141, 5763, 6059, 6879, 1744, 5897
7365, 5419, 5410, 283, 5405, 6059, 5763, 7141, 6057, 6055, 7138
7366, 4702, 2109, 1754, 4698, 7192, 6258, 6260, 4766, 6446, 5909
7367, 1754, 2109, 4702, 2110, 6258, 7192, 6260, 5687, 2116, 6749
7368, 1116, 2870, 991, 1115, 6423, 2967, 3235, 1122, 5871, 3236
7369, 991, 2870, 1116, 2873, 2967, 6423, 3235, 2966, 2938, 6399
7370, 303, 3682, 1826, 3676, 7452, 7227, 4282, 7450, 7250, 7249
7371, 303, 1826, 3682, 1804, 4282, 7227, 7452, 1811, 4284, 7226
7372, 630, 1061, 757, 82, 6643, 7709, 5844, 2534, 7487, 758
7373, 2876, 1056, 3121, 1117, 6246, 6952, 7056, 6762, 5997, 6968
7374, 3121, 1056, 2876, 3116, 6952, 6246, 7056, 3146, 6245, 6243
7375, 1047, 2874, 1113, 1112, 6253, 6238, 6887, 5787, 6761, 1119
7376, 1047, 1113, 2874, 3297, 6887, 6238, 6253, 6254, 6237, 6235
7377, 205, 190, 221, 206, 3897, 5893, 7871, 1478, 3898, 7214
7378, 221, 190, 205, 222, 5893, 3897, 7871, 1513, 6015, 7180
7379, 221, 1510, 205, 206, 3951, 3952, 7871, 7214, 1512, 1478
7380, 205, 1510, 221, 222, 3952, 3951, 7871, 7180, 1511, 1513
7381, 322, 1884, 249, 323, 4354, 4349, 7872, 1856, 1886, 7213
7382, 249, 1884, 322, 250, 4349, 4354, 7872, 1637, 1885, 7181
7383, 249, 309, 322, 323, 7314, 4309, 7872, 7213, 4310, 1856
7384, 322, 309, 249, 250, 4309, 7314, 7872, 7181, 7370, 1637
7385, 5440, 1834, 310, 4295, 6780, 4315, 7873, 6903, 4317, 4313
7386, 5440, 262, 310, 263, 6904, 7517, 7873, 6427, 1689, 7690
7387, 310, 262, 5440, 4295, 7517, 6904, 7873, 4313, 6900, 6903
7388, 980, 1115, 2871, 3171, 6947, 6610, 2953, 3184, 6611, 5743
7389, 980, 2871, 1115, 991, 2953, 6610, 6947, 2890, 2954, 3236
7390, 766, 630, 1060, 799, 5845, 6519, 7081, 7669, 2603, 6520
7391, 766, 1060, 630, 80, 7081, 6519, 5845, 768, 7574, 2530
7392, 854, 5435, 2265, 2264, 6174, 6585, 7301, 6173, 6170, 2428
7393, 2265, 5435, 854, 3009, 6585, 6174, 7301, 6877, 5712, 6795
7394, 5429, 297, 5426, 5406, 7234, 6420, 6528, 6526, 7171, 6193
7395, 5429, 5426, 297, 299, 6528, 6420, 7234, 6739, 6421, 1794
7396, 10, 408, 5206, 399, 2166, 7874, 5245, 403, 2167, 7254
7397, 1834, 5206, 408, 399, 6666, 7874, 7355, 7859, 7254, 2167
7398, 5437, 2109, 2108, 238, 6319, 2115, 5946, 6379, 6151, 7191
7399, 5437, 2108, 2109, 4978, 5946, 2115, 6319, 5942, 4988, 4987
7400, 2106, 4908, 4704, 1952, 7152, 6812, 5826, 5536, 6811, 5825
7401, 2106, 4704, 4908, 4700, 5826, 6812, 7152, 7151, 4786, 6803
7402, 3119, 799, 3118, 897, 6207, 6304, 3139, 6988, 2808, 6748
7403, 3118, 799, 3119, 3117, 6304, 6207, 3139, 3163, 6208, 3165
7404, 1453, 406, 3432, 397, 6924, 7875, 5978, 6987, 2165, 7230
7405, 9, 3432, 406, 397, 3463, 7875, 2164, 400, 7230, 2165
7406, 1208, 134, 186, 1799, 1209, 7717, 7809, 7662, 7625, 7712
7407, 1208, 186, 134, 135, 7809, 7717, 1209, 3611, 3843, 1184
7408, 2619, 103, 3075, 98, 7154, 3080, 6993, 6994, 2853, 6992
7409, 2619, 3075, 103, 112, 6993, 3080, 7154, 7156, 3081, 1069
7410, 793, 3241, 3239, 3242, 5870, 3260, 7783, 6318, 3273, 3288
7411, 3239, 3241, 793, 891, 3260, 5870, 7783, 7784, 5732, 2793
7412, 5433, 5435, 1046, 1112, 6476, 7876, 6289, 6757, 5931, 6756
7413, 5433, 1046, 5435, 3009, 6289, 7876, 6476, 6876, 3040, 5712
7414, 1047, 1046, 5435, 1112, 1053, 7876, 5713, 5787, 6756, 5931
7415, 1047, 5435, 1046, 3009, 5713, 7876, 1053, 3017, 5712, 3040
7416, 4860, 1412, 4853, 1432, 5907, 7811, 4887, 5908, 3867, 7812
7417, 4860, 4853, 1412, 4861, 4887, 7811, 5907, 4872, 4901, 6734
7418, 924, 849, 3005, 923, 2830, 6469, 3018, 930, 2827, 3014
7419, 924, 3005, 849, 3004, 3018, 6469, 2830, 3022, 3021, 6641
7420, 1420, 158, 3694, 1804, 5639, 3698, 6863, 5640, 5641, 6030
7421, 1420, 3694, 158, 1310, 6863, 3698, 5639, 7346, 3697, 1312
7422, 877, 950, 3075, 3074, 2858, 3088, 6791, 7009, 3092, 3091
7423, 3075, 950, 877, 949, 3088, 2858, 6791, 3084, 956, 2855
7424, 799, 3111, 1058, 3117, 7601, 5938, 6536, 6208, 3158, 5914
7425, 799, 1058, 3111, 1059, 6536, 5938, 7601, 7353, 1065, 7198
7426, 1412, 1413, 136, 335, 1422, 7460, 7203, 6664, 7243, 7557
7427, 1412, 136, 1413, 1186, 7203, 7460, 1422, 3848, 3620, 3849
7428, 517, 497, 219, 215, 7247, 7842, 7295, 6864, 7070, 1501
7429, 517, 219, 497, 496, 7295, 7842, 7247, 7543, 7841, 500
7430, 2111, 4807, 4701, 4703, 7176, 6314, 6012, 7174, 7088, 4778
7431, 4701, 4807, 2111, 1752, 6314, 7176, 6012, 6177, 6298, 5755
7432, 5417, 415, 244, 424, 6704, 7852, 6833, 6507, 2179, 7529
7433, 103, 882, 3079, 954, 2852, 7315, 3082, 961, 2856, 3085
7434, 1580, 1593, 3802, 4991, 4031, 6135, 6573, 6496, 5122, 6133
7435, 1580, 3802, 1593, 1581, 6573, 6135, 4031, 1587, 6787, 4023
7436, 882, 3079, 2619, 103, 7315, 7155, 7877, 2852, 3082, 7154
7437, 2619, 3079, 882, 2631, 7155, 7315, 7877, 7693, 7878, 7675
7438, 2619, 98, 882, 103, 6994, 889, 7877, 7154, 2853, 2852
7439, 1417, 140, 3796, 1395, 6217, 3797, 7343, 7345, 1396, 3799
7440, 3796, 140, 1417, 1581, 3797, 6217, 7343, 6249, 7879, 7368
7441, 1949, 1455, 1950, 137, 7031, 6715, 1956, 7349, 7348, 7484
7442, 1949, 1950, 1455, 4503, 1956, 6715, 7031, 4551, 4552, 6813
7443, 1170, 1453, 379, 1454, 5088, 7880, 7327, 5119, 1457, 7030
7444, 1170, 379, 1453, 388, 7327, 7880, 5088, 7326, 2151, 7858
7445, 5427, 5423, 478, 487, 6875, 7881, 7443, 7022, 7020, 2228
7446, 27, 478, 5423, 487, 481, 7881, 7220, 2227, 2228, 7020
7447, 12, 408, 5206, 10, 412, 7874, 5247, 413, 2166, 5245
7448, 283, 1754, 4999, 285, 6154, 6487, 5091, 1747, 6153, 5090
7449, 4999, 1754, 283, 5422, 6487, 6154, 5091, 6888, 6613, 7221
7450, 795, 796, 648, 1045, 805, 7177, 6095, 6512, 5820, 7248
7451, 795, 648, 796, 625, 6095, 7177, 805, 2594, 2559, 2595
7452, 104, 800, 967, 3113, 7446, 7882, 974, 3123, 7521, 3127
7453, 104, 967, 800, 898, 974, 7882, 7446, 2883, 2884, 2806
7454, 3114, 967, 800, 3113, 3141, 7882, 7760, 3143, 3127, 7521
7455, 3114, 800, 967, 898, 7760, 7882, 3141, 5567, 2806, 2884
7456, 406, 11, 3432, 9, 409, 3465, 7875, 2164, 414, 3463
7457, 1419, 4992, 1757, 289, 7883, 7251, 7085, 7744, 6320, 1764
7458, 1757, 4992, 1419, 3730, 7251, 7883, 7085, 7513, 7508, 7606
7459, 137, 1212, 1949, 4500, 1215, 7630, 7349, 7277, 5812, 4547
7460, 37, 837, 524, 3455, 7463, 6967, 527, 3500, 6413, 3501
7461, 524, 837, 37, 559, 6967, 7463, 527, 2302, 2748, 2303
7462, 379, 1, 1170, 1454, 2143, 3456, 7327, 7030, 7335, 5119
7463, 379, 1170, 1, 5, 7327, 3456, 2143, 382, 3458, 387
7464, 5440, 346, 309, 347, 7884, 4668, 7308, 7504, 2013, 4667
7465, 877, 552, 61, 596, 6794, 554, 7436, 2780, 2357, 2356
7466, 61, 552, 877, 5237, 554, 6794, 7436, 5280, 5281, 6790
7467, 5440, 346, 435, 426, 7884, 7885, 7202, 7290, 7886, 2188
7468, 304, 1412, 335, 1800, 6985, 6664, 6337, 4288, 6665, 5976
7469, 335, 1412, 304, 1832, 6664, 6985, 6337, 6716, 7466, 1835
7470, 305, 1832, 4489, 304, 4296, 6718, 6651, 1815, 1835, 6308
7471, 192, 4496, 1455, 191, 6540, 7027, 3901, 1460, 6109, 1459
7472, 236, 192, 3992, 1571, 4014, 3994, 4002, 1572, 1573, 3995
7473, 415, 11, 3432, 406, 2171, 3465, 7887, 2172, 409, 7875
7474, 3432, 1453, 415, 406, 5978, 6934, 7887, 7875, 6924, 2172
7475, 415, 1453, 3432, 5417, 6934, 5978, 7887, 6704, 5979, 5980
7476, 318, 5440, 319, 254, 7845, 7888, 1852, 7350, 7270, 7351
7477, 318, 319, 5440, 309, 1852, 7888, 7845, 4303, 4304, 7308
7478, 253, 319, 5440, 254, 6823, 7888, 7256, 1653, 7351, 7270
7479, 253, 5440, 319, 309, 7256, 7888, 6823, 6822, 7308, 4304
7480, 5440, 417, 346, 426, 7207, 7448, 7884, 7290, 2181, 7886
7481, 5440, 346, 417, 1834, 7884, 7448, 7207, 6780, 7449, 7130
7482, 329, 2018, 498, 331, 2019, 7889, 6720, 1867, 4675, 7837
7483, 2631, 112, 3079, 1075, 7694, 3083, 7878, 7890, 1082, 3087
7484, 2631, 3079, 112, 2619, 7878, 3083, 7694, 7693, 7155, 7156
7485, 647, 794, 2257, 646, 7204, 7891, 6842, 652, 7265, 6552
7486, 647, 2257, 794, 1042, 6842, 7891, 7204, 7695, 7817, 7033
7487, 3005, 2257, 794, 646, 6468, 7891, 7034, 6551, 6552, 7265
7488, 3005, 794, 2257, 1042, 7034, 7891, 6468, 3016, 7033, 7817
7489, 1435, 4581, 4573, 1415, 7148, 4621, 5571, 3875, 7475, 5573
7490, 1435, 4573, 4581, 1962, 5571, 4621, 7148, 4748, 4605, 6148
7491, 4911, 1414, 4697, 1434, 7555, 6759, 5767, 7244, 3872, 4742
7492, 4697, 1414, 4911, 4912, 6759, 7555, 5767, 5766, 6758, 4960
7493, 5206, 5210, 408, 12, 5250, 7892, 7874, 5247, 5248, 412
7494, 14, 408, 5210, 12, 2173, 7892, 5249, 422, 412, 5248
7495, 5407, 143, 1192, 1417, 6575, 3638, 5958, 5960, 7756, 3859
7496, 5407, 1192, 143, 1380, 5958, 3638, 6575, 6574, 5449, 1381
7497, 191, 238, 5437, 1577, 4009, 6379, 6111, 4010, 1583, 5945
7498, 191, 5437, 238, 1574, 6111, 6379, 4009, 4007, 5535, 1576
7499, 5428, 111, 87, 801, 6080, 7893, 7894, 6939, 7024, 7759
7500, 631, 111, 87, 745, 6386, 7893, 2545, 5842, 7862, 747
7501, 631, 87, 111, 801, 2545, 7893, 6386, 2606, 7759, 7024
7502, 1875, 333, 471, 334, 4341, 7895, 6656, 4342, 1870, 7836
7503, 1875, 471, 333, 480, 6656, 7895, 4341, 6655, 2223, 7896
7504, 1840, 5415, 4490, 1833, 7090, 6670, 7897, 4327, 7216, 6529
7505, 4490, 5415, 1840, 1705, 6670, 7090, 7897, 6945, 6990, 4405
7506, 4490, 1839, 1840, 1833, 7077, 1842, 7897, 6529, 4326, 4327
7507, 1840, 1839, 4490, 1705, 1842, 7077, 7897, 4405, 4404, 6945
7508, 5408, 155, 1194, 1325, 7416, 3664, 6145, 7417, 1327, 5448
7509, 5408, 1194, 155, 1420, 6145, 3664, 7416, 6146, 3864, 7764
7510, 867, 3043, 3044, 940, 7472, 3065, 7494, 2849, 3062, 3064
7511, 3044, 3043, 867, 2709, 3065, 7472, 7494, 7523, 7522, 7581
7512, 216, 469, 1491, 478, 7898, 6658, 3937, 7440, 2221, 6659
7513, 216, 1491, 469, 213, 3937, 6658, 7898, 1497, 3936, 7358
7514, 47, 867, 586, 866, 7595, 2774, 2322, 7535, 873, 2776
7515, 47, 586, 867, 48, 2322, 2774, 7595, 538, 2325, 7613
7516, 787, 2613, 798, 73, 2618, 7396, 7650, 789, 2617, 7624
7517, 4910, 2036, 1950, 2035, 4936, 4692, 5849, 4933, 2042, 4689
7518, 4910, 1950, 2036, 4915, 5849, 4692, 4936, 4940, 5632, 4938
7519, 3243, 1129, 1073, 1128, 3280, 3405, 5548, 3277, 1135, 3403
7520, 3243, 1073, 1129, 3245, 5548, 3405, 3280, 3284, 5453, 3282
7521, 303, 186, 1300, 160, 7716, 6466, 7899, 7451, 6467, 1302
7522, 1300, 3682, 303, 160, 3685, 7452, 7899, 1302, 3686, 7451
7523, 5417, 442, 244, 5404, 5875, 7900, 6833, 6636, 6635, 6832
7524, 5417, 244, 442, 433, 6833, 7900, 5875, 6504, 7528, 2193
7525, 243, 244, 442, 5404, 1607, 7900, 6460, 7502, 6832, 6635
7526, 243, 442, 244, 433, 6460, 7900, 1607, 6394, 2193, 7528
7527, 4806, 1418, 1754, 1755, 7640, 6905, 6609, 7570, 7538, 1761
7528, 4806, 1754, 1418, 4804, 6609, 6905, 7640, 4851, 5456, 6210
7529, 1704, 1709, 4490, 1839, 4155, 4507, 7901, 4403, 7076, 7077
7530, 4490, 1709, 1704, 278, 4507, 4155, 7901, 4506, 1715, 4149
7531, 1704, 4490, 1944, 1839, 7901, 4511, 7902, 4403, 7077, 7378
7532, 1944, 4490, 1704, 278, 4511, 7901, 7902, 1945, 4506, 4149
7533, 1704, 1944, 4391, 1839, 7902, 7903, 4396, 4403, 7378, 4400
7534, 13, 3432, 415, 11, 3466, 7887, 418, 423, 3465, 2171
7535, 415, 3432, 13, 5417, 7887, 3466, 418, 6704, 5980, 6703
7536, 1030, 2482, 1031, 66, 7041, 7586, 1037, 7211, 2485, 7707
7537, 1030, 1031, 2482, 2973, 1037, 7586, 7041, 3000, 2999, 7038
7538, 4579, 1733, 1580, 1732, 4599, 4207, 7748, 4596, 1739, 4204
7539, 1978, 4806, 1755, 4803, 4826, 7570, 4636, 4828, 4830, 7527
7540, 1978, 1755, 4806, 1977, 4636, 7570, 4826, 1984, 4635, 4823
7541, 1991, 4859, 1802, 4856, 4879, 7507, 4651, 4881, 4883, 6100
7542, 1802, 4859, 1991, 1990, 7507, 4879, 4651, 4648, 4876, 1997
7543, 1414, 2085, 4911, 4913, 7763, 4942, 7555, 7556, 4944, 4946
7544, 216, 487, 1491, 217, 7441, 7904, 3937, 1498, 7905, 3941
7545, 216, 1491, 487, 478, 3937, 7904, 7441, 7440, 6659, 2228
7546, 333, 489, 1875, 480, 7906, 7907, 4341, 7896, 2230, 6655
7547, 333, 1875, 489, 332, 4341, 7907, 7906, 1869, 4340, 7908
7548, 631, 751, 111, 85, 7729, 7909, 6386, 2541, 753, 6730
7549, 631, 111, 751, 800, 6386, 7909, 7729, 2605, 7162, 7745
7550, 469, 210, 5159, 211, 7359, 7910, 7833, 7423, 1483, 7832
7551, 212, 442, 5404, 243, 6463, 6635, 7492, 1606, 6460, 7502
7552, 212, 5404, 442, 451, 7492, 6635, 6463, 6683, 7237, 2202
7553, 1755, 1365, 146, 3760, 7305, 1366, 7635, 6589, 3763, 3761
7554, 1755, 146, 1365, 1418, 7635, 1366, 7305, 7538, 7634, 7721
7555, 1420, 155, 3706, 1320, 7764, 3707, 7444, 7627, 1321, 3709
7556, 3706, 155, 1420, 5408, 3707, 7764, 7444, 6441, 7416, 6146
7557, 75, 5420, 629, 778, 7594, 6884, 2519, 779, 7593, 5843
7558, 629, 5420, 75, 798, 6884, 7594, 2519, 2600, 6866, 7761
7559, 2631, 112, 730, 92, 7694, 7911, 2636, 2635, 7692, 732
7560, 94, 730, 112, 92, 7113, 7911, 7706, 7114, 732, 7692
7561, 75, 798, 2637, 781, 7761, 7415, 2641, 783, 7677, 2642
7562, 2637, 798, 75, 5420, 7415, 7761, 2641, 5620, 6866, 7594
7563, 868, 49, 3044, 867, 7672, 7643, 6604, 874, 7631, 7494
7564, 868, 3044, 49, 50, 6604, 7643, 7672, 7674, 7673, 540
7565, 356, 4801, 1439, 2050, 4809, 5735, 4716, 2057, 4816, 4717
7566, 5438, 795, 1045, 1044, 7366, 6512, 6285, 6288, 7078, 1051
7567, 5438, 1045, 795, 648, 6285, 6512, 7366, 6433, 7248, 6095
7568, 345, 2008, 1834, 346, 4670, 5115, 6039, 2012, 4669, 7449
7569, 345, 1834, 2008, 344, 6039, 5115, 4670, 2011, 5117, 2010
7570, 1610, 245, 1453, 244, 4036, 6121, 5079, 4035, 1608, 7037
7571, 1610, 1453, 245, 246, 5079, 6121, 4036, 1612, 5087, 1609
7572, 213, 469, 5159, 1491, 7358, 7833, 7912, 3936, 6658, 5170
7573, 5159, 469, 213, 210, 7833, 7358, 7912, 7910, 7359, 1489
7574, 5159, 3931, 213, 1491, 7150, 3935, 7912, 5170, 3938, 3936
7575, 213, 3931, 5159, 210, 3935, 7150, 7912, 1489, 3932, 7910
7576, 3175, 797, 3174, 895, 5605, 5497, 3196, 5495, 2801, 5496
7577, 3175, 3174, 797, 3173, 3196, 5497, 5605, 3222, 3220, 7313
7578, 133, 1409, 1580, 1416, 7753, 7659, 7913, 7752, 7739, 7539
7579, 1580, 1409, 133, 132, 7659, 7753, 7913, 7644, 1410, 1178
7580, 1580, 1579, 133, 1416, 1586, 7602, 7913, 7539, 7735, 7752
7581, 133, 1579, 1580, 132, 7602, 1586, 7913, 1178, 7013, 7644
7582, 71, 1030, 1031, 66, 7477, 1037, 7914, 656, 7211, 7707
7583, 1031, 1030, 71, 797, 1037, 7477, 7914, 7638, 7720, 7754
7584, 1031, 610, 71, 66, 7708, 7755, 7914, 7707, 611, 656
7585, 71, 610, 1031, 797, 7755, 7708, 7914, 7754, 7746, 7638
7586, 142, 1191, 1385, 1417, 3635, 7915, 1386, 7667, 3858, 7916
7587, 142, 1385, 1191, 1234, 1386, 7915, 3635, 1235, 3837, 3636
7588, 143, 1385, 1191, 1417, 1387, 7915, 3637, 7756, 7916, 3858
7589, 143, 1191, 1385, 1234, 3637, 7915, 1387, 1236, 3636, 3837
7590, 1420, 156, 5001, 3700, 7628, 7917, 6781, 6784, 3701, 6782
7591, 1420, 5001, 156, 3706, 6781, 7917, 7628, 7444, 6439, 3710
7592, 167, 5001, 156, 3700, 5036, 7917, 1314, 3702, 6782, 3701
7593, 167, 156, 5001, 3706, 1314, 7917, 5036, 3711, 3710, 6439
7594, 91, 59, 882, 2631, 817, 7676, 7918, 2634, 2633, 7675
7595, 91, 882, 59, 2643, 7918, 7676, 817, 2647, 7919, 2644
7596, 3079, 91, 882, 2631, 7920, 7918, 7315, 7878, 2634, 7675
7597, 3079, 882, 91, 2643, 7315, 7918, 7920, 7921, 7919, 2647
7598, 1075, 91, 3079, 2631, 7774, 7920, 3087, 7890, 2634, 7878
7599, 1417, 141, 5005, 3790, 7344, 7922, 7369, 7589, 3791, 6983
7600, 1417, 5005, 141, 3796, 7369, 7922, 7344, 7343, 6250, 3800
7601, 182, 5005, 141, 3790, 5068, 7922, 1389, 3792, 6983, 3791
7602, 182, 141, 5005, 3796, 1389, 7922, 5068, 3801, 3800, 6250
7603, 1581, 140, 4990, 3796, 7879, 7923, 6248, 6249, 3797, 6247
7604, 1581, 4990, 140, 3802, 6248, 7923, 7879, 6787, 6134, 3806
7605, 183, 4990, 140, 3796, 5072, 7923, 1394, 3798, 6247, 3797
7606, 183, 140, 4990, 3802, 1394, 7923, 5072, 3807, 3806, 6134
7607, 184, 139, 4991, 3808, 1399, 7924, 5076, 3813, 3812, 7603
7608, 184, 4991, 139, 3802, 5076, 7924, 1399, 3804, 6133, 3803
7609, 1580, 139, 4991, 3802, 6572, 7924, 6496, 6573, 3803, 6133
7610, 142, 181, 5008, 3784, 1384, 5066, 7925, 3785, 3786, 7573
7611, 142, 5008, 181, 3790, 7925, 5066, 1384, 3794, 6984, 3795
7612, 1417, 5008, 142, 3790, 7926, 7925, 7667, 7589, 6984, 3794
7613, 5407, 144, 5009, 3772, 7111, 7927, 6198, 6535, 3773, 6532
7614, 5407, 5009, 144, 3778, 6198, 7927, 7111, 6257, 6256, 3782
7615, 179, 5009, 144, 3772, 5062, 7927, 1374, 3774, 6532, 3773
7616, 179, 144, 5009, 3778, 1374, 7927, 5062, 3783, 3782, 6256
7617, 1193, 1345, 151, 1258, 5450, 1347, 3655, 3654, 3829, 1260
7618, 5407, 5013, 145, 3772, 6534, 7928, 7060, 6535, 6533, 3776
7619, 178, 5013, 145, 3766, 5058, 7928, 1369, 3768, 7578, 3767
7620, 178, 145, 5013, 3772, 1369, 7928, 5058, 3777, 3776, 6533
7621, 1755, 146, 5013, 3760, 7635, 7929, 6591, 6589, 3761, 6590
7622, 177, 5013, 146, 3760, 5059, 7929, 1364, 3762, 6590, 3761
7623, 177, 146, 5013, 3766, 1364, 7929, 5059, 3771, 3770, 7578
7624, 176, 147, 5011, 3760, 1359, 7930, 5055, 3765, 3764, 6593
7625, 176, 5011, 147, 3754, 5055, 7930, 1359, 3756, 6929, 3755
7626, 1755, 5011, 147, 3760, 6592, 7930, 7166, 6589, 6593, 3764
7627, 1755, 147, 5011, 3754, 7166, 7930, 6592, 6927, 3755, 6929
7628, 147, 1360, 1193, 1249, 1361, 5451, 3647, 1250, 3832, 3648
7629, 1193, 1360, 147, 1418, 5451, 1361, 3647, 3860, 7698, 7704
7630, 4802, 2049, 1418, 4801, 4839, 7931, 5473, 4842, 4841, 5471
7631, 1439, 2049, 1418, 1438, 4761, 7931, 3882, 1448, 4760, 3878
7632, 1439, 1418, 2049, 4801, 3882, 7931, 4761, 5735, 5471, 4841
7633, 1780, 175, 1756, 3754, 5052, 7932, 4254, 6982, 3759, 6928
7634, 148, 1756, 175, 3754, 7437, 7932, 1354, 3758, 6928, 3759
7635, 148, 175, 1756, 3748, 1354, 7932, 7437, 3749, 3750, 7734
7636, 1419, 4992, 152, 3730, 7883, 7933, 7607, 7606, 7508, 3734
7637, 171, 4992, 152, 3724, 5045, 7933, 1334, 3726, 5947, 3725
7638, 171, 152, 4992, 3730, 1334, 7933, 5045, 3735, 3734, 7508
7639, 1938, 5405, 4212, 4455, 6356, 6275, 7934, 4459, 6355, 6384
7640, 4212, 5405, 1938, 4456, 6275, 6356, 7934, 7409, 7411, 4463
7641, 4212, 293, 1938, 4455, 4252, 4466, 7934, 6384, 4460, 4459
7642, 1938, 293, 4212, 4456, 4466, 4252, 7934, 4463, 4465, 7409
7643, 1723, 241, 4006, 4182, 4191, 4026, 7935, 4190, 4188, 7661
7644, 4006, 241, 1723, 4183, 4026, 4191, 7935, 7592, 4189, 4192
7645, 4006, 5419, 1723, 4182, 6647, 7639, 7935, 7661, 7385, 4190
7646, 1723, 5419, 4006, 4183, 7639, 6647, 7935, 4192, 7741, 7592
7647, 192, 4497, 236, 3992, 6539, 7936, 4014, 3994, 6538, 4002
7648, 1712, 4497, 236, 4103, 4531, 7936, 4113, 4115, 5531, 4111
7649, 1712, 236, 4497, 3992, 4113, 7936, 4531, 6971, 4002, 6538
7650, 1212, 1211, 1948, 4492, 1214, 7609, 6334, 6408, 6644, 4543
7651, 1212, 1948, 1211, 1187, 6334, 7609, 1214, 3674, 6752, 3673
7652, 138, 185, 4991, 3808, 1404, 5075, 7937, 3809, 3810, 7603
7653, 4991, 185, 138, 3814, 5075, 1404, 7937, 7288, 3817, 3819
7654, 138, 1580, 4991, 3814, 7540, 6496, 7937, 3819, 7287, 7288
7655, 5408, 154, 5007, 3712, 7145, 7938, 5949, 6695, 3713, 6693
7656, 5408, 5007, 154, 3718, 5949, 7938, 7145, 6626, 7622, 3722
7657, 169, 5007, 154, 3712, 5042, 7938, 1324, 3714, 6693, 3713
7658, 169, 154, 5007, 3718, 1324, 7938, 5042, 3723, 3722, 7622
7659, 1420, 157, 4995, 3694, 7347, 7939, 6728, 6863, 3695, 7074
7660, 1420, 4995, 157, 3700, 6728, 7939, 7347, 6784, 6783, 3704
7661, 166, 4995, 157, 3694, 5032, 7939, 1309, 3696, 7074, 3695
7662, 166, 157, 4995, 3700, 1309, 7939, 5032, 3705, 3704, 6783
7663, 164, 159, 5006, 3688, 1299, 7940, 5027, 3693, 3692, 7612
7664, 164, 5006, 159, 3682, 5027, 7940, 1299, 3684, 7228, 3683
7665, 1804, 159, 5006, 3682, 7775, 7940, 6033, 7226, 3683, 7228
7666, 1804, 5006, 158, 3694, 6033, 7941, 5641, 6030, 6034, 3698
7667, 165, 5006, 158, 3688, 5026, 7941, 1304, 3690, 7612, 3689
7668, 165, 158, 5006, 3694, 1304, 7941, 5026, 3699, 3698, 6034
7669, 1195, 156, 1320, 1420, 3667, 1322, 7942, 3847, 7628, 7627
7670, 1320, 156, 1195, 1273, 1322, 3667, 7942, 3824, 1275, 3666
7671, 1320, 155, 1195, 1420, 1321, 3665, 7942, 7627, 7764, 3847
7672, 1195, 155, 1320, 1273, 3665, 1321, 7942, 3666, 1274, 3824
7673, 5408, 155, 5015, 3706, 7416, 7943, 6440, 6441, 3707, 6438
7674, 5408, 5015, 155, 3712, 6440, 7943, 7416, 6695, 6694, 3716
7675, 168, 5015, 155, 3706, 5038, 7943, 1319, 3708, 6438, 3707
7676, 168, 155, 5015, 3712, 1319, 7943, 5038, 3717, 3716, 6694
7677, 5408, 153, 5007, 3718, 6625, 7944, 5949, 6626, 3719, 7622
7678, 5408, 5007, 153, 3724, 5949, 7944, 6625, 5950, 5948, 3728
7679, 170, 5007, 153, 3718, 5041, 7944, 1329, 3720, 7622, 3719
7680, 170, 153, 5007, 3724, 1329, 7944, 5041, 3729, 3728, 5948
7681, 151, 172, 1757, 3730, 1339, 7945, 7512, 3731, 3732, 7513
7682, 151, 1757, 172, 3736, 7512, 7945, 1339, 3740, 7665, 3741
7683, 1781, 172, 1757, 3736, 5049, 7945, 4240, 7646, 3741, 7665
7684, 1927, 306, 4263, 4408, 4418, 4292, 7946, 4415, 4417, 7400
7685, 4263, 306, 1927, 4407, 4292, 4418, 7946, 7642, 4412, 4411
7686, 4263, 5429, 1927, 4408, 6346, 7688, 7946, 7400, 7733, 4415
7687, 1927, 5429, 4263, 4407, 7688, 6346, 7946, 4411, 7577, 7642
7688, 1419, 1756, 1979, 1757, 6687, 4638, 7657, 7085, 1763, 4629
7689, 1419, 1979, 1756, 4801, 7657, 4638, 6687, 7656, 4814, 5674
7690, 1933, 5406, 4215, 4442, 6808, 6896, 7947, 4452, 7546, 7545
7691, 4215, 5406, 1933, 4441, 6896, 6808, 7947, 6410, 6806, 4446
7692, 4215, 292, 1933, 4442, 4251, 4451, 7947, 7545, 4450, 4452
7693, 1933, 292, 4215, 4441, 4451, 4251, 7947, 4446, 4445, 6410
7694, 150, 173, 1757, 3736, 1344, 7948, 7238, 3737, 3738, 7665
7695, 150, 1757, 173, 3742, 7238, 7948, 1344, 3746, 7379, 3747
7696, 1781, 1757, 173, 3736, 4240, 7948, 5048, 7646, 7665, 3738
7697, 1781, 173, 1757, 3742, 5048, 7948, 4240, 7380, 3747, 7379
7698, 149, 1756, 174, 3748, 7626, 7949, 1349, 3752, 7734, 3753
7699, 149, 174, 1756, 3742, 1349, 7949, 7626, 3743, 3744, 7381
7700, 186, 1420, 4854, 1804, 1430, 7026, 7445, 7680, 5640, 7159
7701, 87, 742, 632, 708, 743, 7950, 2546, 709, 2567, 2547
7702, 87, 632, 742, 801, 2546, 7950, 743, 7759, 2589, 7951
7703, 88, 632, 742, 708, 2548, 7950, 744, 710, 2547, 2567
7704, 88, 742, 632, 801, 744, 7950, 2548, 7691, 7951, 2589
7705, 3299, 795, 1015, 3305, 6675, 7952, 3315, 3348, 6674, 6786
7706, 892, 795, 1015, 893, 2797, 7952, 2912, 902, 2800, 2911
7707, 892, 1015, 795, 3305, 2912, 7952, 2797, 5720, 6786, 6674
7708, 326, 327, 248, 328, 1860, 7953, 5465, 4300, 1861, 7830
7709, 326, 248, 327, 4331, 5465, 7953, 1860, 4336, 4333, 4335
7710, 5160, 248, 327, 328, 5183, 7953, 7793, 7794, 7830, 1861
7711, 5160, 327, 248, 4331, 7793, 7953, 5183, 7173, 4335, 4333
7712, 5414, 339, 5403, 4653, 7954, 7490, 7434, 6679, 4657, 7433
7713, 263, 310, 5415, 4392, 7690, 7955, 6425, 4394, 4402, 7089
7714, 1840, 5415, 310, 4392, 7090, 7955, 1843, 4401, 7089, 4402
7715, 1840, 310, 5415, 1834, 1843, 7955, 7090, 4316, 4315, 6777
7716, 5412, 334, 5434, 4660, 7956, 7957, 6581, 6576, 4663, 6579
7717, 54, 2276, 86, 2691, 2336, 7958, 827, 2693, 7805, 2694
7718, 54, 86, 2276, 2703, 827, 7958, 2336, 2704, 2707, 5806
7719, 55, 87, 2275, 2691, 825, 7959, 2339, 2692, 2695, 7623
7720, 50, 82, 3044, 2721, 832, 7960, 7673, 2722, 2725, 7598
7721, 50, 3044, 82, 2733, 7673, 7960, 832, 2735, 7547, 2736
7722, 1061, 82, 3044, 2733, 7487, 7960, 3053, 7559, 2736, 7547
7723, 1088, 800, 1060, 1061, 7714, 6518, 3393, 3384, 6642, 1067
7724, 795, 1043, 794, 3305, 6096, 7961, 804, 6674, 6881, 5721
7725, 1042, 1043, 794, 647, 1049, 7961, 7033, 7695, 7696, 7204
7726, 1042, 794, 1043, 3305, 7033, 7961, 1049, 7091, 5721, 6881
7727, 794, 3305, 1139, 3300, 5721, 3329, 7711, 5722, 3330, 3312
7728, 794, 1139, 3305, 1042, 7711, 3329, 5721, 7033, 3369, 7091
7729, 1088, 800, 1087, 1060, 7714, 7962, 1094, 3393, 6518, 3391
7730, 1088, 1087, 800, 3113, 1094, 7962, 7714, 3129, 3156, 7521
7731, 799, 1087, 800, 1060, 7509, 7962, 809, 6520, 3391, 6518
7732, 44, 76, 2292, 2649, 820, 7963, 2315, 2650, 2653, 6128
7733, 44, 2292, 76, 2661, 2315, 7963, 820, 2663, 5661, 2664
7734, 5420, 2292, 76, 2649, 5999, 7963, 7331, 6129, 6128, 2653
7735, 5420, 76, 2292, 2661, 7331, 7963, 5999, 6202, 2664, 5661
7736, 43, 75, 2280, 2637, 818, 7964, 2313, 2638, 2641, 5618
7737, 43, 2280, 75, 2649, 2313, 7964, 818, 2651, 6127, 2652
7738, 5420, 2280, 75, 2637, 5619, 7964, 7594, 5620, 5618, 2641
7739, 5420, 75, 2280, 2649, 7594, 7964, 5619, 6129, 2652, 6127
7740, 74, 781, 628, 669, 782, 7965, 2516, 670, 2580, 2517
7741, 74, 628, 781, 798, 2516, 7965, 782, 7678, 2601, 7677
7742, 75, 628, 781, 669, 2518, 7965, 783, 671, 2517, 2580
7743, 75, 781, 628, 798, 783, 7965, 2518, 7761, 7677, 2601
7744, 797, 1031, 68, 614, 7638, 7429, 7762, 7001, 7637, 616
7745, 1029, 3177, 796, 1030, 7136, 7966, 6617, 1036, 7225, 7967
7746, 797, 3177, 796, 3176, 7312, 7966, 806, 5606, 3224, 5635
7747, 797, 796, 3177, 1030, 806, 7966, 7312, 7720, 7967, 7225
7748, 1414, 4914, 4917, 4913, 7558, 4932, 7968, 7556, 4963, 4956
7749, 4917, 4914, 1414, 1948, 4932, 7558, 7968, 7421, 7371, 6753
7750, 1414, 1413, 4917, 1948, 1423, 7770, 7968, 6753, 6754, 7421
7751, 4909, 2085, 4917, 4913, 4941, 7969, 4929, 4945, 4944, 4956
7752, 4909, 4917, 2085, 1413, 4929, 7969, 4941, 7605, 7770, 7765
7753, 1414, 4917, 2085, 4913, 7968, 7969, 7763, 7556, 4956, 4944
7754, 1414, 2085, 4917, 1413, 7763, 7969, 7968, 1423, 7765, 7770
7755, 1947, 1187, 1948, 1413, 7970, 6752, 1954, 7462, 3850, 6754
7756, 1947, 1948, 1187, 1211, 1954, 6752, 7970, 6419, 7609, 3673
7757, 136, 1186, 1947, 1413, 3620, 7971, 6919, 7460, 3849, 7462
7758, 136, 1947, 1186, 1211, 6919, 7971, 3620, 1213, 6419, 3621
7759, 1186, 1187, 1947, 1413, 1198, 7970, 7971, 3849, 3850, 7462
7760, 1186, 1947, 1187, 1211, 7971, 7970, 1198, 3621, 6419, 3673
7761, 5407, 143, 5008, 3778, 6575, 7972, 6196, 6257, 3779, 6255
7762, 180, 5008, 143, 3778, 5065, 7972, 1379, 3780, 6255, 3779
7763, 180, 143, 5008, 3784, 1379, 7972, 5065, 3789, 3788, 7573
7764, 88, 2272, 56, 2679, 7973, 2341, 823, 2683, 7632, 2680
7765, 5159, 210, 214, 211, 7910, 7974, 5171, 7832, 1483, 7834
7766, 5159, 214, 210, 3931, 5171, 7974, 7910, 7150, 3939, 3932
7767, 209, 214, 210, 211, 5463, 7974, 1482, 3888, 7834, 1483
7768, 209, 210, 214, 3931, 1482, 7974, 5463, 3933, 3932, 3939
7769, 1578, 4578, 1415, 1579, 7298, 7975, 6623, 1585, 7447, 7976
7770, 1416, 4578, 1415, 4573, 7663, 7975, 1425, 5572, 4620, 5573
7771, 1416, 1415, 4578, 1579, 1425, 7975, 7663, 7735, 7976, 7447
7772, 1417, 1438, 4698, 1437, 3879, 4755, 7489, 3880, 1447, 4754
7773, 1439, 1420, 4701, 1440, 3883, 7129, 4718, 1449, 3868, 4767
7774, 4701, 1420, 1439, 5408, 7129, 3883, 4718, 6014, 6146, 7769
7775, 1834, 309, 346, 2008, 1838, 4668, 7449, 5115, 2009, 4669
7776, 1834, 346, 309, 5440, 7449, 4668, 1838, 6780, 7884, 7308
7777, 1682, 5440, 1453, 1686, 6974, 5482, 7977, 4092, 6426, 7798
7778, 1453, 234, 1682, 1686, 7799, 1683, 7977, 7798, 4091, 4092
7779, 5440, 1678, 1453, 3884, 5487, 7978, 5482, 5481, 5485, 3907
7780, 5440, 1453, 1678, 1682, 5482, 7978, 5487, 6974, 7977, 4089
7781, 234, 1453, 1678, 3884, 7799, 7978, 4088, 5660, 3907, 5485
7782, 234, 1678, 1453, 1682, 4088, 7978, 7799, 1683, 4089, 7977
7783, 308, 5160, 462, 307, 6406, 6325, 7454, 1830, 7046, 7455
7784, 462, 5160, 308, 461, 6325, 6406, 7454, 465, 6199, 7820
7785, 3682, 159, 303, 1804, 3683, 7979, 7452, 7226, 7775, 1811
7786, 3682, 303, 159, 1300, 7452, 7979, 3683, 3685, 7899, 1301
7787, 186, 303, 159, 1804, 7716, 7979, 7757, 7680, 1811, 7775
7788, 186, 159, 303, 1300, 7757, 7979, 7716, 6466, 1301, 7899
7789, 461, 462, 339, 308, 465, 7980, 7819, 7820, 7454, 2000
7790, 461, 339, 462, 453, 7819, 7980, 465, 2212, 7815, 2209
7791, 5403, 339, 462, 308, 7490, 7980, 6923, 7457, 2000, 7454
7792, 5403, 462, 339, 453, 6923, 7980, 7490, 6921, 2209, 7815
7793, 5425, 5403, 5224, 5229, 6366, 7981, 5862, 5470, 7849, 5260
7794, 20, 5224, 5403, 5229, 5255, 7981, 7853, 5259, 5260, 7849
7795, 25, 460, 5404, 469, 2213, 7480, 7982, 472, 2216, 7360
7796, 23, 460, 5404, 25, 463, 7480, 7983, 477, 2213, 7982
7797, 5423, 23, 5404, 25, 7984, 7983, 7137, 7579, 477, 7982
7798, 5423, 5404, 23, 5431, 7137, 7983, 7984, 7590, 6637, 6220
7799, 3450, 23, 5423, 25, 3482, 7984, 6962, 3483, 477, 7579
7800, 796, 649, 797, 626, 7229, 7985, 806, 2596, 2561, 2597
7801, 796, 797, 649, 1030, 806, 7985, 7229, 7967, 7720, 7134
7802, 627, 797, 649, 626, 2598, 7985, 2511, 638, 2597, 2561
7803, 358, 187, 4854, 186, 4706, 7986, 4862, 7364, 1431, 7445
7804, 358, 4854, 187, 2076, 4862, 7986, 4706, 2083, 4869, 4708
7805, 1420, 4854, 187, 186, 7026, 7986, 3865, 1430, 7445, 1431
7806, 1420, 187, 4854, 2076, 3865, 7986, 7026, 6458, 4708, 4869
7807, 2631, 91, 112, 1075, 2634, 7987, 7694, 7890, 7774, 1082
7808, 2631, 112, 91, 730, 7694, 7987, 2634, 2636, 7911, 731
7809, 94, 112, 91, 1075, 7706, 7987, 7758, 7699, 1082, 7774
7810, 94, 91, 112, 730, 7758, 7987, 7706, 7113, 731, 7911
7811, 5210, 417, 408, 14, 7988, 2174, 7892, 5249, 421, 2173
7812, 16, 426, 5210, 14, 430, 7989, 5251, 431, 2180, 5249
7813, 16, 5210, 426, 5416, 5251, 7989, 430, 6514, 7188, 6517
7814, 426, 417, 5210, 14, 2181, 7988, 7989, 2180, 421, 5249
7815, 426, 5210, 417, 5416, 7989, 7988, 2181, 6517, 7188, 7132
7816, 648, 1043, 624, 795, 6097, 7990, 2558, 6095, 6096, 2593
7817, 648, 624, 1043, 647, 2558, 7990, 6097, 653, 2556, 7696
7818, 794, 624, 1043, 795, 2591, 7990, 7961, 804, 2593, 6096
7819, 794, 1043, 624, 647, 7961, 7990, 2591, 7204, 7696, 2556
7820, 451, 5404, 23, 460, 7237, 7983, 2206, 2208, 7480, 463
7821, 451, 23, 5404, 5431, 2206, 7983, 7237, 6219, 6220, 6637
7822, 1944, 4489, 305, 1832, 4510, 6651, 7991, 6717, 6718, 4296
7823, 1944, 1839, 305, 4391, 7378, 1841, 7991, 7903, 4400, 4399
7824, 305, 1839, 1944, 1832, 1841, 7378, 7991, 4296, 4297, 6717
7825, 192, 1461, 4496, 3992, 1463, 6673, 6540, 3994, 3993, 6537
7826, 192, 4496, 1461, 1455, 6540, 6673, 1463, 3901, 7027, 3902
7827, 1216, 1415, 1416, 1579, 7485, 1425, 7992, 7467, 7976, 7735
7828, 1416, 1415, 1216, 1189, 1425, 7485, 7992, 3856, 3854, 3625
7829, 1216, 1190, 1416, 1189, 3609, 3855, 7992, 3625, 1201, 3856
7830, 5440, 346, 444, 435, 7884, 7993, 6911, 7202, 7885, 2195
7831, 5427, 3420, 3421, 3431, 6140, 3549, 6087, 6819, 3551, 3550
7832, 5427, 3421, 3420, 5423, 6087, 3549, 6140, 6875, 6050, 6707
7833, 5408, 1439, 289, 1419, 7769, 7994, 6295, 6147, 3881, 7744
7834, 5408, 289, 1439, 4701, 6295, 7994, 7769, 6014, 6294, 4718
7835, 356, 1439, 289, 4701, 4716, 7994, 6560, 4719, 4718, 6294
7836, 72, 2613, 798, 787, 2616, 7396, 6835, 788, 2618, 7650
7837, 3112, 1087, 3114, 799, 3153, 7995, 3161, 6303, 7509, 6305
7838, 3112, 3114, 1087, 3113, 3161, 7995, 3153, 3157, 3143, 3156
7839, 800, 3114, 1087, 799, 7760, 7995, 7962, 809, 6305, 7509
7840, 800, 1087, 3114, 3113, 7962, 7995, 7760, 7521, 3156, 3143
7841, 1417, 1418, 4698, 1438, 1427, 6212, 7489, 3879, 3878, 4755
7842, 4698, 1418, 1417, 5407, 6212, 1427, 7489, 5912, 5959, 5960
7843, 1434, 4911, 2085, 2086, 7244, 4942, 4739, 4743, 4943, 2092
7844, 1434, 2085, 4911, 1414, 4739, 4942, 7244, 3872, 7763, 7555
7845, 790, 798, 2607, 1032, 6834, 7996, 2612, 6700, 5478, 6893
7846, 790, 2607, 798, 72, 2612, 7996, 6834, 792, 2611, 6835
7847, 2613, 2607, 798, 1032, 7052, 7996, 7396, 5704, 6893, 5478
7848, 2613, 798, 2607, 72, 7396, 7996, 7052, 2616, 6835, 2611
7849, 83, 630, 1061, 757, 2536, 6643, 7641, 759, 5844, 7709
7850, 83, 1061, 630, 800, 7641, 6643, 2536, 7747, 6642, 2604
7851, 1412, 2119, 1799, 1812, 7777, 7075, 6736, 6986, 5112, 4283
7852, 1412, 1799, 2119, 1208, 6736, 7075, 7777, 7465, 7662, 7391
7853, 5012, 295, 5408, 297, 5103, 7997, 5865, 5104, 1791, 5678
7854, 5012, 5408, 295, 289, 5865, 7997, 5103, 6809, 6295, 6970
7855, 1752, 5408, 295, 297, 5679, 7997, 6586, 5677, 5678, 1791
7856, 1752, 295, 5408, 289, 6586, 7997, 5679, 1758, 6970, 6295
7857, 3004, 1043, 2285, 3006, 3032, 7797, 7998, 3023, 3035, 6430
7858, 3004, 850, 2285, 2284, 6499, 7186, 7998, 6503, 6502, 2385
7859, 2285, 850, 3004, 3006, 7186, 6499, 7998, 6430, 7185, 3023
7860, 647, 2285, 3004, 1043, 6853, 7998, 6843, 7696, 7797, 3032
7861, 647, 3004, 2285, 2284, 6843, 7998, 6853, 6844, 6503, 2385
7862, 5204, 5215, 5434, 5202, 5327, 7414, 7999, 5278, 5326, 7413
7863, 5434, 36, 5204, 5202, 8000, 5275, 7999, 7413, 5277, 5278
7864, 5160, 470, 1875, 5161, 8001, 6654, 5184, 5201, 7825, 5191
7865, 470, 5159, 5160, 461, 8002, 5200, 8001, 2219, 5693, 6199
7866, 5160, 5159, 470, 5161, 5200, 8002, 8001, 5201, 5199, 7825
7867, 5159, 1491, 470, 5161, 5170, 6660, 8002, 5199, 5179, 7825
7868, 470, 471, 5160, 1875, 474, 6326, 8001, 6654, 6656, 5184
7869, 470, 5160, 471, 461, 8001, 6326, 474, 2219, 6199, 2218
7870, 5159, 469, 470, 1491, 7833, 473, 8002, 5170, 6658, 6660
7871, 5159, 470, 469, 461, 8002, 473, 7833, 5693, 2219, 2217
7872, 496, 31, 3421, 5423, 499, 3494, 7843, 7021, 6049, 6050
7873, 505, 517, 31, 35, 2251, 8003, 2241, 2248, 521, 3492
7874, 505, 31, 517, 496, 2241, 8003, 2251, 2242, 499, 7543
7875, 3421, 31, 517, 35, 3494, 8003, 6085, 3493, 3492, 521
7876, 3421, 517, 31, 496, 6085, 8003, 3494, 7843, 7543, 499
7877, 1951, 1950, 2108, 2107, 1957, 5887, 8004, 7293, 7086, 2114
7878, 2108, 1950, 1951, 4502, 5887, 1957, 8004, 5886, 4556, 4557
7879, 2108, 5437, 1951, 2107, 5946, 6330, 8004, 2114, 7294, 7293
7880, 1951, 5437, 2108, 4502, 6330, 5946, 8004, 4557, 5664, 5886
7881, 479, 488, 1491, 478, 2232, 8005, 6657, 482, 2231, 6659
7882, 479, 1491, 488, 5161, 6657, 8005, 2232, 7826, 5179, 8006
7883, 487, 1491, 488, 478, 7904, 8005, 491, 2228, 6659, 2231
7884, 488, 479, 1875, 480, 2232, 6661, 8007, 2233, 483, 6655
7885, 1875, 479, 488, 5161, 6661, 2232, 8007, 5191, 7826, 8006
7886, 1875, 489, 488, 480, 7907, 492, 8007, 6655, 2230, 2233
7887, 310, 5440, 5415, 1834, 7873, 6428, 7955, 4315, 6780, 6777
7888, 5415, 5440, 310, 263, 6428, 7873, 7955, 6425, 6427, 7690
7889, 471, 26, 5412, 480, 475, 7105, 8008, 2223, 2222, 7104
7890, 4489, 278, 277, 1714, 4508, 4150, 8009, 4509, 1721, 4151
7891, 4489, 4262, 277, 1816, 6262, 4266, 8009, 6650, 4270, 1818
7892, 277, 4262, 4489, 1714, 4266, 6262, 8009, 4151, 6618, 4509
7893, 345, 5414, 5403, 5416, 6450, 7434, 8010, 6042, 6453, 8011
7894, 345, 5403, 444, 5416, 8010, 7854, 8012, 6042, 8011, 6527
7895, 444, 5403, 345, 346, 7854, 8010, 8012, 7993, 8013, 2012
7896, 417, 345, 426, 5416, 7131, 8014, 2181, 7132, 6042, 6517
7897, 426, 345, 417, 346, 8014, 7131, 2181, 7886, 2012, 7448
7898, 345, 435, 426, 5416, 8015, 2188, 8014, 6042, 6516, 6517
7899, 426, 435, 345, 346, 2188, 8015, 8014, 7886, 7885, 2012
7900, 345, 444, 435, 5416, 8012, 2195, 8015, 6042, 6527, 6516
7901, 435, 444, 345, 346, 2195, 8012, 8015, 7885, 7993, 2012
7902, 478, 5423, 25, 27, 7881, 7579, 2220, 481, 7220, 486
7903, 5415, 381, 1834, 390, 7279, 8016, 6777, 6949, 2153, 7861
7904, 1834, 381, 5415, 1833, 8016, 7279, 6777, 1837, 7340, 7216
7905, 381, 2121, 1834, 390, 8017, 5118, 8016, 2153, 7328, 7861
7906, 1834, 2121, 381, 1833, 5118, 8017, 8016, 1837, 5136, 7340
7907, 381, 6, 2121, 390, 385, 5240, 8017, 2153, 2152, 7328
7908, 2121, 6, 381, 1833, 5240, 385, 8017, 5136, 7338, 7340
7909, 244, 5417, 1453, 415, 6833, 5979, 7037, 7852, 6704, 6934
7910, 1453, 5417, 244, 245, 5979, 6833, 7037, 6121, 6123, 1608
7911, 882, 2619, 60, 98, 7877, 2621, 7671, 889, 6994, 7670
7912, 60, 2619, 882, 2631, 2621, 7877, 7671, 2632, 7693, 7675
7913, 1579, 1415, 1591, 1216, 7976, 6622, 4028, 7467, 7485, 7468
7914, 1579, 1591, 1415, 1578, 4028, 6622, 7976, 1585, 4012, 6623
7915, 1417, 5005, 5008, 3790, 7369, 5070, 7926, 7589, 6983, 6984
7916, 1417, 5008, 5005, 5422, 7926, 5070, 7369, 7425, 5751, 5749
7917, 5427, 218, 217, 1615, 8018, 1499, 8019, 6849, 4043, 7766
7918, 5427, 217, 216, 1615, 8019, 1498, 7442, 6849, 7766, 8020
7919, 216, 217, 5427, 487, 1498, 8019, 7442, 7441, 7905, 7022
7920, 498, 5434, 331, 2018, 8021, 8022, 7837, 7889, 8023, 4675
7921, 333, 5434, 332, 489, 8024, 8025, 1869, 7906, 8026, 7908
7922, 5434, 332, 331, 2018, 8025, 1868, 8022, 8023, 7767, 4675
7923, 1188, 1415, 1950, 1414, 3853, 6602, 8027, 3852, 1424, 6760
7924, 1188, 1950, 1415, 137, 8027, 6602, 3853, 3622, 7484, 7264
7925, 1949, 1188, 1950, 1414, 8028, 8027, 1956, 7430, 3852, 6760
7926, 1949, 1950, 1188, 137, 1956, 8027, 8028, 7349, 7484, 3622
7927, 1212, 1188, 1949, 1414, 3624, 8028, 7630, 7687, 3852, 7430
7928, 1212, 1949, 1188, 137, 7630, 8028, 3624, 1215, 7349, 3622
7929, 796, 836, 2972, 649, 6616, 6415, 8029, 7229, 6816, 7133
7930, 2972, 836, 796, 1029, 6415, 6616, 8029, 2997, 5969, 6617
7931, 2972, 1030, 796, 649, 2998, 7967, 8029, 7133, 7134, 7229
7932, 796, 1030, 2972, 1029, 7967, 2998, 8029, 6617, 1036, 2997
7933, 5232, 5210, 1834, 5206, 5335, 8030, 6040, 5324, 5250, 6666
7934, 5232, 1834, 5210, 5416, 6040, 8030, 5335, 6043, 6044, 7188
7935, 408, 1834, 5210, 5206, 7355, 8030, 7892, 7874, 6666, 5250
7936, 517, 219, 5427, 1615, 7295, 8031, 6088, 7804, 1617, 6849
7937, 517, 5427, 219, 496, 6088, 8031, 7295, 7543, 7023, 7841
7938, 218, 5427, 219, 1615, 8018, 8031, 1500, 4043, 6849, 1617
7939, 218, 219, 5427, 496, 1500, 8031, 8018, 7840, 7841, 7023
7940, 216, 5427, 469, 478, 7442, 8032, 7898, 7440, 7443, 2221
7941, 5427, 469, 5423, 5404, 8032, 8033, 6875, 6767, 7360, 7137
7942, 5427, 5423, 469, 478, 6875, 8033, 8032, 7443, 7881, 2221
7943, 5423, 469, 25, 5404, 8033, 472, 7579, 7137, 7360, 7982
7944, 5423, 25, 469, 478, 7579, 472, 8033, 7881, 2220, 2221
7945, 289, 1194, 1419, 1335, 8034, 3863, 7744, 8035, 7620, 7722
7946, 289, 1419, 1194, 5408, 7744, 3863, 8034, 6295, 6147, 6145
7947, 3724, 153, 289, 1335, 3728, 8036, 6321, 3727, 1337, 8035
7948, 3724, 289, 153, 5408, 6321, 8036, 3728, 5950, 6295, 6625
7949, 153, 1194, 289, 1335, 3660, 8034, 8036, 1337, 7620, 8035
7950, 153, 289, 1194, 5408, 8036, 8034, 3660, 6625, 6295, 6145
7951, 77, 629, 799, 5420, 2523, 2602, 8037, 7501, 6884, 6885
7952, 77, 799, 629, 772, 8037, 2602, 2523, 773, 7703, 7727
7953, 1059, 77, 799, 5420, 8038, 8037, 7353, 6691, 7501, 6885
7954, 1059, 799, 77, 772, 7353, 8037, 8038, 7406, 7703, 773
7955, 2673, 77, 1059, 5420, 2676, 8038, 6605, 6692, 7501, 6691
7956, 2673, 1059, 77, 772, 6605, 8038, 2676, 2678, 7406, 773
7957, 84, 751, 111, 800, 752, 7909, 8039, 7664, 7745, 7162
7958, 2727, 84, 111, 800, 2731, 8039, 6567, 7495, 7664, 7162
7959, 2255, 2715, 84, 52, 5847, 2718, 8040, 2331, 2717, 831
7960, 84, 2727, 2255, 52, 2731, 5993, 8040, 831, 2728, 2331
7961, 2715, 84, 97, 2255, 2718, 8041, 5810, 5847, 8040, 5846
7962, 2727, 84, 97, 111, 2731, 8041, 5992, 6567, 8039, 7828
7963, 2727, 97, 84, 2255, 5992, 8041, 2731, 5993, 5846, 8040
7964, 5008, 1417, 5407, 5422, 7926, 5960, 6196, 5751, 7425, 6403
7965, 151, 1193, 1757, 1345, 3655, 7084, 7512, 1347, 5450, 7666
7966, 1757, 1193, 151, 1419, 7084, 3655, 7512, 7085, 3862, 7743
7967, 1755, 5013, 1370, 5407, 6591, 8042, 7563, 6846, 6534, 7499
7968, 145, 1370, 5013, 5407, 1371, 8042, 7928, 7060, 7499, 6534
7969, 145, 5013, 1370, 3766, 7928, 8042, 1371, 3767, 7578, 3769
7970, 146, 5013, 1370, 1755, 7929, 8042, 1372, 7635, 6591, 7563
7971, 146, 1370, 5013, 3766, 1372, 8042, 7929, 3770, 3769, 7578
7972, 5411, 5403, 307, 4653, 7432, 7456, 8043, 6678, 7433, 4654
7973, 307, 341, 5411, 4653, 2003, 7506, 8043, 4654, 4656, 6678
7974, 2049, 1418, 2048, 4802, 7931, 8044, 2055, 4839, 5473, 4838
7975, 2049, 2048, 1418, 1438, 2055, 8044, 7931, 4760, 4763, 3878
7976, 4799, 2048, 1418, 4802, 4836, 8044, 6211, 4840, 4838, 5473
7977, 4799, 1418, 2048, 1438, 6211, 8044, 4836, 7143, 3878, 4763
7978, 175, 1756, 174, 1780, 7932, 7949, 1353, 5052, 4254, 5053
7979, 175, 174, 1756, 3748, 1353, 7949, 7932, 3750, 3753, 7734
7980, 4992, 152, 289, 1419, 7933, 8045, 6320, 7883, 7607, 7744
7981, 4992, 289, 152, 3724, 6320, 8045, 7933, 5947, 6321, 3725
7982, 1335, 289, 152, 1419, 8035, 8045, 1336, 7722, 7744, 7607
7983, 1335, 152, 289, 3724, 1336, 8045, 8035, 3727, 3725, 6321
7984, 4497, 236, 1574, 192, 7936, 7372, 5532, 6539, 4014, 4008
7985, 4497, 1574, 236, 4103, 5532, 7372, 7936, 5531, 5533, 4111
7986, 4991, 138, 1405, 1580, 7937, 1406, 8046, 6496, 7540, 7541
7987, 1405, 138, 4991, 3808, 1406, 7937, 8046, 3811, 3809, 7603
7988, 1405, 139, 4991, 1580, 1407, 7924, 8046, 7541, 6572, 6496
7989, 4991, 139, 1405, 3808, 7924, 1407, 8046, 7603, 3812, 3811
7990, 159, 5006, 1305, 1804, 7940, 8047, 1307, 7775, 6033, 5642
7991, 159, 1305, 5006, 3688, 1307, 8047, 7940, 3692, 3691, 7612
7992, 158, 1305, 5006, 1804, 1306, 8047, 7941, 5641, 5642, 6033
7993, 158, 5006, 1305, 3688, 7941, 8047, 1306, 3689, 7612, 3691
7994, 172, 1757, 4992, 1781, 7945, 7251, 5047, 5049, 4240, 5050
7995, 172, 4992, 1757, 3730, 5047, 7251, 7945, 3732, 7508, 7513
7996, 174, 1756, 1781, 1780, 7949, 4256, 5051, 5053, 4254, 1784
7997, 174, 1781, 1756, 3742, 5051, 4256, 7949, 3744, 7380, 7381
7998, 3303, 795, 1016, 3299, 7537, 8048, 3318, 3320, 6675, 3316
7999, 3303, 1016, 795, 893, 3318, 8048, 7537, 6989, 2915, 2800
8000, 1015, 1016, 795, 3299, 1022, 8048, 7952, 3315, 3316, 6675
8001, 1015, 795, 1016, 893, 7952, 8048, 1022, 2911, 2800, 2915
8002, 334, 5434, 471, 5412, 7957, 8049, 7836, 7956, 6581, 8008
8003, 334, 471, 5434, 333, 7836, 8049, 7957, 1870, 7895, 8024
8004, 471, 5434, 480, 5412, 8049, 8050, 2223, 8008, 6581, 7104
8005, 471, 480, 5434, 333, 2223, 8050, 8049, 7895, 7896, 8024
8006, 480, 5434, 489, 5412, 8050, 8026, 2230, 7104, 6581, 7163
8007, 480, 489, 5434, 333, 2230, 8026, 8050, 7896, 7906, 8024
8008, 86, 111, 2276, 2703, 6387, 8051, 7958, 2707, 6731, 5806
8009, 97, 111, 2276, 5428, 7828, 8051, 5808, 6311, 6080, 6342
8010, 97, 2276, 111, 2703, 5808, 8051, 7828, 5807, 5806, 6731
8011, 87, 2275, 2276, 5428, 7959, 2340, 8052, 7894, 5628, 6342
8012, 87, 2276, 2275, 2691, 8052, 2340, 7959, 2695, 7805, 7623
8013, 86, 2276, 745, 2691, 7958, 8053, 746, 2694, 7805, 2696
8014, 745, 2276, 87, 2691, 8053, 8052, 747, 2696, 7805, 2695
8015, 55, 87, 5428, 2275, 825, 7894, 8054, 2339, 7959, 5628
8016, 5428, 87, 55, 2679, 7894, 825, 8054, 8055, 2682, 2681
8017, 5428, 2272, 55, 2275, 5627, 2342, 8054, 5628, 2343, 2339
8018, 55, 2272, 5428, 2679, 2342, 5627, 8054, 2681, 7632, 8055
8019, 82, 3044, 760, 1061, 7960, 8056, 762, 7487, 3053, 7397
8020, 82, 760, 3044, 2721, 762, 8056, 7960, 2725, 2726, 7598
8021, 1060, 760, 3044, 1061, 7398, 8056, 3073, 1067, 7397, 3053
8022, 1060, 3044, 760, 2721, 3073, 8056, 7398, 7629, 7598, 2726
8023, 3178, 3177, 5439, 1029, 3206, 8057, 7262, 7168, 7136, 6926
8024, 3178, 5439, 3177, 3176, 7262, 8057, 3206, 3221, 7196, 3224
8025, 796, 5439, 3177, 1029, 6482, 8057, 7966, 6617, 6926, 7136
8026, 796, 3177, 5439, 3176, 7966, 8057, 6482, 5635, 3224, 7196
8027, 5413, 125, 188, 3918, 7486, 1485, 8058, 6743, 3920, 3921
8028, 188, 5404, 5413, 3918, 7482, 6764, 8058, 3921, 7431, 6743
8029, 211, 5404, 5413, 188, 7418, 6764, 8059, 1484, 7482, 8058
8030, 5413, 5404, 211, 3925, 6764, 7418, 8059, 6763, 6765, 3929
8031, 5413, 125, 211, 188, 7486, 3924, 8059, 8058, 1485, 1484
8032, 5409, 128, 244, 245, 7008, 1865, 6831, 6521, 4330, 1608
8033, 127, 244, 5409, 128, 4329, 6831, 7552, 1167, 1865, 7008
8034, 5427, 123, 213, 3925, 7362, 1490, 6869, 6766, 3926, 3928
8035, 122, 213, 5427, 123, 4038, 6869, 7616, 1162, 1490, 7362
8036, 143, 5008, 1417, 5407, 7972, 7926, 7756, 6575, 6196, 5960
8037, 2272, 801, 2259, 5428, 8060, 8061, 2346, 5627, 6939, 5971
8038, 3079, 2259, 801, 5428, 6281, 8061, 7200, 6282, 5971, 6939
8039, 3079, 801, 2259, 2667, 7200, 8061, 6281, 6375, 7653, 6376
8040, 2272, 5428, 88, 801, 5627, 8062, 7973, 8060, 6939, 7691
8041, 88, 5428, 2272, 2679, 8062, 5627, 7973, 2683, 8055, 7632
8042, 5428, 742, 88, 801, 8063, 744, 8062, 6939, 7951, 7691
8043, 88, 742, 5428, 2679, 744, 8063, 8062, 2683, 2684, 8055
8044, 5428, 87, 742, 801, 7894, 743, 8063, 6939, 7759, 7951
8045, 742, 87, 5428, 2679, 743, 7894, 8063, 2684, 2682, 8055
8046, 4699, 1417, 4576, 1581, 7424, 7768, 8064, 6223, 7368, 7474
8047, 4576, 4574, 4699, 1581, 4602, 6226, 8064, 7474, 6227, 6223
8048, 4574, 4575, 4699, 1965, 4615, 8065, 6226, 4614, 4612, 4757
8049, 4574, 4699, 4575, 4576, 6226, 8065, 4615, 4602, 8064, 4622
8050, 1417, 4575, 4699, 4576, 5509, 8065, 7424, 7768, 4622, 8064
8051, 5434, 334, 343, 4660, 7957, 2007, 7615, 6579, 4663, 4665
8052, 354, 5434, 334, 343, 7732, 7957, 4679, 2031, 7615, 2007
8053, 4578, 1415, 4581, 1578, 7975, 7475, 4595, 7298, 6623, 7325
8054, 4578, 4581, 1415, 4573, 4595, 7475, 7975, 4620, 4621, 5573
8055, 1416, 1580, 139, 1405, 7539, 6572, 8066, 6465, 7541, 1407
8056, 139, 1190, 1416, 1405, 3628, 3855, 8066, 1407, 5444, 6465
8057, 139, 1416, 1190, 1191, 8066, 3855, 3628, 3629, 3857, 1202
8058, 5440, 5415, 1453, 1686, 6428, 8067, 5482, 6426, 6424, 7798
8059, 5440, 1453, 5415, 398, 5482, 8067, 6428, 6104, 6103, 6778
8060, 71, 649, 797, 1030, 655, 7985, 7754, 7477, 7134, 7720
8061, 71, 797, 649, 627, 7754, 7985, 655, 2510, 2598, 2511
8062, 379, 1453, 5415, 1454, 7880, 8067, 8068, 7030, 1457, 6272
8063, 379, 364, 5415, 380, 2147, 7382, 8068, 383, 2149, 7280
8064, 5415, 364, 379, 1454, 7382, 2147, 8068, 6272, 7028, 7030
8065, 133, 1216, 1416, 1579, 1218, 7992, 7752, 7602, 7467, 7735
8066, 133, 1416, 1216, 1190, 7752, 7992, 1218, 3608, 3855, 3609
8067, 4660, 327, 5412, 334, 4661, 8069, 6576, 4663, 1871, 7956
8068, 471, 5412, 327, 334, 8008, 8069, 7792, 7836, 7956, 1871
8069, 471, 327, 5412, 5403, 7792, 8069, 8008, 7002, 7790, 6365
8070, 498, 32, 5434, 36, 502, 8070, 8021, 7542, 5274, 8000
8071, 5204, 5434, 32, 36, 7999, 8070, 5272, 5275, 8000, 5274
8072, 30, 5204, 5434, 32, 5271, 7999, 8071, 503, 5272, 8070
8073, 5434, 498, 30, 32, 8021, 2236, 8071, 8070, 502, 503
8074, 489, 30, 5434, 498, 493, 8071, 8026, 2237, 2236, 8021
8075, 5434, 30, 489, 5412, 8071, 493, 8026, 6581, 7164, 7163
8076, 488, 1491, 497, 5161, 8005, 8072, 2240, 8006, 5179, 7068
8077, 219, 1491, 497, 218, 3940, 8072, 7842, 1500, 3942, 7839
8078, 343, 5234, 5411, 5207, 5301, 8073, 7614, 5298, 5302, 5758
8079, 343, 5411, 5234, 5434, 7614, 8073, 5301, 7615, 6580, 7532
8080, 5209, 5411, 5234, 5207, 5759, 8073, 5330, 5336, 5758, 5302
8081, 5209, 5234, 5411, 5434, 5330, 8073, 5759, 7483, 7532, 6580
8082, 797, 798, 1031, 3169, 807, 8074, 7638, 7645, 5458, 7147
8083, 1032, 1031, 798, 3169, 1038, 8074, 5478, 5480, 7147, 5458
8084, 1032, 798, 1031, 790, 5478, 8074, 1038, 6700, 6834, 6701
8085, 628, 68, 798, 790, 2500, 8075, 2601, 5841, 791, 6834
8086, 628, 798, 68, 797, 2601, 8075, 2500, 2599, 807, 7762
8087, 1031, 798, 68, 790, 8074, 8075, 7429, 6701, 6834, 791
8088, 1031, 68, 798, 797, 7429, 8075, 8074, 7638, 7762, 807
8089, 212, 5404, 5409, 243, 7492, 6830, 8076, 1606, 7502, 7503
8090, 5409, 5404, 212, 3918, 6830, 7492, 8076, 6741, 7431, 3922
8091, 1491, 215, 497, 5161, 1493, 7070, 8072, 5179, 5180, 7068
8092, 1491, 497, 215, 219, 8072, 7070, 1493, 3940, 7842, 1501
8093, 496, 217, 5427, 218, 8077, 8019, 7023, 7840, 1499, 8018
8094, 5427, 217, 496, 487, 8019, 8077, 7023, 7022, 7905, 2235
8095, 217, 1491, 488, 487, 3941, 8005, 8078, 7905, 7904, 491
8096, 217, 488, 496, 487, 8078, 2238, 8077, 7905, 491, 2235
8097, 497, 1491, 217, 218, 8072, 3941, 8079, 7839, 3942, 1499
8098, 217, 1491, 497, 488, 3941, 8072, 8079, 8078, 8005, 2240
8099, 217, 496, 497, 218, 8077, 500, 8079, 1499, 7840, 7839
8100, 497, 496, 217, 488, 500, 8077, 8079, 2240, 2238, 8078
8101, 1454, 1462, 5415, 1567, 3916, 8080, 6272, 6045, 4004, 6273
8102, 1454, 5415, 1462, 1453, 6272, 8080, 3916, 1457, 8067, 3906
8103, 1462, 3991, 5415, 1567, 3996, 8081, 8080, 4004, 4000, 6273
8104, 1462, 5415, 3991, 1453, 8080, 8081, 3996, 3906, 8067, 7273
8105, 1567, 5415, 4501, 4105, 6273, 8082, 6047, 4109, 6669, 6942
8106, 1567, 4501, 5415, 4491, 6047, 8082, 6273, 6046, 4524, 6271
8107, 1710, 4501, 5415, 4105, 4521, 8082, 6548, 4159, 6942, 6669
8108, 1710, 5415, 4501, 4491, 6548, 8082, 4521, 4523, 6271, 4524
8109, 515, 498, 5202, 36, 7245, 8083, 6632, 518, 7542, 5277
8110, 5434, 498, 5202, 2018, 8021, 8083, 7413, 8023, 7889, 7584
8111, 5434, 5202, 498, 36, 7413, 8083, 8021, 8000, 5277, 7542
8112, 2276, 745, 111, 86, 8053, 7862, 8051, 7958, 746, 6387
8113, 471, 24, 5412, 26, 2214, 7241, 8008, 475, 476, 7105
8114, 471, 5412, 24, 5403, 8008, 7241, 2214, 7002, 6365, 6920
8115, 4575, 1437, 4699, 1965, 5507, 4758, 8065, 4612, 4756, 4757
8116, 4699, 1437, 4575, 1417, 4758, 5507, 8065, 7424, 3880, 5509
8117, 122, 216, 5427, 213, 1614, 7442, 7616, 4038, 1497, 6869
8118, 498, 329, 2022, 2018, 6720, 4672, 8084, 7889, 2019, 4673
8119, 2022, 5202, 498, 2018, 6630, 8083, 8084, 4673, 7584, 7889
8120, 498, 5202, 2022, 515, 8083, 6630, 8084, 7245, 6632, 6631
8121, 111, 87, 2276, 5428, 7893, 8052, 8051, 6080, 7894, 6342
8122, 111, 2276, 87, 745, 8051, 8052, 7893, 7862, 8053, 747
8123, 736, 90, 3079, 801, 738, 8085, 8086, 7648, 6837, 7200
8124, 736, 3079, 90, 2655, 8086, 8085, 738, 2660, 6373, 2659
8125, 213, 5427, 469, 216, 6869, 8032, 7358, 1497, 7442, 7898
8126, 213, 469, 5427, 5404, 7358, 8032, 6869, 6868, 7360, 6767
8127, 143, 5008, 1385, 1417, 7972, 8087, 1387, 7756, 7926, 7916
8128, 143, 1385, 5008, 3784, 1387, 8087, 7972, 3788, 3787, 7573
8129, 142, 1385, 5008, 1417, 1386, 8087, 7925, 7667, 7916, 7926
8130, 142, 5008, 1385, 3784, 7925, 8087, 1386, 3785, 7573, 3787
8131, 5411, 5403, 328, 307, 7432, 7569, 8088, 8043, 7456, 1862
8132, 328, 341, 5411, 307, 4659, 7506, 8088, 1862, 2003, 8043
8133, 140, 3802, 1580, 1581, 3806, 6573, 8089, 7879, 6787, 1587
8134, 1580, 3802, 140, 1400, 6573, 3806, 8089, 6571, 3805, 1402
8135, 1580, 1417, 140, 1581, 8090, 6217, 8089, 1587, 7368, 7879
8136, 140, 1417, 1580, 1400, 6217, 8090, 8089, 1402, 6218, 6571
8137, 5434, 333, 354, 334, 8024, 2029, 7732, 7957, 1870, 4679
8138, 124, 211, 5413, 125, 1488, 8059, 7604, 1164, 3924, 7486
8139, 124, 5413, 211, 3925, 7604, 8059, 1488, 3927, 6763, 3929
8140, 56, 88, 801, 2272, 823, 7691, 8091, 2341, 7973, 8060
8141, 801, 88, 56, 2667, 7691, 823, 8091, 7653, 2670, 2669
8142, 801, 2259, 56, 2272, 8061, 2345, 8091, 8060, 2346, 2341
8143, 56, 2259, 801, 2667, 2345, 8061, 8091, 2669, 6376, 7653
8144, 23, 5423, 3443, 3450, 7984, 8092, 3480, 3482, 6962, 3484
8145, 23, 3443, 5423, 5431, 3480, 8092, 7984, 6220, 7309, 7590
8146, 3426, 3443, 5423, 3450, 3576, 8092, 6444, 3562, 3484, 6962
8147, 3426, 5423, 3443, 5431, 6444, 8092, 3576, 6981, 7590, 7309
8148, 18, 20, 5403, 444, 449, 7853, 8093, 2194, 448, 7854
8149, 5403, 20, 18, 5224, 7853, 449, 8093, 7981, 5255, 5256
8150, 5403, 5416, 18, 444, 8011, 6515, 8093, 7854, 6527, 2194
8151, 18, 5416, 5403, 5224, 6515, 8011, 8093, 5256, 7121, 7981
8152, 5210, 417, 1834, 408, 7988, 7130, 8030, 7892, 2174, 7355
8153, 1834, 417, 5210, 5416, 7130, 7988, 8030, 6044, 7132, 7188
8154, 4801, 1439, 337, 356, 5735, 8094, 4810, 4809, 4716, 2097
8155, 4801, 337, 1439, 1419, 4810, 8094, 5735, 7656, 7658, 3881
8156, 289, 337, 1439, 356, 4626, 8094, 7994, 6560, 2097, 4716
8157, 289, 1439, 337, 1419, 7994, 8094, 4626, 7744, 3881, 7658
8158, 389, 379, 5415, 380, 2154, 8068, 6948, 2155, 383, 7280
8159, 1704, 1944, 277, 4391, 7902, 8095, 1706, 4396, 7903, 4397
8160, 1816, 305, 1944, 4489, 1817, 7991, 8096, 6650, 6651, 4510
8161, 1944, 305, 1816, 4391, 7991, 1817, 8096, 7903, 4399, 4398
8162, 277, 1816, 1944, 4489, 1818, 8096, 8095, 8009, 6650, 4510
8163, 1944, 1816, 277, 4391, 8096, 1818, 8095, 7903, 4398, 4397
8164, 5434, 333, 353, 354, 8024, 4678, 8097, 7732, 2029, 2030
8165, 353, 5203, 5434, 354, 5314, 7412, 8097, 2030, 5316, 7732
8166, 84, 97, 751, 2715, 8041, 8098, 752, 2718, 5810, 2720
8167, 84, 751, 97, 111, 752, 8098, 8041, 8039, 7909, 7828
8168, 751, 97, 85, 2715, 8098, 8099, 753, 2720, 5810, 2719
8169, 751, 85, 97, 111, 753, 8099, 8098, 7909, 6730, 7828
8170, 85, 97, 2703, 2715, 8099, 5807, 2706, 2719, 5810, 5811
8171, 85, 2703, 97, 111, 2706, 5807, 8099, 6730, 6731, 7828
8172, 339, 5414, 340, 4653, 7954, 7536, 2001, 4657, 6679, 4658
8173, 1580, 139, 1417, 1416, 6572, 8100, 8090, 7539, 8066, 1426
8174, 1580, 1417, 139, 1400, 8090, 8100, 6572, 6571, 6218, 1401
8175, 1191, 1417, 139, 1416, 3858, 8100, 3629, 3857, 1426, 8066
8176, 1191, 139, 1417, 1400, 3629, 8100, 3858, 5447, 1401, 6218
8177, 801, 3079, 733, 90, 7200, 8101, 6836, 6837, 8085, 734
8178, 2643, 733, 3079, 90, 2648, 8101, 7921, 2646, 734, 8085
8179, 488, 497, 1875, 5161, 2240, 8102, 8007, 8006, 7068, 5191
8180, 329, 497, 1875, 331, 6722, 8102, 4338, 1867, 7838, 4339
8181, 330, 498, 2022, 515, 6721, 8084, 2023, 7058, 7245, 6631
8182, 330, 2022, 498, 329, 2023, 8084, 6721, 1866, 4672, 6720
8183, 333, 332, 352, 353, 1869, 4677, 8103, 4678, 2027, 2028
8184, 5203, 5434, 352, 353, 7412, 8104, 5313, 5314, 8097, 2028
8185, 5434, 333, 352, 353, 8024, 8103, 8104, 8097, 4678, 2028
8186, 330, 1875, 497, 5161, 1877, 8102, 6723, 5190, 5191, 7068
8187, 330, 497, 1875, 329, 6723, 8102, 1877, 1866, 6722, 4338
8188, 5427, 121, 216, 122, 7723, 4045, 7442, 7616, 1161, 1614
8189, 91, 733, 3079, 2643, 735, 8101, 7920, 2647, 2648, 7921
8190, 328, 342, 5411, 341, 2005, 7596, 8088, 4659, 2004, 7506
8191, 5411, 342, 328, 4660, 7596, 2005, 8088, 6578, 4664, 4662
8192, 3079, 90, 58, 2643, 8085, 819, 8105, 7921, 2646, 2645
8193, 58, 3079, 882, 2258, 8105, 7315, 8106, 2347, 6667, 7316
8194, 882, 3079, 58, 2643, 7315, 8105, 8106, 7919, 7921, 2645
8195, 58, 882, 59, 2258, 8106, 7676, 549, 2347, 7316, 2350
8196, 59, 882, 58, 2643, 7676, 8106, 549, 2644, 7919, 2645
8197, 58, 2655, 3079, 2258, 2656, 6373, 8105, 2347, 6668, 6667
8198, 3079, 2655, 58, 90, 6373, 2656, 8105, 8085, 2659, 819
8199, 5414, 5403, 346, 345, 7434, 8013, 8107, 6450, 8010, 2012
8200, 347, 453, 5403, 339, 7867, 6921, 8108, 2014, 7815, 7490
8201, 5414, 347, 5403, 339, 8109, 8108, 7434, 7954, 2014, 7490
8202, 5414, 5403, 347, 346, 7434, 8108, 8109, 8107, 8013, 2013
8203, 340, 347, 5414, 339, 4905, 8109, 7536, 2001, 2014, 7954
8204, 444, 5403, 347, 453, 7854, 8108, 8110, 2201, 6921, 7867
8205, 347, 5403, 444, 346, 8108, 7854, 8110, 2013, 8013, 7993
8206, 347, 5440, 444, 453, 7504, 6911, 8110, 7867, 6909, 2201
8207, 444, 5440, 347, 346, 6911, 7504, 8110, 7993, 7884, 2013
8208, 1417, 1416, 1581, 1580, 1426, 8111, 7368, 8090, 7539, 1587
8209, 1581, 1416, 1417, 4576, 8111, 1426, 7368, 7474, 7567, 7768
8210, 4579, 1733, 1581, 1580, 4599, 4206, 8112, 7748, 4207, 1587
8211, 1581, 1733, 4579, 4576, 4206, 4599, 8112, 7474, 4601, 4603
8212, 1416, 4579, 1581, 1580, 7725, 8112, 8111, 7539, 7748, 1587
8213, 1581, 4579, 1416, 4576, 8112, 7725, 8111, 7474, 4603, 7567
8214, 126, 5409, 212, 3918, 7497, 8076, 1486, 3919, 6741, 3922
8215, 5409, 243, 126, 212, 7503, 4037, 7497, 8076, 1606, 1486
8216, 235, 3991, 5415, 1453, 3999, 8081, 8113, 7274, 7273, 8067
8217, 235, 1686, 5415, 4105, 1687, 6424, 8113, 4108, 4110, 6669
8218, 5415, 1686, 235, 1453, 6424, 1687, 8113, 8067, 7798, 7274
8219, 801, 2667, 2655, 89, 7653, 6374, 8114, 7654, 2671, 2658
8220, 2655, 2667, 801, 3079, 6374, 7653, 8114, 6373, 6375, 7200
8221, 2655, 736, 801, 89, 2660, 7648, 8114, 2658, 737, 7654
8222, 801, 736, 2655, 3079, 7648, 2660, 8114, 7200, 8086, 6373
8223, 328, 5411, 5412, 5403, 8088, 6577, 8115, 7569, 7432, 6365
8224, 5412, 5411, 328, 4660, 6577, 8088, 8115, 6576, 6578, 4662
8225, 5412, 327, 328, 5403, 8069, 1861, 8115, 6365, 7790, 7569
8226, 328, 327, 5412, 4660, 1861, 8069, 8115, 4662, 4661, 6576
8227, 489, 497, 1875, 488, 2239, 8102, 7907, 492, 2240, 8007
8228, 1944, 277, 278, 1704, 8095, 4150, 1945, 7902, 1706, 4149
8229, 1944, 278, 277, 4489, 1945, 4150, 8095, 4510, 4508, 8009
8230, 5415, 398, 397, 389, 6778, 401, 8116, 6948, 2163, 2161
8231, 5415, 397, 398, 1453, 8116, 401, 6778, 8067, 6987, 6103
8232, 388, 5415, 397, 389, 8117, 8116, 2158, 392, 6948, 2161
8233, 388, 397, 5415, 1453, 2158, 8116, 8117, 7858, 6987, 8067
8234, 379, 5415, 388, 389, 8068, 8117, 2151, 2154, 6948, 392
8235, 379, 388, 5415, 1453, 2151, 8117, 8068, 7880, 7858, 8067
8236, 1567, 235, 5415, 4105, 1570, 8113, 6273, 4109, 4108, 6669
8237, 5415, 235, 1567, 3991, 8113, 1570, 6273, 8081, 3999, 4000
8238, 5427, 120, 216, 121, 7572, 8118, 7442, 7723, 1160, 4045
8239, 5427, 216, 120, 1615, 7442, 8118, 7572, 6849, 8020, 4042
8240, 217, 216, 120, 121, 1498, 8118, 4044, 1622, 4045, 1160
8241, 217, 120, 216, 1615, 4044, 8118, 1498, 7766, 4042, 8020
8242, 801, 91, 3079, 1075, 7773, 7920, 7200, 6955, 7774, 3087
8243, 801, 3079, 91, 733, 7200, 7920, 7773, 6836, 8101, 735
8244, 497, 332, 1875, 331, 8119, 4340, 8102, 7838, 1868, 4339
8245, 1875, 332, 497, 489, 4340, 8119, 8102, 7907, 7908, 2239
8246, 498, 5434, 332, 331, 8021, 8025, 8120, 7837, 8022, 1868
8247, 332, 5434, 498, 489, 8025, 8021, 8120, 7908, 8026, 2237
8248, 497, 498, 332, 331, 501, 8120, 8119, 7838, 7837, 1868
8249, 332, 498, 497, 489, 8120, 501, 8119, 7908, 2237, 2239
8250, 360, 5414, 346, 345, 7560, 8107, 4906, 7610, 6450, 2012
8251, 5414, 5403, 5235, 5425, 7434, 8121, 6203, 6390, 6366, 5965
8252, 5414, 5235, 5403, 5416, 6203, 8121, 7434, 6453, 6599, 8011
8253, 5224, 5235, 5403, 5425, 5384, 8121, 7981, 5862, 5965, 6366
8254, 5224, 5403, 5235, 5416, 7981, 8121, 5384, 7121, 8011, 6599
8255, 5434, 30, 5205, 5204, 8071, 5270, 8122, 7999, 5271, 5273
8256, 5205, 30, 5434, 5412, 5270, 8071, 8122, 6480, 7164, 6581
8257, 5434, 5205, 5228, 5204, 8122, 5331, 8123, 7999, 5273, 5332
8258, 5228, 5205, 5434, 5412, 5331, 8122, 8123, 6481, 6480, 6581
8259, 5434, 5228, 5215, 5204, 8123, 5333, 7414, 7999, 5332, 5327
8260, 5215, 5228, 5434, 5412, 5333, 8123, 7414, 7118, 6481, 6581
8261, 127, 243, 5409, 244, 1613, 7503, 7552, 4329, 1607, 6831
8262, 127, 5409, 243, 126, 7552, 7503, 1613, 1166, 7497, 4037
8263, 332, 352, 5434, 333, 4677, 8104, 8025, 1869, 8103, 8024
8264, 332, 5434, 352, 2018, 8025, 8104, 4677, 7767, 8023, 4676
8265, 5434, 352, 5202, 5203, 8104, 5311, 7413, 7412, 5313, 5315
8266, 5434, 5202, 352, 2018, 7413, 5311, 8104, 8023, 7584, 4676
8267, 347, 5414, 360, 340, 8109, 7560, 2099, 4905, 7536, 2100
8268, 347, 360, 5414, 346, 2099, 7560, 8109, 2013, 4906, 8107
*NSET, NSET=FIX
238,
281,
336,
356,
357,
359,
362,
1577,
1582,
1583,
1589,
1729,
1735,
1752,
1753,
1759,
1801,
1802,
1808,
1950,
1951,
1952,
1957,
1958,
1960,
1961,
1966,
1967,
1973,
1974,
1975,
1976,
1981,
1982,
1989,
1990,
1996,
2036,
2037,
2043,
2045,
2046,
2047,
2051,
2052,
2053,
2058,
2059,
2060,
2061,
2062,
2063,
2064,
2065,
2066,
2067,
2068,
2069,
2070,
2072,
2073,
2074,
2075,
2079,
2080,
2081,
2087,
2088,
2089,
2094,
2095,
2096,
2105,
2106,
2107,
2108,
2109,
2110,
2111,
2112,
2113,
2114,
2115,
2116,
2117,
2118,
4195,
4196,
4197,
4198,
4214,
4234,
4244,
4264,
4279,
4290,
4498,
4502,
4556,
4557,
4561,
4562,
4574,
4580,
4582,
4583,
4584,
4585,
4588,
4589,
4628,
4630,
4631,
4633,
4646,
4648,
4649,
4684,
4691,
4692,
4693,
4694,
4695,
4696,
4697,
4698,
4699,
4700,
4701,
4702,
4703,
4704,
4705,
4711,
4712,
4713,
4714,
4715,
4720,
4721,
4722,
4723,
4724,
4725,
4726,
4727,
4728,
4733,
4737,
4738,
4745,
4751,
4759,
4764,
4766,
4770,
4771,
4772,
4773,
4774,
4775,
4776,
4777,
4778,
4779,
4780,
4781,
4782,
4783,
4784,
4785,
4786,
4787,
4788,
4789,
4790,
4791,
4792,
4793,
4794,
4795,
4796,
4797,
4798,
4800,
4805,
4807,
4808,
4811,
4813,
4815,
4817,
4818,
4819,
4821,
4822,
4831,
4832,
4833,
4834,
4847,
4848,
4852,
4853,
4855,
4856,
4857,
4858,
4859,
4873,
4877,
4878,
4883,
4885,
4886,
4888,
4889,
4890,
4891,
4892,
4893,
4896,
4897,
4898,
4899,
4900,
4902,
4903,
4904,
4908,
4915,
4916,
4918,
4919,
4926,
4937,
4938,
4939,
4948,
4949,
4951,
4952,
4953,
4954,
4955,
4964,
4965,
4966,
4967,
4968,
4969,
4970,
4971,
4972,
4973,
4974,
4975,
4976,
4977,
4978,
4979,
4980,
4981,
4982,
4983,
4984,
4985,
4986,
4987,
4988,
4989,
*MATERIAL, NAME=MAT
*ELASTIC
3500, 0.36
*SOLID SECTION, ELSET=EALL, MATERIAL=MAT
*STEP
*STATIC
*BOUNDARY
FIX, 1, 3, 0.0
*CLOAD
968, 2, 0.0209133311
969, 2, 0.0374182662
970, 2, 0.038966926
981, 2, 0.038447955
987, 2, 0.0681824621
994, 2, 0.173119445
995, 2, 0.139958635
996, 2, 0.175795651
997, 2, 0.127316447
998, 2, 0.159306676
999, 2, 0.141522764
1000, 2, 0.173148736
1009, 2, 0.0459786232
1010, 2, 0.0423220531
1011, 2, 0.0412629058
1024, 2, 0.045306026
1025, 2, 0.032909559
1026, 2, 0.0267302696
1034, 2, 0.036083003
1040, 2, 0.0359749873
1052, 2, 0.0363572809
1053, 2, 0.0806708022
1063, 2, 0.0807768253
1079, 2, 0.0837494059
1103, 2, 0.0179779927
1110, 2, 0.111738621
1111, 2, 0.161303332
1118, 2, 0.160521356
1119, 2, 0.137117226
1120, 2, 0.157317776
1121, 2, 0.184492168
1122, 2, 0.162830143
1123, 2, 0.158947275
1124, 2, 0.185000401
1134, 2, 0.0177981741
1150, 2, 0.0181168542
2887, 2, 0.044945366
2888, 2, 0.0476470335
2889, 2, 0.0551478584
2890, 2, 0.103161072
2891, 2, 0.0782398222
2892, 2, 0.0863187033
2893, 2, 0.188870827
2894, 2, 0.153022069
2895, 2, 0.188892814
2896, 2, 0.15303766
2897, 2, 0.090097526
2898, 2, 0.0900974006
2899, 2, 0.0874885011
2900, 2, 0.0873293914
2905, 2, 0.0457659183
2909, 2, 0.0284611716
2910, 2, 0.094876088
2917, 2, 0.0318943151
2923, 2, 0.0890089918
2931, 2, 0.0846803584
2936, 2, 0.0213253559
2938, 2, 0.0914406512
2941, 2, 0.0283021874
2943, 2, 0.0948823587
2944, 2, 0.061962337
2945, 2, 0.0654428662
2946, 2, 0.12147316
2947, 2, 0.0693597831
2948, 2, 0.1290169
2949, 2, 0.0964603224
2950, 2, 0.110609058
2951, 2, 0.0302898293
2952, 2, 0.0685814721
2953, 2, 0.0627119038
2954, 2, 0.147392262
2955, 2, 0.137197403
2956, 2, 0.10919293
2957, 2, 0.171063455
2958, 2, 0.121953286
2959, 2, 0.185881249
2960, 2, 0.168362875
2961, 2, 0.103384933
2962, 2, 0.119673512
2963, 2, 0.0653526095
2964, 2, 0.0868196919
2965, 2, 0.127300635
2966, 2, 0.172423124
2967, 2, 0.17612101
2968, 2, 0.138710957
2969, 2, 0.171410153
2970, 2, 0.0629356335
3017, 2, 0.0457440134
3031, 2, 0.057592781
3039, 2, 0.057592781
3040, 2, 0.103336794
3052, 2, 0.0461726596
3057, 2, 0.05978411
3066, 2, 0.10595677
3067, 2, 0.05978411
3106, 2, 0.0478564215
3107, 2, 0.0478564215
3124, 2, 0.0209133311
3126, 2, 0.0413146263
3128, 2, 0.0191753663
3130, 2, 0.0471729266
3131, 2, 0.0444132015
3132, 2, 0.0176415701
3133, 2, 0.0462913953
3144, 2, 0.0157871415
3145, 2, 0.0191753663
3146, 2, 0.0386951302
3148, 2, 0.0157871415
3149, 2, 0.0327916048
3164, 2, 0.0365242273
3167, 2, 0.0170044633
3179, 2, 0.0556572859
3180, 2, 0.0767480366
3181, 2, 0.0560813352
3182, 2, 0.0838146293
3183, 2, 0.0210907507
3184, 2, 0.0277332941
3225, 2, 0.159846359
3226, 2, 0.15971996
3227, 2, 0.158073305
3228, 2, 0.155796736
3229, 2, 0.156059193
3230, 2, 0.157711791
3231, 2, 0.157422175
3232, 2, 0.155609375
3233, 2, 0.158917529
3234, 2, 0.157663805
3235, 2, 0.157167296
3236, 2, 0.158972223
3237, 2, 0.155998057
3258, 2, 0.0175174516
3259, 2, 0.0282781122
3261, 2, 0.0220125172
3262, 2, 0.0233260073
3263, 2, 0.0221161342
3264, 2, 0.0250348692
3265, 2, 0.0129607185
3266, 2, 0.0235156884
3274, 2, 0.0134968258
3278, 2, 0.0134968258
3279, 2, 0.0278008402
3284, 2, 0.0147464209
3285, 2, 0.0227970113
3286, 2, 0.0272366695
3287, 2, 0.0253721024
3289, 2, 0.015881196
3290, 2, 0.0301852104
3292, 2, 0.0290504353
3293, 2, 0.0286769855
3294, 2, 0.0139305647
3307, 2, 0.0267302696
3311, 2, 0.0474541481
3321, 2, 0.0134117109
3322, 2, 0.0287715699
3324, 2, 0.0310997028
3325, 2, 0.0364637224
3326, 2, 0.0317027128
3327, 2, 0.0397917143
3337, 2, 0.0271235908
3340, 2, 0.0271235908
3341, 2, 0.0461914265
3345, 2, 0.0354106895
3346, 2, 0.0163428538
3352, 2, 0.0359749873
3353, 2, 0.05395298
3354, 2, 0.0540609957
3355, 2, 0.036083003
3370, 2, 0.0349267888
3377, 2, 0.0363572809
3378, 2, 0.054474135
3379, 2, 0.0530436429
3385, 2, 0.0346041658
3386, 2, 0.0346041658
3401, 2, 0.0177981741
3403, 2, 0.0358929844
3404, 2, 0.0536911585
3410, 2, 0.165818466
3411, 2, 0.139806335
3412, 2, 0.190437485
3413, 2, 0.186707541
3414, 2, 0.172091566
3415, 2, 0.138825627
3416, 2, 0.164891797
3417, 2, 0.188350087
3418, 2, 0.190435839
3419, 2, 0.16627587
*NODE FILE
U
*EL FILE
S
*END STEP
