*NODE, NSET=NALL
1, 28.5569594, -18.9740938, -9.5
2, 28.5569594, -18.9740938, 9.5
3, 28, -19, 9.5
4, 28, -19, -9.5
5, 29.1091091, -18.8965988, -9.5
6, 29.1091091, -18.8965988, 9.5
7, 29.6516813, -18.7681842, -9.5
8, 29.6516813, -18.7681842, 9.5
9, 30.1799905, -18.589959, -9.5
10, 30.1799905, -18.589959, 9.5
11, 30.6894746, -18.3634621, -9.5
12, 30.6894746, -18.3634621, 9.5
13, 31.175734, -18.0906496, -9.5
14, 31.175734, -18.0906496, 9.5
15, 31.6345696, -17.7738772, -9.5
16, 31.6345696, -17.7738772, 9.5
17, 32.0620192, -17.4158804, -9.5
18, 32.0620192, -17.4158804, 9.5
19, 32.4543916, -17.0197507, -9.5
20, 32.4543916, -17.0197507, 9.5
21, 32.8082985, -16.5889087, -9.5
22, 32.8082985, -16.5889087, 9.5
23, 33.1206837, -16.1270751, -9.5
24, 33.1206837, -16.1270751, 9.5
25, 33.3888497, -15.6382378, -9.5
26, 33.3888497, -15.6382378, 9.5
27, 33.6104808, -15.1266183, -9.5
28, 33.6104808, -15.1266183, 9.5
29, 33.783663, -14.5966346, -9.5
30, 33.783663, -14.5966346, 9.5
31, 33.906901, -14.0528632, -9.5
32, 33.906901, -14.0528632, 9.5
33, 33.9791304, -13.5, -9.5
34, 33.9791304, -13.5, 9.5
35, 34, -13.5, -9.5
36, 34, -13.5, 9.5
37, 34, 1.52771652e-15, -9.5
38, 34, 1.23999883, -9.41872618
39, 34, 2.45878093, -9.17629535
40, 34, 3.63549261, -8.77685556
41, 34, 4.75, -8.22724134
42, 34, 5.78323358, -7.53685673
43, 34, 6.71751442, -6.71751442
44, 34, 7.53685673, -5.78323358
45, 34, 8.22724134, -4.75
46, 34, 8.77685556, -3.63549261
47, 34, 9.17629535, -2.45878093
48, 34, 9.41872618, -1.23999883
49, 34, 9.5, -1.16341446e-15
50, 34, 9.41872618, 1.23999883
51, 34, 9.17629535, 2.45878093
52, 34, 8.77685556, 3.63549261
53, 34, 8.22724134, 4.75
54, 34, 7.53685673, 5.78323358
55, 34, 6.71751442, 6.71751442
56, 34, 5.78323358, 7.53685673
57, 34, 4.75, 8.22724134
58, 34, 3.63549261, 8.77685556
59, 34, 2.45878093, 9.17629535
60, 34, 1.23999883, 9.41872618
61, 34, -3.64302058e-16, 9.5
62, 34, -4.6291649e-16, -3.39
63, 34, -6, 2.61
64, 34, 6, 2.61
65, 34, 1.00665967e-15, 8.61
66, 37.99, -3.39435072e-13, -9.5
67, 37.99, 1.23999883, -9.41872618
68, 37.99, 2.45878093, -9.17629535
69, 38, -3.64302058e-16, 9.5
70, 38.5, 2.32682892e-15, 9.5
71, 38, 1.52771652e-15, -9.5
72, 37.99, 3.63549261, -8.77685556
73, 37.99, 4.75, -8.22724134
74, 37.99, 5.78323358, -7.53685673
75, 37.99, 6.71751442, -6.71751442
76, 37.99, 7.53685673, -5.78323358
77, 37.99, 8.22724134, -4.75
78, 37.99, 8.77685556, -3.63549261
79, 37.99, 9.17629535, -2.45878093
80, 37.99, 9.41872618, -1.23999883
81, 37.99, 9.5, 1.66856653e-13
82, 37.99, 9.41872618, 1.23999883
83, 37.99, 9.17629535, 2.45878093
84, 37.99, 8.77685556, 3.63549261
85, 37.99, 8.22724134, 4.75
86, 37.99, 7.53685673, 5.78323358
87, 37.99, 6.71751442, 6.71751442
88, 37.99, 5.78323358, 7.53685673
89, 37.99, 4.75, 8.22724134
90, 37.99, 3.63549261, 8.77685556
91, 37.99, 2.45878093, 9.17629535
92, 37.99, 1.23999883, 9.41872618
93, 37.99, 2.32682892e-15, 9.5
94, 38.5, 1.95943488e-15, 8
95, 34.55, -4.6291649e-16, -3.39
96, 34.55, -6, 2.61
97, 34.55, 6, 2.61
98, 34.55, 1.00665967e-15, 8.61
99, 40.45, 1.95943488e-15, 8
100, 34.55, -5.09453068e-16, -3.58
101, 34.55, -6, 2.42
102, 34.55, 6, 2.42
103, 34.55, 9.60123091e-16, 8.42
104, 40.45, 6, 1.2
105, 40.45, -8.08266887e-16, -4.8
106, 40.45, 7.34788079e-16, 3
107, 40.45, 6.61309272e-16, 7.2
108, 40.45, -6, 1.2
109, 37.5, -5.09453068e-16, -3.58
110, 37.5, -6, 2.42
111, 37.5, 6, 2.42
112, 37.5, 9.60123091e-16, 8.42
113, 37.5, 6, 1.2
114, 37.5, -8.08266887e-16, -4.8
115, 38.5, 7.34788079e-16, 3
116, 37.5, 6.61309272e-16, 7.2
117, 37.5, -6, 1.2
118, 38, -13.5, -9.5
119, 37.9614778, -14.2841371, -9.5
120, 37.8462822, -15.0607226, -9.5
121, 37.6555227, -15.8222774, -9.5
122, 37.3910363, -16.5614675, -9.5
123, 37.0553701, -17.2711739, -9.5
124, 36.6517569, -17.9445619, -9.5
125, 36.1840836, -18.5751463, -9.5
126, 35.6568542, -19.1568542, -9.5
127, 35.0751463, -19.6840836, -9.5
128, 34.4445619, -20.1517569, -9.5
129, 34, -20.418217, -9.5
130, 34, -21.5, -9.5
131, 17.5, -21.5, -9.5
132, 17.5, -19.01, -9.5
133, 17.5, -19, -9.5
134, 17.5, -19, 9.5
135, 17.5, -18.5, 9.5
136, 25.5777472, -19, 5
137, 25.5777472, -19, -5
138, 16.2600012, -19.01, -9.41872618
139, 15.0412191, -19.01, -9.17629535
140, 13.8645074, -19.01, -8.77685556
141, 12.75, -19.01, -8.22724134
142, 11.7167664, -19.01, -7.53685673
143, 10.7824856, -19.01, -6.71751442
144, 9.96314327, -19.01, -5.78323358
145, 9.27275866, -19.01, -4.75
146, 8.72314444, -19.01, -3.63549261
147, 8.32370465, -19.01, -2.45878093
148, 8.08127382, -19.01, -1.23999883
149, 8, -19.01, -1.22853825e-13
150, 8.08127382, -19.01, 1.23999883
151, 8.32370465, -19.01, 2.45878093
152, 8.72314444, -19.01, 3.63549261
153, 9.27275866, -19.01, 4.75
154, 9.96314327, -19.01, 5.78323358
155, 10.7824856, -19.01, 6.71751442
156, 11.7167664, -19.01, 7.53685673
157, 12.75, -19.01, 8.22724134
158, 13.8645074, -19.01, 8.77685556
159, 15.0412191, -19.01, 9.17629535
160, 16.2600012, -19.01, 9.41872618
161, 17.5, -19.01, 9.5
162, 16.2600012, -21.5, 9.41872618
163, 17.5, -21.5, 9.5
164, 15.0412191, -21.5, 9.17629535
165, 13.8645074, -21.5, 8.77685556
166, 12.75, -21.5, 8.22724134
167, 11.7167664, -21.5, 7.53685673
168, 10.7824856, -21.5, 6.71751442
169, 9.96314327, -21.5, 5.78323358
170, 9.27275866, -21.5, 4.75
171, 8.72314444, -21.5, 3.63549261
172, 8.32370465, -21.5, 2.45878093
173, 8.08127382, -21.5, 1.23999883
174, 8, -21.5, 2.38929922e-15
175, 8.08127382, -21.5, -1.23999883
176, 8.32370465, -21.5, -2.45878093
177, 8.72314444, -21.5, -3.63549261
178, 9.27275866, -21.5, -4.75
179, 9.96314327, -21.5, -5.78323358
180, 10.7824856, -21.5, -6.71751442
181, 11.7167664, -21.5, -7.53685673
182, 12.75, -21.5, -8.22724134
183, 13.8645074, -21.5, -8.77685556
184, 15.0412191, -21.5, -9.17629535
185, 16.2600012, -21.5, -9.41872618
186, 17.5, -18.5, 8
187, 17.5, -16.55, 8
188, 36.1840836, -18.5751463, -5
189, 36, -18.7782513, -5
190, 36, -21.5, -5
191, 19.7037241, -21.5, -5
192, 19.7037241, -24, -5
193, 33, -24, -5
194, 33.441018, -23.9771282, -5
195, 33.8287211, -23.9147499, -5
196, 34.2084432, -23.8146704, -5
197, 34.5765273, -23.6778536, -5
198, 34.9294286, -23.505617, -5
199, 35.2637484, -23.2996195, -5
200, 35.5762671, -23.0618447, -5
201, 35.863975, -22.7945828, -5
202, 36.1241011, -22.5004075, -5
203, 36.3541405, -22.1821519, -5
204, 36.5518777, -21.8428809, -5
205, 36.7154084, -21.4858621, -5
206, 36.8431576, -21.1145335, -5
207, 36.9338951, -20.7324714, -5
208, 36.9867471, -20.3433552, -5
209, 37.0012045, -19.9509323, -5
210, 37, -17.3635534, -5
211, 36.6517569, -17.9445619, -5
212, 35.6568542, -19.1568542, -5.02965714
213, 37.0553701, -17.2711739, -4.9984659
214, 38, -20, -4
215, 38, -13.5, -4
216, 37.3910363, -16.5614675, -4.92037527
217, 37.6555227, -15.8222774, -4.75517548
218, 37.8462822, -15.0607226, -4.5327348
219, 37.9614778, -14.2841371, -4.27488255
220, 37.9759236, -20.4900857, -4
221, 37.9039264, -20.9754516, -4
222, 37.7847017, -21.4514234, -4
223, 37.6193977, -21.9134172, -4
224, 37.4096063, -22.3569837, -4
225, 37.1573481, -22.7778512, -4
226, 36.8650523, -23.1719664, -4
227, 36.5355339, -23.5355339, -4
228, 36.1719664, -23.8650523, -4
229, 35.7778512, -24.1573481, -4
230, 35.3569837, -24.4096063, -4
231, 34.9134172, -24.6193977, -4
232, 34.4514234, -24.7847017, -4
233, 33.9754516, -24.9039264, -4
234, 33.4900857, -24.9759236, -4
235, 33, -25, -4
236, 18.8624977, -25, -4
237, 17.5, -25, -3.58
238, 17.5, -19.5, -3.58
239, 15.5327527, -21.5, -4.59062488
240, 15.5327527, -24, -4.59062488
241, 15.6712066, -24.6258638, -4.41509794
242, 16.4289364, -25, -3.82992561
243, 35.0751463, -19.6840836, -5.22668514
244, 34.4445619, -20.1517569, -5.74277599
245, 34, -20.418217, -7
246, 34, -21.5, -7
247, 37.9759236, -20.4900857, 4
248, 38, -20, 4
249, 37.9039264, -20.9754516, 4
250, 37.7847017, -21.4514234, 4
251, 37.6193977, -21.9134172, 4
252, 37.4096063, -22.3569837, 4
253, 37.1573481, -22.7778512, 4
254, 36.8650523, -23.1719664, 4
255, 36.5355339, -23.5355339, 4
256, 36.1719664, -23.8650523, 4
257, 35.7778512, -24.1573481, 4
258, 35.3569837, -24.4096063, 4
259, 34.9134172, -24.6193977, 4
260, 34.4514234, -24.7847017, 4
261, 33.9754516, -24.9039264, 4
262, 33.4900857, -24.9759236, 4
263, 33, -25, 4
264, 15.9711179, -25, -3.69104787
265, 15.2804072, -25, -3.32185532
266, 14.6749943, -25, -2.82500574
267, 14.1781447, -25, -2.21959277
268, 13.8089521, -25, -1.52888209
269, 13.6700744, -25, -1.07106355
270, 13.6700744, -25, 1.07106355
271, 13.8089521, -25, 1.52888209
272, 14.1781447, -25, 2.21959277
273, 14.6749943, -25, 2.82500574
274, 15.2804072, -25, 3.32185532
275, 15.9711179, -25, 3.69104787
276, 16.4289364, -25, 3.82992561
277, 18.8624977, -25, 4
278, 23.5, -25, 2.42
279, 14.7221488, -24, -4.15734806
280, 14.7221488, -21.5, -4.15734806
281, 17.5, -19.5, -4.8
282, 13.9644661, -24, -3.53553391
283, 13.9644661, -21.5, -3.53553391
284, 13.3426519, -24, -2.77785117
285, 13.3426519, -21.5, -2.77785117
286, 12.9093751, -24, -1.96724726
287, 12.9093751, -21.5, -1.96724726
288, 11.5, -21.5, 2.42
289, 11.5, -19.5, 2.42
290, 12.9093751, -21.5, 1.96724726
291, 12.9093751, -24, 1.96724726
292, 13.0849021, -24.6258638, 1.82879345
293, 13.0849021, -24.6258638, -1.82879345
294, 13.3426519, -24, 2.77785117
295, 13.3426519, -21.5, 2.77785117
296, 13.9644661, -24, 3.53553391
297, 13.9644661, -21.5, 3.53553391
298, 14.7221488, -24, 4.15734806
299, 14.7221488, -21.5, 4.15734806
300, 15.5327527, -24, 4.59062488
301, 15.5327527, -21.5, 4.59062488
302, 17.5, -21.5, 8.42
303, 17.5, -19.5, 8.42
304, 19.7037241, -21.5, 5
305, 19.7037241, -24, 5
306, 15.6712066, -24.6258638, 4.41509794
307, 36.1840836, -18.5751463, 5
308, 36, -18.7782513, 5
309, 36, -21.5, 5
310, 33, -24, 5
311, 33.441018, -23.9771282, 5
312, 33.8287211, -23.9147499, 5
313, 34.2084432, -23.8146704, 5
314, 34.5765273, -23.6778536, 5
315, 34.9294286, -23.505617, 5
316, 35.2637484, -23.2996195, 5
317, 35.5762671, -23.0618447, 5
318, 35.863975, -22.7945828, 5
319, 36.1241011, -22.5004075, 5
320, 36.3541405, -22.1821519, 5
321, 36.5518777, -21.8428809, 5
322, 36.7154084, -21.4858621, 5
323, 36.8431576, -21.1145335, 5
324, 36.9338951, -20.7324714, 5
325, 36.9867471, -20.3433552, 5
326, 37.0012045, -19.9509323, 5
327, 37, -17.3635534, 5
328, 36.6517569, -17.9445619, 5
329, 37.9614778, -14.2841371, 4.27488255
330, 38, -13.5, 4
331, 37.8462822, -15.0607226, 4.5327348
332, 37.6555227, -15.8222774, 4.75517548
333, 37.3910363, -16.5614675, 4.92037527
334, 37.0553701, -17.2711739, 4.9984659
335, 23.5, -19.5, 2.42
336, 17.5, -16.55, -4.8
337, 11.5, -19.5, 1.2
338, 17.5, -19.5, 7.2
339, 35.6568542, -19.1568542, 5.02965714
340, 35.6568542, -19.1568542, 9.5
341, 36.1840836, -18.5751463, 9.5
342, 36.6517569, -17.9445619, 9.5
343, 37.0553701, -17.2711739, 9.5
344, 34, -21.5, 7
345, 34, -20.418217, 7
346, 34.4445619, -20.1517569, 5.74277599
347, 35.0751463, -19.6840836, 5.22668514
348, 34, -21.5, 9.5
349, 34, -20.418217, 9.5
350, 37.9614778, -14.2841371, 9.5
351, 38, -13.5, 9.5
352, 37.8462822, -15.0607226, 9.5
353, 37.6555227, -15.8222774, 9.5
354, 37.3910363, -16.5614675, 9.5
355, 23.5, -19.5, 1.2
356, 11.5, -16.55, 1.2
357, 17.5, -16.55, 3
358, 17.5, -16.55, 7.2
359, 23.5, -16.55, 1.2
360, 35.0751463, -19.6840836, 9.5
361, 34.4445619, -20.1517569, 9.5
362, 17.5, -18.5, 3
363, 28.5569594, -18.9740938, -4.75016746
364, 28.5569594, -18.9740938, 0.000986495659
365, 28.5569594, -18.9740938, 4.75
366, 28.5569594, -18.9740938, -7.12487494
367, 28.5569594, -18.9740938, -2.37414424
368, 28.5569594, -18.9740938, 2.3750308
369, 28.5569594, -18.9740938, 7.1250992
370, 28.2783592, -18.9870525, 9.5
371, 28, -19, -4.75016325
372, 28, -19, -0.0029534573
373, 28, -19, 4.75
374, 28, -19, -7.1254526
375, 28, -19, -2.37439075
376, 28, -19, 2.376117
377, 28, -19, 7.12539165
378, 28.2784797, -18.9870469, -9.5
379, 29.1091091, -18.8965988, -4.74870245
380, 29.1091091, -18.8965988, -0.000112705489
381, 29.1091091, -18.8965988, 4.75
382, 29.1091091, -18.8965988, -7.12500635
383, 29.1091091, -18.8965988, -2.37516969
384, 29.1091091, -18.8965988, 2.37486749
385, 29.1091091, -18.8965988, 7.12509267
386, 28.8330076, -18.93535, 9.5
387, 28.8330342, -18.9353463, -9.5
388, 29.6516813, -18.7681842, -4.75
389, 29.6516813, -18.7681842, -0.000297476132
390, 29.6516813, -18.7681842, 4.74859967
391, 29.6516813, -18.7681842, -7.125
392, 29.6516813, -18.7681842, -2.37421975
393, 29.6516813, -18.7681842, 2.37489567
394, 29.6516813, -18.7681842, 7.12516572
395, 29.3804547, -18.8323774, 9.5
396, 29.3803952, -18.8323915, -9.5
397, 30.1799905, -18.589959, -4.75002041
398, 30.1799905, -18.589959, -0.00088403641
399, 30.1799905, -18.589959, 4.75063555
400, 30.1799905, -18.589959, -7.12500438
401, 30.1799905, -18.589959, -2.37452608
402, 30.1799905, -18.589959, 2.37476681
403, 30.1799905, -18.589959, 7.12513955
404, 29.9158292, -18.6790738, 9.5
405, 29.9158359, -18.6790716, -9.5
406, 30.6894746, -18.3634621, -4.74987291
407, 30.6894746, -18.3634621, 0.000136138293
408, 30.6894746, -18.3634621, 4.75
409, 30.6894746, -18.3634621, -7.1249851
410, 30.6894746, -18.3634621, -2.37504797
411, 30.6894746, -18.3634621, 2.37474373
412, 30.6894746, -18.3634621, 7.125
413, 30.4347352, -18.4767094, 9.5
414, 30.4347326, -18.4767106, -9.5
415, 31.175734, -18.0906496, -4.74999521
416, 31.175734, -18.0906496, 0.000178282486
417, 31.175734, -18.0906496, 4.75
418, 31.175734, -18.0906496, -7.12502753
419, 31.175734, -18.0906496, -2.37504207
420, 31.175734, -18.0906496, 2.37468745
421, 31.175734, -18.0906496, 7.125
422, 30.9326043, -18.2270559, 9.5
423, 30.9326043, -18.2270559, -9.5
424, 31.6345696, -17.7738772, -4.74993877
425, 31.6345696, -17.7738772, -1.88030928e-05
426, 31.6345696, -17.7738772, 4.75
427, 31.6345696, -17.7738772, -7.1250022
428, 31.6345696, -17.7738772, -2.37500831
429, 31.6345696, -17.7738772, 2.3750544
430, 31.6345696, -17.7738772, 7.12515646
431, 31.4051518, -17.9322634, 9.5
432, 31.4051518, -17.9322634, -9.5
433, 32.0620192, -17.4158804, -4.75007151
434, 32.0620192, -17.4158804, -8.75958042e-06
435, 32.0620192, -17.4158804, 4.75004806
436, 32.0620192, -17.4158804, -7.12503859
437, 32.0620192, -17.4158804, -2.37500647
438, 32.0620192, -17.4158804, 2.37502794
439, 32.0620192, -17.4158804, 7.12529047
440, 31.8483192, -17.5948581, 9.5
441, 31.8482944, -17.5948788, -9.5
442, 32.4543916, -17.0197507, -4.75
443, 32.4543916, -17.0197507, -0.000101364678
444, 32.4543916, -17.0197507, 4.74996624
445, 32.4543916, -17.0197507, -7.12506702
446, 32.4543916, -17.0197507, -2.37499368
447, 32.4543916, -17.0197507, 2.37499305
448, 32.4543916, -17.0197507, 7.12498235
449, 32.2582054, -17.2178156, 9.5
450, 32.2582054, -17.2178156, -9.5
451, 32.8082985, -16.5889087, -4.75
452, 32.8082985, -16.5889087, 0.000352638472
453, 32.8082985, -16.5889087, 4.75
454, 32.8082985, -16.5889087, -7.125
455, 32.8082985, -16.5889087, -2.37472768
456, 32.8082985, -16.5889087, 2.37448029
457, 32.8082985, -16.5889087, 7.125
458, 32.631345, -16.8043297, 9.5
459, 32.631345, -16.8043297, -9.5
460, 33.1206837, -16.1270751, -4.75
461, 33.1206837, -16.1270751, 0.000112911465
462, 33.1206837, -16.1270751, 4.75
463, 33.1206837, -16.1270751, -7.125
464, 33.1206837, -16.1270751, -2.37555324
465, 33.1206837, -16.1270751, 2.37545104
466, 33.1206837, -16.1270751, 7.125
467, 32.9644911, -16.3579919, 9.5
468, 32.9644911, -16.3579919, -9.5
469, 33.3888497, -15.6382378, -4.75083403
470, 33.3888497, -15.6382378, 0.000318889647
471, 33.3888497, -15.6382378, 4.74666791
472, 33.3888497, -15.6382378, -7.12506529
473, 33.3888497, -15.6382378, -2.37536401
474, 33.3888497, -15.6382378, 2.37601739
475, 33.3888497, -15.6382378, 7.12495211
476, 33.2547605, -15.8826678, 9.5
477, 33.2547667, -15.8826565, -9.5
478, 33.6104808, -15.1266183, -4.74889629
479, 33.6104808, -15.1266183, 7.1397794e-05
480, 33.6104808, -15.1266183, 4.75126726
481, 33.6104808, -15.1266183, -7.1250191
482, 33.6104808, -15.1266183, -2.37504595
483, 33.6104808, -15.1266183, 2.3751282
484, 33.6104808, -15.1266183, 7.12498784
485, 33.4996531, -15.382456, 9.5
486, 33.4996589, -15.3824428, -9.5
487, 33.783663, -14.5966346, -4.75
488, 33.783663, -14.5966346, 2.70757132e-05
489, 33.783663, -14.5966346, 4.75
490, 33.783663, -14.5966346, -7.125
491, 33.783663, -14.5966346, -2.37520885
492, 33.783663, -14.5966346, 2.37509093
493, 33.783663, -14.5966346, 7.125
494, 33.6970685, -14.8616369, 9.5
495, 33.6970719, -14.8616265, -9.5
496, 33.906901, -14.0528632, -4.75
497, 33.906901, -14.0528632, -1.17534886e-05
498, 33.906901, -14.0528632, 4.75
499, 33.906901, -14.0528632, -7.12509306
500, 33.906901, -14.0528632, -2.37496595
501, 33.906901, -14.0528632, 2.37509386
502, 33.906901, -14.0528632, 7.12531786
503, 33.8452814, -14.3247517, 9.5
504, 33.8452794, -14.3247604, -9.5
505, 33.9791304, -13.5, -4.75
506, 33.9791304, -13.5, 5.64776181e-06
507, 33.9791304, -13.5, 4.75
508, 33.9791304, -13.5, -7.12502799
509, 33.9791304, -13.5, -2.37501165
510, 33.9791304, -13.5, 2.3749714
511, 33.9791304, -13.5, 7.125
512, 33.9430208, -13.7763921, 9.5
513, 33.9430157, -13.7764316, -9.5
514, 33.9895652, -13.5, -9.5
515, 34, -13.5, 4.75
516, 34, -13.5, 0.00107886162
517, 34, -13.5, -4.75
518, 34, -13.5, 7.125
519, 34, -13.5, 2.37376015
520, 34, -13.5, -2.37610147
521, 34, -13.5, -7.125
522, 33.9895667, -13.5, 9.5
523, 34, -9, -9.5
524, 34, -4.5, -9.5
525, 34, -11.25, -9.5
526, 34, -6.75, -9.5
527, 34, -2.25039906, -9.5
528, 34, 0.619999413, -9.45936309
529, 34, 1.84938988, -9.29751077
530, 34, 3.04791926, -8.97630983
531, 34, 4.1927463, -8.50204845
532, 34, 5.26661679, -7.88204903
533, 34, 6.250374, -7.12718558
534, 34, 7.12718558, -6.250374
535, 34, 7.88187772, -5.26687317
536, 34, 8.50152133, -4.19381519
537, 34, 8.97538276, -3.05065032
538, 34, 9.30279948, -1.82280174
539, 34, 9.45894516, -0.626375774
540, 34, 9.46172526, 0.583959687
541, 34, 9.29484766, 1.8627782
542, 34, 8.97572326, 3.04964727
543, 34, 8.50139, 4.19408151
544, 34, 7.88139162, 5.26760068
545, 34, 7.12720939, 6.25034685
546, 34, 6.25058709, 7.1269987
547, 34, 5.26685995, 7.88188656
548, 34, 4.19255934, 8.50214065
549, 34, 3.04713677, 8.97657545
550, 34, 1.86324201, 9.29475541
551, 34, 0.592987734, 9.46113353
552, 34, -4.49373998, 9.5
553, 34, -8.99992098, 9.5
554, 34, -2.2662501, 9.5
555, 34, -6.75003365, 9.5
556, 34, -11.2502279, 9.5
557, 34, -2.04058017, -4.37269162
558, 34, -2.54584229, -6.57514087
559, 34, -1.13243656, -8.35152875
560, 34, 1.13243656, -8.35152875
561, 34, 2.54456185, -6.58077964
562, 34, 2.04058017, -4.37269162
563, 34, -1.13243656, -3.64847125
564, 34, -2.54305833, -5.41267186
565, 34, -2.02289203, -7.64924463
566, 34, 1.71233505e-14, -8.61
567, 34, 2.04058017, -7.62730838
568, 34, 2.54456185, -5.41922036
569, 34, 1.14131327, -3.65276673
570, 34, -8.03695343, 1.6318458
571, 34, -8.54632033, -0.573020736
572, 34, -7.14390671, -2.34597047
573, 34, -4.86756344, -2.35152875
574, 34, -3.45543815, -0.580779638
575, 34, -3.9577445, 1.62520536
576, 34, -7.134655, 2.35045911
577, 34, -8.54581214, 0.575274335
578, 34, -8.02864622, -1.64216154
579, 34, -6.00033127, -2.60999998
580, 34, -3.96646497, -1.63610369
581, 34, -3.45520434, 0.579754297
582, 34, -4.86851931, 2.35198883
583, 34, 3.95941983, 1.62730838
584, 34, 3.45543815, -0.580779638
585, 34, 4.87077729, -2.35307375
586, 34, 7.14204233, -2.34687863
587, 34, 8.54409385, -0.582826293
588, 34, 8.04398318, 1.62303196
589, 34, 4.86756344, 2.35152875
590, 34, 3.45532628, 0.580289305
591, 34, 3.95999501, -1.62802938
592, 34, 5.99574443, -2.60999653
593, 34, 8.03440439, -1.63502256
594, 34, 8.54205115, 0.591672166
595, 34, 7.13325836, 2.35113281
596, 34, -2.03970968, 7.62839934
597, 34, -2.54456185, 5.41922036
598, 34, -1.13243656, 3.64847125
599, 34, 1.13243656, 3.64847125
600, 34, 2.54456185, 5.41922036
601, 34, 2.04058017, 7.62730838
602, 34, -1.10295956, 8.36549788
603, 34, -2.54478117, 6.5798179
604, 34, -2.02809306, 4.35715535
605, 34, 1.85929266e-14, 3.39
606, 34, 2.03472048, 4.36537082
607, 34, 2.54456185, 6.58077964
608, 34, 1.13243656, 8.35152875
609, 35.9944137, 1.52771652e-15, -9.5
610, 37.99, 0.61256439, -9.45985041
611, 37.99, 0.294739089, -9.48068178
612, 37.99, 0.929043911, -9.43910724
613, 35.9918832, 1.23999883, -9.41872618
614, 37.99, 1.84705623, -9.29797496
615, 37.99, 1.52548134, -9.36194018
616, 37.99, 2.16321727, -9.23508662
617, 35.9915919, 2.45878093, -9.17629535
618, 37.99, 0.625177767, -9.47940677
619, 37.99, 0.213722856, -9.49759562
620, 37.99, 0.996532477, -9.44758821
621, 38.2449374, 2.32682892e-15, 9.5
622, 38.5, -4.74685808, 8.22905452
623, 38.5, -8.22261566, 4.75800292
624, 38.5, -9.5, 0.000135116168
625, 38.5, -8.22669981, -4.75093783
626, 38.5, -4.74882376, -8.22792033
627, 38.5, 0.00494646087, -9.49999871
628, 38.5, 4.73606493, -8.23527103
629, 38.5, 8.2235762, -4.75634255
630, 38.5, 9.49999986, 0.00164880666
631, 38.5, 8.2196601, 4.76310695
632, 38.5, 4.75, 8.22724134
633, 38.5, -2.46895901, 9.17356209
634, 38.5, -6.72180695, 6.71321915
635, 38.5, -9.17647375, 2.45811503
636, 38.5, -9.17613139, -2.45939275
637, 38.5, -6.72119023, -6.7138366
638, 38.5, -2.46844228, -9.17370115
639, 38.5, 2.47106027, -9.1729963
640, 38.5, 6.72383362, -6.71118927
641, 38.5, 9.17701672, -2.45608714
642, 38.5, 9.17661915, 2.45757217
643, 38.5, 6.72194259, 6.71308333
644, 38.5, 2.46817626, 9.17377272
645, 38, -4.70201526, 8.25475938
646, 38, -8.22246031, 4.75827136
647, 38, -9.49999972, 0.00229110468
648, 38, -8.23191307, -4.74189911
649, 38, -4.7053708, -8.25284712
650, 38, -2.60298584, 9.13643611
651, 38, -6.71187504, 6.72314907
652, 38, -9.178404, 2.4508978
653, 38, -9.17743924, -2.45450789
654, 38, -6.71257529, -6.72244993
655, 38, -2.60060469, -9.13711416
656, 37.9952147, 1.52771652e-15, -9.5
657, 37.99, 1.85189195, -9.31775167
658, 37.99, 1.52062672, -9.37751003
659, 37.99, 2.20261051, -9.24113126
660, 37.99, 3.05953686, -8.99384424
661, 37.99, 2.70782233, -9.10591556
662, 37.99, 3.36800834, -8.88293419
663, 37.99, 4.20065624, -8.52082667
664, 37.99, 3.85522346, -8.68258326
665, 37.99, 4.53430125, -8.34806038
666, 37.99, 5.27914871, -7.89813832
667, 37.99, 4.96174874, -8.10129924
668, 37.99, 5.5923539, -7.67955584
669, 37.99, 6.26328775, -7.14291443
670, 37.99, 6.00429883, -7.36195596
671, 37.99, 6.52865818, -6.90120441
672, 37.99, 7.14566986, -6.26014395
673, 37.99, 6.90467079, -6.52499206
674, 37.99, 7.36473781, -6.00088635
675, 37.99, 7.89810619, -5.27919677
676, 37.99, 7.67416871, -5.59974416
677, 37.99, 8.10264227, -4.95955524
678, 37.99, 8.52106187, -4.20017912
679, 37.99, 8.34616693, -4.53778553
680, 37.99, 8.68463054, -3.85060936
681, 37.99, 8.99497497, -3.05621095
682, 37.99, 8.8804843, -3.3744627
683, 37.99, 9.10416395, -2.71370572
684, 37.99, 9.31813452, -1.84996459
685, 37.99, 9.24136208, -2.20164187
686, 37.99, 9.37834567, -1.51546444
687, 37.99, 9.47973796, -0.620135629
688, 37.99, 9.44632294, -1.00845574
689, 37.99, 9.4969307, -0.241468966
690, 37.99, 9.47968176, 0.6209942
691, 37.99, 9.49677476, 0.247526134
692, 37.99, 9.44696164, 1.00245486
693, 37.99, 9.31807551, 1.85026184
694, 37.99, 9.3770105, 1.52370405
695, 37.99, 9.23885998, 2.21211805
696, 37.99, 8.99488653, 3.05647123
697, 37.99, 9.10336776, 2.71637543
698, 37.99, 8.87996298, 3.37583433
699, 37.99, 8.52008474, 4.20216089
700, 37.99, 8.68380574, 3.85246906
701, 37.99, 8.34554589, 4.5389276
702, 37.99, 7.89842809, 5.27871515
703, 37.99, 8.10134243, 4.96167823
704, 37.99, 7.68021614, 5.59144704
705, 37.99, 7.14015663, 6.26643146
706, 37.99, 7.35526508, 6.01249329
707, 37.99, 6.88417596, 6.54661144
708, 37.99, 6.26378524, 7.14247817
709, 37.99, 6.51892379, 6.91040032
710, 37.99, 6.0267362, 7.34359931
711, 37.99, 5.27791721, 7.89896132
712, 37.99, 5.53353812, 7.7220435
713, 37.99, 5.01664458, 8.06742072
714, 37.99, 4.20174256, 8.52029104
715, 37.99, 4.478269, 8.37825201
716, 37.99, 3.92071678, 8.65320634
717, 37.99, 3.05367492, 8.99583623
718, 37.99, 3.34637546, 8.8911063
719, 37.99, 2.75770443, 9.09093319
720, 37.99, 1.84940998, 9.31824462
721, 37.99, 2.20409785, 9.24077663
722, 37.99, 1.5208981, 9.37746602
723, 37.99, 0.625659575, 9.47937498
724, 37.99, 0.997308585, 9.44750632
725, 37.99, 0.2216031, 9.49741502
726, 37.9949951, -3.64302058e-16, 9.5
727, 37.99, 0.592181134, 9.4611864
728, 37.99, 0.925381868, 9.43934727
729, 37.99, 0.277798848, 9.4817921
730, 37.99, 1.84914643, 9.29755919
731, 37.99, 2.16492091, 9.23474774
732, 37.99, 1.52959175, 9.36112257
733, 37.99, 3.04713677, 8.97657545
734, 37.99, 3.34131469, 8.87671551
735, 37.99, 2.75295885, 9.0764354
736, 37.99, 4.1927463, 8.50204845
737, 37.99, 4.47137315, 8.36464489
738, 37.99, 3.91411946, 8.639452
739, 37.99, 5.26661679, 7.88204903
740, 37.99, 5.52492518, 7.70945288
741, 37.99, 5.00830839, 8.05464519
742, 37.99, 6.250374, 7.12718558
743, 37.99, 6.49761774, 6.91035863
744, 37.99, 6.01680379, 7.33202115
745, 37.99, 7.12562009, 6.2521591
746, 37.99, 7.34143937, 6.00606438
747, 37.99, 6.91387974, 6.49360269
748, 37.99, 7.88569851, 5.26115496
749, 37.99, 8.06049812, 4.99954886
750, 37.99, 7.71003826, 5.5240491
751, 37.99, 8.50459249, 4.18758749
752, 37.99, 8.64242584, 3.90808912
753, 37.99, 8.36316653, 4.47437097
754, 37.99, 8.97532726, 3.05081383
755, 37.99, 9.07971, 2.7433122
756, 37.99, 8.86974878, 3.36183801
757, 37.99, 9.29670091, 1.85346132
758, 37.99, 9.36058752, 1.53228163
759, 37.99, 9.23396017, 2.16888028
760, 37.99, 9.45970045, 0.614852348
761, 37.99, 9.48037808, 0.299372663
762, 37.99, 9.43888426, 0.93244605
763, 37.99, 9.4594137, -0.619227235
764, 37.99, 9.43877185, -0.934161021
765, 37.99, 9.48008319, -0.303871742
766, 37.99, 9.29924428, -1.84067493
767, 37.99, 9.23482977, -2.16450853
768, 37.99, 9.36229345, -1.52370535
769, 37.99, 8.97578699, -3.04945951
770, 37.99, 8.87086941, -3.35853675
771, 37.99, 9.07906654, -2.74520777
772, 37.99, 8.50130198, -4.19425998
773, 37.99, 8.36192483, -4.4768889
774, 37.99, 8.64081811, -3.91134926
775, 37.99, 7.88588343, -5.26087821
776, 37.99, 7.70823961, -5.52674098
777, 37.99, 8.05999081, -5.0003081
778, 37.99, 7.12718558, -6.250374
779, 37.99, 6.92235, -6.48394421
780, 37.99, 7.34180505, -6.00564739
781, 37.99, 6.250374, -7.12718558
782, 37.99, 6.00040727, -7.34640052
783, 37.99, 6.49236412, -6.91496593
784, 37.99, 5.26418216, -7.8836758
785, 37.99, 5.00020205, -8.06006167
786, 37.99, 5.528537, -7.70703954
787, 37.99, 4.19875617, -8.49908471
788, 37.99, 3.91528608, -8.63887669
789, 37.99, 4.48248946, -8.35916293
790, 37.99, 3.04813151, -8.97623779
791, 37.99, 2.74134238, -9.08037866
792, 37.99, 3.35795736, -8.87106608
793, 38.5, -4.69685475, 6.47607562
794, 38.5, -7.60638765, 2.47848077
795, 38.5, -7.62594688, -2.41762988
796, 38.5, -4.69802262, -6.47522845
797, 38.5, 0.0108921739, -7.99999259
798, 38.5, 4.70228202, -6.47213595
799, 38.5, 7.61640777, -2.44751561
800, 38.5, 7.61484761, 2.45236537
801, 38.5, 4.70228202, 6.47213595
802, 38.5, -2.48777762, 7.60335206
803, 38.5, -6.47681177, 4.69583958
804, 38.5, -7.99993055, -0.0333341103
805, 38.5, -6.47897842, -4.69284974
806, 38.5, -2.50012088, -7.59930231
807, 38.5, 2.51758544, -7.59353433
808, 38.5, 6.48585165, -4.68334585
809, 38.5, 7.99993842, -0.0313887808
810, 38.5, 6.47443655, 4.69911389
811, 38.5, 2.49456713, 7.60112721
812, 35.9909218, 3.63549261, -8.77685556
813, 35.9899849, 4.75, -8.22724134
814, 35.9897789, 1.23999883, 9.41872618
815, 35.9915636, -3.64302058e-16, 9.5
816, 35.989206, 5.78323358, -7.53685673
817, 35.9948594, 2.45878093, 9.17629535
818, 35.995, 6.71751442, -6.71751442
819, 35.9943843, 3.63549261, 8.77685556
820, 35.9898994, 7.53685673, -5.78323358
821, 35.9967542, 4.75, 8.22724134
822, 35.9909139, 8.22724134, -4.75
823, 35.9949649, 5.78323358, 7.53685673
824, 35.9898542, 8.77685556, -3.63549261
825, 35.9904961, 6.71751442, 6.71751442
826, 35.9920475, 9.17629535, -2.45878093
827, 35.9922014, 7.53685673, 5.78323358
828, 35.9800316, 9.41872618, -1.23999883
829, 35.9924488, 8.22724134, 4.75
830, 35.9925587, 9.5, -1.60585137e-15
831, 35.9892258, 8.77685556, 3.63549261
832, 35.991823, 9.41872618, 1.23999883
833, 35.989149, 9.17629535, 2.45878093
834, 34.275, -4.6291649e-16, -3.39
835, 34.55, -2.04058017, -4.37269162
836, 34.55, -2.54456185, -6.58077964
837, 34.55, -1.13236222, -8.35156454
838, 34.55, 1.13243656, -8.35152875
839, 34.55, 2.54456185, -6.58077964
840, 34.55, 2.04058017, -4.37269162
841, 34.55, -1.11837692, -3.64175212
842, 34.55, -2.54456185, -5.41922036
843, 34.55, -2.0508624, -7.61433064
844, 34.55, 0.0088880171, -8.60998487
845, 34.55, 2.04058017, -7.62730838
846, 34.55, 2.54456185, -5.41922036
847, 34.55, 1.13243656, -3.64847125
848, 34.2742962, -6, 2.61
849, 34.55, -8.07272615, 1.58616087
850, 34.55, -8.54791946, -0.565867849
851, 34.55, -7.13996411, -2.3478888
852, 34.55, -4.86756344, -2.35152875
853, 34.55, -3.45543815, -0.580779638
854, 34.55, -3.95895948, 1.62673095
855, 34.55, -7.1090734, 2.36263755
856, 34.55, -8.54581181, 0.575275784
857, 34.55, -8.02727211, -1.64385759
858, 34.55, -6.00330413, -2.60999791
859, 34.55, -3.9664565, -1.63609317
860, 34.55, -3.45619523, 0.584086723
861, 34.55, -4.87085917, 2.35311304
862, 34.275, 6, 2.61
863, 34.55, 3.95941983, 1.62730838
864, 34.55, 3.45543815, -0.580779638
865, 34.55, 4.86756344, -2.35152875
866, 34.55, 7.13488846, -2.3503464
867, 34.55, 8.54500525, -0.578833557
868, 34.55, 8.04313098, 1.62410461
869, 34.55, 4.86756344, 2.35152875
870, 34.55, 3.4559089, 0.582838278
871, 34.55, 3.96097059, -1.62925108
872, 34.55, 6.00772173, -2.60998858
873, 34.55, 8.03749227, -1.63117296
874, 34.55, 8.53915848, 0.603965393
875, 34.55, 7.13039531, 2.35251067
876, 34.275, 1.00665967e-15, 8.61
877, 34.55, -2.04431296, 7.62261657
878, 34.55, -2.54456185, 5.41922036
879, 34.55, -1.13243656, 3.64847125
880, 34.55, 1.13243656, 3.64847125
881, 34.55, 2.54456185, 5.41922036
882, 34.55, 2.04058017, 7.62730838
883, 34.55, -1.13030163, 8.35255568
884, 34.55, -2.54378306, 6.58418128
885, 34.55, -2.04058017, 4.37269162
886, 34.55, 1.85929266e-14, 3.39
887, 34.55, 2.04058017, 4.37269162
888, 34.55, 2.54456185, 6.58077964
889, 34.55, 1.13243656, 8.35152875
890, 39.4715843, 1.95943488e-15, 8
891, 40.45, -4.70836506, 6.46771199
892, 40.45, -7.62210886, 2.42970298
893, 40.45, -7.61571837, -2.44965992
894, 40.45, -4.70098646, -6.47307703
895, 40.45, -0.00158780293, -7.99999984
896, 40.45, 4.70228202, -6.47213595
897, 40.45, 7.6112537, -2.46349693
898, 40.45, 7.62527152, 2.41975912
899, 40.45, 4.70228202, 6.47213595
900, 40.45, -2.47110231, 7.6087879
901, 40.45, -6.47065877, 4.70431452
902, 40.45, -7.99995761, 0.0260441748
903, 40.45, -6.47108965, -4.70372179
904, 40.45, -2.46740864, -7.60998651
905, 40.45, 2.46725533, -7.61003621
906, 40.45, 6.4710718, -4.70374636
907, 40.45, 7.999931, 0.0332256546
908, 40.45, 6.47449521, 4.69903307
909, 40.45, 2.47213595, 7.60845213
910, 34.55, -1.89203219, -4.49115468
911, 34.55, -2.35889918, -6.54036531
912, 34.55, -1.04226817, -8.18405061
913, 34.55, 1.04999865, -8.18034466
914, 34.55, 2.35932555, -6.53850066
915, 34.55, 1.89203219, -4.49115468
916, 34.55, -1.04999865, -3.81965534
917, 34.55, -2.35779386, -5.45483202
918, 34.55, -1.89739345, -7.5020979
919, 34.55, -0.0045897669, -8.41999565
920, 34.55, 1.89203219, -7.50884532
921, 34.55, 2.35932555, -5.46149934
922, 34.55, 1.04999865, -3.81965534
923, 34.55, -7.90407507, 1.49361914
924, 34.55, -8.35933803, -0.538445965
925, 34.55, -7.05386113, -2.17848037
926, 34.55, -4.94694539, -2.17887035
927, 34.55, -3.64023133, -0.536555503
928, 34.55, -4.10908563, 1.51024595
929, 34.55, -7.05936803, 2.17580775
930, 34.55, -8.35697953, 0.548677946
931, 34.55, -7.8908356, -1.51034458
932, 34.55, -6.00581716, -2.41999301
933, 34.55, -4.11280468, -1.51489069
934, 34.55, -3.63950374, 0.533345499
935, 34.55, -4.94231572, 2.17662674
936, 34.55, 4.10656272, 1.50708171
937, 34.55, 3.64162295, -0.542639541
938, 34.55, 4.94869196, -2.1797136
939, 34.55, 7.0517614, -2.17949489
940, 34.55, 8.35999166, -0.535573865
941, 34.55, 7.89420752, 1.5061135
942, 34.55, 4.95476134, 2.18263055
943, 34.55, 3.64225537, 0.545380851
944, 34.55, 4.10379617, -1.50359936
945, 34.55, 5.99317708, -2.41999038
946, 34.55, 7.88928012, -1.51228986
947, 34.55, 8.36089013, 0.531599286
948, 34.55, 7.05884131, 2.17606413
949, 34.55, -1.89498262, 7.50513815
950, 34.55, -2.3586596, 5.45858992
951, 34.55, -1.04999865, 3.81965534
952, 34.55, 1.04999865, 3.81965534
953, 34.55, 2.35932555, 5.46149934
954, 34.55, 1.89203219, 7.50884532
955, 34.55, -1.04493698, 8.182775
956, 34.55, -2.35689358, 6.54904705
957, 34.55, -1.89760177, 4.49816528
958, 34.55, 2.22042129e-15, 3.58
959, 34.55, 1.88631914, 4.48401844
960, 34.55, 2.35932555, 6.53850066
961, 34.55, 1.04999865, 8.18034466
962, 40.45, 5.06068031, 0.746778758
963, 40.45, 4.83011894, -0.267167187
964, 40.45, 5.47379039, -1.07847274
965, 40.45, 6.52501302, -1.07905576
966, 40.45, 7.17273491, -0.25434787
967, 40.45, 6.97304058, 0.702276315
968, 40.45, 5.49630433, 1.08916972
969, 40.45, 4.83105631, 0.271239084
970, 40.45, 5.0693331, -0.757534901
971, 40.45, 6.0067814, -1.19998084
972, 40.45, 6.9306042, -0.757611926
973, 40.45, 7.15664358, 0.319649244
974, 40.45, 6.55879492, 1.06195491
975, 40.45, -0.936158645, -5.24926237
976, 40.45, -1.16370286, -6.29290894
977, 40.45, -0.520851179, -7.08107079
978, 40.45, 0.516001675, -7.08339387
979, 40.45, 1.1652584, -6.2866581
980, 40.45, 0.93878202, -5.25254544
981, 40.45, -0.514818531, -4.91604341
982, 40.45, -1.17154065, -5.74020682
983, 40.45, -0.970487174, -6.70580071
984, 40.45, -0.0015105357, -7.19999905
985, 40.45, 0.973375271, -6.70181236
986, 40.45, 1.17098498, -5.73771355
987, 40.45, 0.531004138, -4.92387984
988, 40.45, -2.34575348, 1.87014455
989, 40.45, -2.92537219, -0.664979339
990, 40.45, -1.2984873, -2.70442799
991, 40.45, 1.30288646, -2.70231139
992, 40.45, 2.92562308, -0.663874677
993, 40.45, 2.34321878, 1.87331944
994, 40.45, -1.3060546, 2.70078162
995, 40.45, -2.92441606, 0.669171668
996, 40.45, -2.34483818, -1.87129204
997, 40.45, -0.00646306709, -2.99999304
998, 40.45, 2.34477148, -1.87137562
999, 40.45, 2.92411884, 0.670469226
1000, 40.45, 1.2990464, 2.70415947
1001, 40.45, -0.928062171, 6.76072374
1002, 40.45, -1.16991349, 5.73297488
1003, 40.45, -0.520660487, 4.91883736
1004, 40.45, 0.520660487, 4.91883736
1005, 40.45, 1.16991349, 5.73297488
1006, 40.45, 0.938197779, 6.74818776
1007, 40.45, -0.477290857, 7.10099657
1008, 40.45, -1.17426389, 6.24719287
1009, 40.45, -0.938197779, 5.25181224
1010, 40.45, -1.09706117e-14, 4.8
1011, 40.45, 0.938197779, 5.25181224
1012, 40.45, 1.16991349, 6.26702512
1013, 40.45, 0.467416702, 7.1052247
1014, 40.45, -6.96417112, 0.71440468
1015, 40.45, -7.17206981, -0.257395346
1016, 40.45, -6.52311023, -1.07997948
1017, 40.45, -5.47576025, -1.07943165
1018, 40.45, -4.8294683, -0.264301997
1019, 40.45, -5.06165815, 0.748007067
1020, 40.45, -6.50258349, 1.08968336
1021, 40.45, -7.15321302, 0.331812801
1022, 40.45, -6.92958729, -0.758859323
1023, 40.45, -6.01213158, -1.19993868
1024, 40.45, -5.07013357, -0.758517247
1025, 40.45, -4.830106, 0.267110523
1026, 40.45, -5.48648663, 1.0845755
1027, 36.025, -5.09453068e-16, -3.58
1028, 37.5, -1.90174139, -4.50341065
1029, 37.5, -2.34958361, -6.57953157
1030, 37.5, -1.08300944, -8.16413737
1031, 37.5, 1.06310605, -8.17398379
1032, 37.5, 2.35932555, -6.53850066
1033, 37.5, 1.90100118, -4.50247054
1034, 37.5, -1.04242697, -3.81602518
1035, 37.5, -2.35413896, -5.43925965
1036, 37.5, -1.88717228, -7.51491939
1037, 37.5, -0.0200721405, -8.41991676
1038, 37.5, 1.88404219, -7.5188104
1039, 37.5, 2.35309355, -5.43488874
1040, 37.5, 1.07182112, -3.83029968
1041, 35.9996188, -6, 2.42
1042, 37.5, -7.91106496, 1.48466518
1043, 37.5, -8.36732175, -0.502182968
1044, 37.5, -7.07531075, -2.16797297
1045, 37.5, -4.93290502, -2.17202861
1046, 37.5, -3.63074604, -0.492986461
1047, 37.5, -4.06546164, 1.45394682
1048, 37.5, -7.06210767, 2.17447173
1049, 37.5, -8.35657866, 0.550397147
1050, 37.5, -7.8733931, -1.53192633
1051, 37.5, -6.00802884, -2.41998668
1052, 37.5, -4.1500923, -1.5602056
1053, 37.5, -3.67075259, 0.65651086
1054, 37.5, -4.96260993, 2.18637185
1055, 36.0125156, 6, 2.42
1056, 37.5, 4.07451182, 1.46591107
1057, 37.5, 3.6338226, -0.507547536
1058, 37.5, 4.94531105, -2.17807971
1059, 37.5, 7.03669881, -2.1866997
1060, 37.5, 8.35804792, -0.544068026
1061, 37.5, 7.89124008, 1.50983806
1062, 37.5, 4.95154977, 2.18108966
1063, 37.5, 3.66715766, 0.643619914
1064, 37.5, 4.1366509, -1.54412762
1065, 37.5, 6.01648603, -2.41994384
1066, 37.5, 7.8993452, -1.49962923
1067, 37.5, 8.3595438, 0.537543558
1068, 37.5, 7.07967293, 2.16580386
1069, 36.0106013, 9.60123091e-16, 8.42
1070, 37.5, -1.88986205, 7.51156258
1071, 37.5, -2.35614762, 5.44776057
1072, 37.5, -1.04999865, 3.81965534
1073, 37.5, 1.04999865, 3.81965534
1074, 37.5, 2.35932555, 5.46149934
1075, 37.5, 1.89203219, 7.50884532
1076, 37.5, -1.01728638, 8.1957979
1077, 37.5, -2.35834545, 6.54277686
1078, 37.5, -1.92562377, 4.53426704
1079, 37.5, -0.00863365761, 3.5800154
1080, 37.5, 1.89203219, 4.49115468
1081, 37.5, 2.35932555, 6.53850066
1082, 37.5, 1.02651481, 8.19149888
1083, 37.5, 5.04481297, 0.726373
1084, 37.5, 4.835415, -0.28938172
1085, 37.5, 5.50018592, -1.09095641
1086, 37.5, 6.53649709, -1.07339223
1087, 37.5, 7.17537511, -0.241853968
1088, 37.5, 6.91933865, 0.771243437
1089, 37.5, 5.52133424, 1.10039952
1090, 37.5, 4.83949166, 0.305320136
1091, 37.5, 5.04079879, -0.721063827
1092, 37.5, 5.96794125, -1.19957169
1093, 37.5, 6.91444345, -0.777041295
1094, 37.5, 7.17768947, 0.230320449
1095, 37.5, 6.56113375, 1.06072094
1096, 38.9791579, 6, 1.2
1097, 37.5, -0.953712077, -5.2716915
1098, 37.5, -1.16566366, -6.28500568
1099, 37.5, -0.503984043, -7.08903631
1100, 37.5, 0.545830082, -7.06867653
1101, 37.5, 1.17559773, -6.24076956
1102, 37.5, 0.919201619, -5.22859324
1103, 37.5, -0.476415551, -4.8986244
1104, 37.5, -1.16122999, -5.6974361
1105, 37.5, -0.956990149, -6.72399576
1106, 37.5, -0.0421089281, -7.19926095
1107, 37.5, 0.915727604, -6.77552753
1108, 37.5, 1.17786423, -5.77057496
1109, 37.5, 0.559569347, -4.93845295
1110, 38.970172, -8.08266887e-16, -4.8
1111, 39.475, 7.34788079e-16, 3
1112, 38.5, -2.38326917, 1.82209442
1113, 38.5, -2.92905817, -0.648550853
1114, 38.5, -1.31586101, -2.6960174
1115, 38.5, 1.30165122, -2.7029066
1116, 38.5, 2.92660084, -0.659550988
1117, 38.5, 2.37352789, 1.83476575
1118, 38.5, -1.31131001, 2.69823388
1119, 38.5, -2.92238502, 0.677986584
1120, 38.5, -2.36732349, -1.8427641
1121, 38.5, -0.00679741537, -2.9999923
1122, 38.5, 2.34709381, -1.86846211
1123, 38.5, 2.91085452, 0.725896655
1124, 38.5, 1.31154176, 2.69812124
1125, 37.5, -0.955429485, 6.72605406
1126, 37.5, -1.16363911, 5.70683789
1127, 37.5, -0.497320796, 4.90790475
1128, 37.5, 0.550486061, 4.93371435
1129, 37.5, 1.16991349, 5.73297488
1130, 37.5, 0.938197779, 6.74818776
1131, 37.5, -0.449045984, 7.11281522
1132, 37.5, -1.16095005, 6.30363628
1133, 37.5, -0.961922768, 5.28257085
1134, 37.5, -0.0396467632, 4.80065512
1135, 37.5, 0.889809764, 5.19486735
1136, 37.5, 1.16991349, 6.26702512
1137, 37.5, 0.57333891, 7.05417384
1138, 38.9793611, 6.61309272e-16, 7.2
1139, 37.5, -6.95126233, 0.73150528
1140, 37.5, -7.16437163, -0.290239042
1141, 37.5, -6.49278992, -1.0941472
1142, 37.5, -5.45636164, -1.06979313
1143, 37.5, -4.82496892, -0.243519925
1144, 37.5, -5.07976872, 0.77017816
1145, 37.5, -6.47893204, 1.10028365
1146, 37.5, -7.1603579, 0.305891397
1147, 37.5, -6.95976525, -0.720312899
1148, 37.5, -6.03522253, -1.19948296
1149, 37.5, -5.0872481, -0.779027582
1150, 37.5, -4.82182379, 0.227817491
1151, 37.5, -5.44755366, 1.06527135
1152, 38.9728069, -6, 1.2
1153, 38, -9, -9.5
1154, 38, -4.49109406, -9.5
1155, 38, -11.25, -9.5
1156, 38, -6.74813426, -9.5
1157, 38, -2.29262369, -9.5
1158, 37.9807389, -13.8920686, -9.5
1159, 37.90388, -14.6724298, -9.5
1160, 37.7509025, -15.4415, -9.5
1161, 37.5232795, -16.1918724, -9.5
1162, 37.2232032, -16.9163207, -9.5
1163, 36.8535904, -17.6078231, -9.5
1164, 36.4179203, -18.2598541, -9.5
1165, 35.9204689, -18.8660003, -9.5
1166, 35.3658005, -19.42065, -9.5
1167, 34.7598541, -19.9179203, -9.5
1168, 34.2222809, -20.284987, -9.5
1169, 34, -20.9591085, -9.5
1170, 29.875, -21.5, -9.5
1171, 25.75, -21.5, -9.5
1172, 21.6157661, -21.5, -9.5
1173, 31.9375, -21.5, -9.5
1174, 27.812435, -21.5, -9.5
1175, 23.6876234, -21.5, -9.5
1176, 19.5740324, -21.5, -9.5
1177, 17.5, -20.2497238, -9.5
1178, 17.5, -19.0050327, -9.5
1179, 24.5, -19, -9.5
1180, 21.0209467, -19, -9.5
1181, 26.2529325, -19, -9.5
1182, 22.7524236, -19, -9.5
1183, 19.3086371, -19, -9.5
1184, 17.5, -18.7562999, 9.5
1185, 22.249467, -18.5, 8.22754904
1186, 25.7297765, -18.5, 4.74560624
1187, 26.9999819, -18.5, -0.0185302046
1188, 25.7314014, -18.5, -4.74278722
1189, 22.2495495, -18.5, -8.22750143
1190, 17.4967482, -18.5, -9.49999944
1191, 12.7620849, -18.5, -8.23420675
1192, 9.28062454, -18.5, -4.76359813
1193, 8.0000005, -18.5, 0.00309406711
1194, 9.27370198, -18.5, 4.75163349
1195, 12.75, -18.5, 8.22724134
1196, 19.9677705, -18.5, 9.17388188
1197, 24.2215411, -18.5, 6.71348532
1198, 26.6747128, -18.5, 2.46467942
1199, 26.6775158, -18.5, -2.45422148
1200, 24.2215742, -18.5, -6.71345214
1201, 19.9668576, -18.5, -9.17412739
1202, 15.0296321, -18.5, -9.1731828
1203, 10.7788029, -18.5, -6.71382968
1204, 8.3230206, -18.5, -2.45622658
1205, 8.32347421, -18.5, 2.45792075
1206, 10.7769773, -18.5, 6.71200158
1207, 15.0325185, -18.5, 9.17395963
1208, 22.0674722, -19, 8.32995784
1209, 20.0236104, -19, 9.15867842
1210, 24.0606145, -19, 6.87083234
1211, 26.8373049, -19, 1.75063898
1212, 26.8400673, -19, -1.73584058
1213, 26.3533656, -19, 3.44498445
1214, 26.9999913, -19, -0.0128568371
1215, 26.3535344, -19, -3.44455048
1216, 22.0897981, -19, -8.31767715
1217, 24.0604918, -19, -6.87094951
1218, 20.0246517, -19, -9.15839143
1219, 16.8729927, -19.01, -9.47928593
1220, 17.2806996, -19.01, -9.49746847
1221, 16.5043903, -19.01, -9.4476855
1222, 15.6481966, -19.01, -9.31776927
1223, 15.9800057, -19.01, -9.37761256
1224, 15.2969595, -19.01, -9.24102876
1225, 14.4390742, -19.01, -8.99337164
1226, 14.7912936, -19.01, -9.10565263
1227, 14.1300507, -19.01, -8.88219803
1228, 13.2990719, -19.01, -8.52069264
1229, 13.6434462, -19.01, -8.68199244
1230, 12.9661966, -19.01, -8.34833076
1231, 12.2222939, -19.01, -7.89910235
1232, 12.5448252, -19.01, -8.10532187
1233, 11.9063753, -19.01, -7.67863024
1234, 11.2364361, -19.01, -7.14267227
1235, 11.4960644, -19.01, -7.36225221
1236, 10.9718022, -19.01, -6.90163993
1237, 10.3614681, -19.01, -6.26828226
1238, 10.6111717, -19.01, -6.54171569
1239, 10.1417156, -19.01, -6.00879772
1240, 9.60163918, -19.01, -5.2788158
1241, 9.818417, -19.01, -5.58956909
1242, 9.40073481, -19.01, -4.96506832
1243, 8.97928225, -19.01, -4.20087717
1244, 9.15317707, -19.01, -4.53657877
1245, 8.81590086, -19.01, -3.85180765
1246, 8.50474016, -19.01, -3.0553724
1247, 8.62005594, -19.01, -3.37588411
1248, 8.39586796, -19.01, -2.71381279
1249, 8.18197382, -19.01, -1.85051021
1250, 8.25872847, -19.01, -2.20202192
1251, 8.12146042, -19.01, -1.51426399
1252, 8.02026996, -19.01, -0.620256744
1253, 8.0535732, -19.01, -1.00748239
1254, 8.00310194, -19.01, -0.242749273
1255, 8.02033825, -19.01, 0.621299591
1256, 8.00325523, -19.01, 0.248674129
1257, 8.05303138, -19.01, 1.0023891
1258, 8.18226943, -19.01, 1.85199812
1259, 8.12273058, -19.01, 1.52210977
1260, 8.26135335, -19.01, 2.21300882
1261, 8.50537959, -19.01, 3.05725428
1262, 8.3965609, -19.01, 2.71613634
1263, 8.62037878, -19.01, 3.37673317
1264, 8.97842013, -19.01, 4.19912807
1265, 8.81562166, -19.01, 3.85117812
1266, 9.15254598, -19.01, 4.53541744
1267, 9.60223406, -19.01, 5.27970578
1268, 9.39953097, -19.01, 4.96310402
1269, 9.82068112, -19.01, 5.59267929
1270, 10.3583745, -19.01, 6.26475741
1271, 10.1410631, -19.01, 6.00799863
1272, 10.6074828, -19.01, 6.5378289
1273, 11.2362148, -19.01, 7.14247817
1274, 11.0058731, -19.01, 6.93370869
1275, 11.4732638, -19.01, 7.34359931
1276, 12.2220828, -19.01, 7.89896132
1277, 11.9664619, -19.01, 7.7220435
1278, 12.4833554, -19.01, 8.06742072
1279, 13.2982574, -19.01, 8.52029104
1280, 13.021731, -19.01, 8.37825201
1281, 13.5792832, -19.01, 8.65320634
1282, 14.4463251, -19.01, 8.99583623
1283, 14.1536245, -19.01, 8.8911063
1284, 14.7422956, -19.01, 9.09093319
1285, 15.6482692, -19.01, 9.31778371
1286, 15.2994045, -19.01, 9.2416113
1287, 15.9786166, -19.01, 9.37738729
1288, 16.8724239, -19.01, 9.4792483
1289, 16.5039062, -19.01, 9.44763448
1290, 17.273723, -19.01, 9.49730481
1291, 17.5, -19.0046004, 9.5
1292, 16.8982793, -19.01, 9.46056114
1293, 16.5758512, -19.01, 9.43942809
1294, 17.2151406, -19.01, 9.48132933
1295, 16.8892858, -21.5, 9.45997168
1296, 16.2600012, -20.2583626, 9.41872618
1297, 17.5, -20.2578297, 9.5
1298, 15.6423179, -21.5, 9.29586134
1299, 15.0412191, -20.255, 9.17629535
1300, 15.6506101, -19.01, 9.29751077
1301, 15.3459146, -19.01, 9.23690306
1302, 15.9703775, -19.01, 9.36111646
1303, 14.4528632, -21.5, 8.97657545
1304, 13.8645074, -20.255, 8.77685556
1305, 14.4528632, -19.01, 8.97657545
1306, 14.1586853, -19.01, 8.87671551
1307, 14.7470412, -19.01, 9.0764354
1308, 13.3072537, -21.5, 8.50204845
1309, 12.75, -20.255, 8.22724134
1310, 13.3072537, -19.01, 8.50204845
1311, 13.0286268, -19.01, 8.36464489
1312, 13.5858805, -19.01, 8.639452
1313, 12.2333832, -21.5, 7.88204903
1314, 11.7167664, -20.255, 7.53685673
1315, 12.2333832, -19.01, 7.88204903
1316, 11.9750748, -19.01, 7.70945288
1317, 12.4916916, -19.01, 8.05464519
1318, 11.249626, -21.5, 7.12718558
1319, 10.7824856, -20.255, 6.71751442
1320, 11.249626, -19.01, 7.12718558
1321, 11.0160558, -19.01, 6.92235
1322, 11.4831962, -19.01, 7.33202115
1323, 10.3728144, -21.5, 6.250374
1324, 9.96314327, -20.2550759, 5.78323358
1325, 10.3750671, -19.01, 6.25294272
1326, 10.1564112, -19.01, 6.00361344
1327, 10.5883296, -19.01, 6.49612196
1328, 9.61710069, -21.5, 5.26534426
1329, 9.27275866, -20.2574488, 4.75
1330, 9.61328625, -19.01, 5.25963555
1331, 9.43579659, -19.01, 4.99400351
1332, 9.79073262, -19.01, 5.5252028
1333, 8.99813156, -21.5, 4.19311132
1334, 8.72314444, -20.2555079, 3.63549261
1335, 8.99911336, -19.01, 4.19510222
1336, 8.85834193, -19.01, 3.909646
1337, 9.14206013, -19.01, 4.4849696
1338, 8.52388263, -21.5, 3.04848625
1339, 8.32370465, -20.2553184, 2.45878093
1340, 8.52410326, -19.01, 3.04913619
1341, 8.41965454, -19.01, 2.7414402
1342, 8.63041188, -19.01, 3.3623113
1343, 8.20277997, -21.5, 1.85085151
1344, 8.08127382, -20.2579106, 1.23999883
1345, 8.2035593, -19.01, 1.85476949
1346, 8.13837705, -19.01, 1.52707617
1347, 8.26697249, -19.01, 2.17356908
1348, 8.04120871, -21.5, 0.628723395
1349, 8, -20.2576955, 1.56175818e-15
1350, 8.0402863, -19.01, 0.614650177
1351, 8.01937532, -19.01, 0.295610255
1352, 8.06128095, -19.01, 0.9349666
1353, 8.04084573, -21.5, -0.623185451
1354, 8.08127382, -20.255262, -1.23999883
1355, 8.04080642, -19.01, -0.622585723
1356, 8.06159792, -19.01, -0.939802619
1357, 8.01973501, -19.01, -0.301098139
1358, 8.20318648, -21.5, -1.85289518
1359, 8.32370465, -20.2696409, -2.45878093
1360, 8.20060796, -19.01, -1.83993209
1361, 8.2662956, -19.01, -2.17016616
1362, 8.13662935, -19.01, -1.51828987
1363, 8.52386592, -21.5, -3.04843703
1364, 8.72314444, -20.2591821, -3.63549261
1365, 8.5246404, -19.01, -3.05071854
1366, 8.63130443, -19.01, -3.36494065
1367, 8.41882987, -19.01, -2.73901078
1368, 8.99795155, -21.5, -4.1927463
1369, 9.27275866, -20.2576731, -4.75
1370, 8.99925153, -19.01, -4.1953824
1371, 9.1399467, -19.01, -4.48068398
1372, 8.85793835, -19.01, -3.90882761
1373, 9.61795097, -21.5, -5.26661679
1374, 9.96314327, -20.2561814, -5.78323358
1375, 9.61466251, -19.01, -5.26169526
1376, 9.79253305, -19.01, -5.52789734
1377, 9.43638076, -19.01, -4.99487778
1378, 10.3728144, -21.5, -6.250374
1379, 10.7824856, -20.2544678, -6.71751442
1380, 10.3760001, -19.01, -6.25400652
1381, 10.5922956, -19.01, -6.50064435
1382, 10.1530766, -19.01, -5.999811
1383, 11.249626, -21.5, -7.12718558
1384, 11.7167664, -20.2550684, -7.53685673
1385, 11.2545031, -19.01, -7.13146267
1386, 11.5021073, -19.01, -7.34860574
1387, 11.0086982, -19.01, -6.91589757
1388, 12.2333832, -21.5, -7.88204903
1389, 12.75, -20.255, -8.22724134
1390, 12.2333832, -19.01, -7.88204903
1391, 12.4916916, -19.01, -8.05464519
1392, 11.9720904, -19.01, -7.70745873
1393, 13.3072537, -21.5, -8.50204845
1394, 13.8645074, -20.2565843, -8.77685556
1395, 13.3052911, -19.01, -8.50108059
1396, 13.5895013, -19.01, -8.64123758
1397, 13.021227, -19.01, -8.36099571
1398, 14.4491244, -21.5, -8.97530629
1399, 15.0412191, -20.2612253, -9.17629535
1400, 14.463045, -19.01, -8.9800317
1401, 14.7684636, -19.01, -9.08370736
1402, 14.1429868, -19.01, -8.87138659
1403, 15.6506101, -21.5, -9.29751077
1404, 16.2600012, -20.2519403, -9.41872618
1405, 15.6548359, -19.01, -9.29835133
1406, 15.9756849, -19.01, -9.36217215
1407, 15.3354254, -19.01, -9.23481663
1408, 16.88614, -21.5, -9.45976549
1409, 16.8864743, -19.01, -9.4597874
1410, 17.2119624, -19.01, -9.48112102
1411, 16.5679941, -19.01, -9.43891311
1412, 22.2043709, -18.5, 6.47061775
1413, 25.1135416, -18.5, 2.45641681
1414, 25.1252783, -18.5, -2.41973774
1415, 22.1937583, -18.5, -6.47832026
1416, 17.4941569, -18.5, -7.99999787
1417, 12.797718, -18.5, -6.47213595
1418, 9.88144665, -18.5, -2.44082871
1419, 9.88633427, -18.5, 2.4560322
1420, 12.797718, -18.5, 6.47213595
1421, 20.0017182, -18.5, 7.5987766
1422, 23.9779845, -18.5, 4.6942216
1423, 25.499758, -18.5, -0.0622269761
1424, 23.9770185, -18.5, -4.69555446
1425, 19.9895489, -18.5, -7.60277229
1426, 14.9894578, -18.5, -7.59586584
1427, 11.0230356, -18.5, -4.69562905
1428, 9.50006266, -18.5, -0.0316627618
1429, 11.0210276, -18.5, 4.69285804
1430, 15.0042041, -18.5, 7.60072385
1431, 17.5, -17.520696, 8
1432, 22.1968308, -16.55, 6.47609296
1433, 25.1223152, -16.55, 2.42905566
1434, 25.116652, -16.55, -2.44675541
1435, 22.202282, -16.55, -6.47213595
1436, 17.5, -16.55, -8
1437, 12.797718, -16.55, -6.47213595
1438, 9.88086323, -16.55, -2.43900696
1439, 9.87976967, -16.55, 2.43558816
1440, 12.797718, -16.55, 6.47213595
1441, 19.9708389, -16.55, 7.60887344
1442, 23.9705688, -16.55, 4.70443832
1443, 25.4999487, -16.55, 0.0286472238
1444, 23.9741269, -16.55, -4.69954044
1445, 19.9813493, -16.55, -7.60545235
1446, 15.027864, -16.55, -7.60845213
1447, 11.0261825, -16.55, -4.69996666
1448, 9.50006006, -16.55, 0.0309986782
1449, 11.0256101, -16.55, 4.69917818
1450, 15.027864, -16.55, 7.60845213
1451, 36.0922742, -18.6764424, -5
1452, 36, -20.1368137, -5
1453, 31.9343376, -21.5, -5
1454, 27.842187, -21.5, -5
1455, 23.7558049, -21.5, -5
1456, 33.9425283, -21.5, -5
1457, 29.8912395, -21.5, -5
1458, 25.8231223, -21.5, -5
1459, 21.7443899, -21.5, -5
1460, 19.7037241, -22.7480681, -5
1461, 24.1151814, -24, -5
1462, 28.5895461, -24, -5
1463, 21.9171001, -24, -5
1464, 26.3512671, -24, -5
1465, 30.7644005, -24, -5
1466, 33.2225188, -23.9878624, -5
1467, 33.6339809, -23.9436369, -5
1468, 34.0240632, -23.8608552, -5
1469, 34.3936017, -23.7433054, -5
1470, 34.760572, -23.5854802, -5
1471, 35.0960112, -23.4001573, -5
1472, 35.4165118, -23.1803273, -5
1473, 35.7175323, -22.9273107, -5
1474, 35.994719, -22.6431587, -5
1475, 36.2385622, -22.3379912, -5
1476, 36.4527303, -22.0082984, -5
1477, 36.6317779, -21.6626838, -5
1478, 36.7745505, -21.3062776, -5
1479, 36.8867686, -20.9206113, -5
1480, 36.9583836, -20.5345667, -5
1481, 36.9916033, -20.1463706, -5
1482, 37, -18.6723227, -5
1483, 36.8265321, -17.652967, -5
1484, 36.4179903, -18.2597597, -5
1485, 36.1840836, -18.5751463, -7.25032323
1486, 35.6568542, -19.1568542, -7.2642974
1487, 35.8285157, -18.9674551, -5.00736528
1488, 36.6517569, -17.9445619, -7.24999028
1489, 37.0276241, -17.3174653, -4.99961838
1490, 37.0553701, -17.2711739, -7.2488556
1491, 38, -16.7331607, -4
1492, 38, -18.3631133, -4
1493, 38, -15.1228234, -4
1494, 37.7040201, -19.9854594, -4.71053369
1495, 37.9533878, -19.9977101, -4.30192533
1496, 37.2849894, -19.9648738, -4.95878664
1497, 37.2237718, -16.9151184, -4.97464156
1498, 37.5207624, -16.1989072, -4.85370167
1499, 37.7500947, -15.4447248, -4.66133044
1500, 37.9033324, -14.6761215, -4.42894116
1501, 37.9811868, -13.8829512, -4.19306071
1502, 37.6849813, -20.4469285, -4.7083372
1503, 37.9029584, -20.4792623, -4.37694318
1504, 37.3624827, -20.3990903, -4.9250494
1505, 37.9879471, -20.2453434, -4
1506, 37.6190768, -20.9041005, -4.70786267
1507, 37.8341227, -20.9579667, -4.37248124
1508, 37.296739, -20.8233591, -4.92740701
1509, 37.9406103, -20.7281489, -4
1510, 37.5089298, -21.3527506, -4.70710678
1511, 37.7130309, -21.4257792, -4.38268343
1512, 37.2026442, -21.2431599, -4.92424274
1513, 37.8426503, -21.2200793, -4
1514, 37.3546253, -21.7881892, -4.70710678
1515, 37.5505856, -21.8808715, -4.38268343
1516, 37.0613501, -21.6494803, -4.92387953
1517, 37.702096, -21.6822907, -4
1518, 37.1583834, -22.2064065, -4.70710678
1519, 37.3443156, -22.3178499, -4.38268343
1520, 36.8801162, -22.0396195, -4.92387953
1521, 37.514502, -22.1352004, -4
1522, 36.922094, -22.6033749, -4.70710678
1523, 37.0962075, -22.7325063, -4.38268343
1524, 36.6615147, -22.4101161, -4.92387953
1525, 37.2834772, -22.5674174, -4
1526, 36.6480327, -22.9752714, -4.70710678
1527, 36.8086507, -23.120847, -4.38268343
1528, 36.4076509, -22.757402, -4.92387953
1529, 37.0086557, -22.9783395, -4
1530, 36.3388388, -23.3185143, -4.70710678
1531, 36.4844145, -23.4791324, -4.38268343
1532, 36.1195876, -23.0766079, -4.92472916
1533, 36.6982112, -23.3560471, -4
1534, 35.9974901, -23.6297982, -4.70710678
1535, 36.1287367, -23.8067637, -4.37399603
1536, 35.8042314, -23.369219, -4.92387953
1537, 36.3584968, -23.695991, -4
1538, 35.6271262, -23.9058787, -4.70739405
1539, 35.7403798, -24.0948309, -4.37478156
1540, 35.4574604, -23.6228083, -4.92629621
1541, 35.97093, -24.014151, -4
1542, 35.230979, -24.1431919, -4.70891862
1543, 35.3261866, -24.3444913, -4.37265673
1544, 35.0894185, -23.8438873, -4.92734915
1545, 35.5702552, -24.2817763, -4
1546, 34.8143736, -24.3425896, -4.70820561
1547, 34.8889347, -24.5509738, -4.3742495
1548, 34.7014673, -24.0270374, -4.92868761
1549, 35.1308472, -24.5165609, -4
1550, 34.3800794, -24.4998805, -4.70783339
1551, 34.4338315, -24.7144708, -4.37357663
1552, 34.2998672, -24.1796554, -4.92651367
1553, 34.6809452, -24.7025774, -4
1554, 33.9323531, -24.6133797, -4.7079384
1555, 33.964601, -24.8307774, -4.37739939
1556, 33.8842815, -24.2893072, -4.92553762
1557, 34.2097807, -24.84523, -4
1558, 33.4756629, -24.6823408, -4.7081489
1559, 33.486626, -24.905499, -4.36884611
1560, 33.4590382, -24.3439363, -4.93012206
1561, 33.7297056, -24.9403794, -4
1562, 33, -24.6927135, -4.7212129
1563, 33, -24.9528582, -4.30341599
1564, 33, -24.2637692, -4.96458583
1565, 33.2403102, -24.9881943, -4
1566, 23.5863629, -25, -4
1567, 28.3148851, -25, -4
1568, 21.2212446, -25, -4
1569, 25.9303614, -25, -4
1570, 30.6462457, -25, -4
1571, 19.4542745, -24.8197714, -4.57269086
1572, 19.2858861, -24.9302598, -4.36690142
1573, 19.6586076, -24.4232555, -4.90601037
1574, 17.5, -22.25, -3.58
1575, 17.5, -23.625, -3.58
1576, 17.5, -20.8750326, -3.58
1577, 19.3966978, -19.5, -4.49702384
1578, 19.8577673, -19.5, -6.54528289
1579, 18.5697814, -19.5, -8.17070675
1580, 16.445823, -19.5, -8.17832752
1581, 15.1406745, -19.5, -6.53850066
1582, 15.6079678, -19.5, -4.49115468
1583, 18.5651163, -19.5, -3.82700039
1584, 19.8584199, -19.5, -5.45754662
1585, 19.376227, -19.5, -7.52845414
1586, 17.4957543, -19.5, -8.41999628
1587, 15.6162497, -19.5, -7.51917246
1588, 15.13791, -19.5, -5.47375796
1589, 16.4500014, -19.5, -3.81965534
1590, 18.2044584, -25, -3.68480275
1591, 19.4696272, -21.5, -7.40604714
1592, 17.2749493, -21.5, -8.40951285
1593, 15.2959352, -21.5, -6.99924892
1594, 19.9076445, -21.5, -6.24422971
1595, 18.4691777, -21.5, -8.21745229
1596, 16.0850464, -21.5, -7.96323874
1597, 15.0916129, -21.5, -5.76320576
1598, 15.5327527, -22.75, -4.59062488
1599, 15.5667559, -24.3323816, -4.54433274
1600, 15.5412058, -24.1686567, -4.5789
1601, 15.6098993, -24.4863299, -4.48873587
1602, 15.9874852, -24.917809, -4.11089998
1603, 15.8089435, -24.7999692, -4.268894
1604, 16.197544, -24.9813917, -3.96039016
1605, 16.9500818, -25, -3.64330952
1606, 35.3602751, -19.4256579, -5.10507201
1607, 34.7324582, -19.9382384, -5.45295837
1608, 34.1299234, -20.340344, -6.29090662
1609, 34, -20.9588625, -7
1610, 34.6268346, -21.5, -5.54589653
1611, 35.1183813, -21.5, -5.20479847
1612, 34.1471468, -21.5, -6.24704909
1613, 35.0751463, -19.6840836, -7.35902436
1614, 37.3910363, -16.5614675, -7.20958363
1615, 37.9614778, -14.2841371, -6.88744127
1616, 37.9614778, -14.2841371, -8.19372064
1617, 37.9614778, -14.2841371, -5.58126302
1618, 38, -13.5, -6.75
1619, 38, -13.5, -8.12498937
1620, 38, -13.5, -5.37885854
1621, 37.8462822, -15.0607226, -7.01643743
1622, 37.6555227, -15.8222774, -7.1271984
1623, 37.9759236, -20.4900857, -0.0009145123
1624, 37.9759236, -20.4900857, -1.99671492
1625, 37.9759236, -20.4900857, 1.99823487
1626, 37.9879002, -20.2462976, 4
1627, 38, -20, -0.000100735788
1628, 38, -20, -2.00117427
1629, 38, -20, 2.00076859
1630, 37.9039264, -20.9754516, 0.000958170079
1631, 37.9039264, -20.9754516, -1.99881329
1632, 37.9039264, -20.9754516, 1.99575926
1633, 37.9406551, -20.7278468, 4
1634, 37.7847017, -21.4514234, -0.000234882256
1635, 37.7847017, -21.4514234, -1.99824275
1636, 37.7847017, -21.4514234, 1.99926805
1637, 37.8439582, -21.2148582, 4
1638, 37.6193977, -21.9134172, -4.68661261e-05
1639, 37.6193977, -21.9134172, -1.99913446
1640, 37.6193977, -21.9134172, 1.99901928
1641, 37.7015075, -21.6839356, 4
1642, 37.4096063, -22.3569837, -1.33226763e-14
1643, 37.4096063, -22.3569837, -2
1644, 37.4096063, -22.3569837, 2
1645, 37.514502, -22.1352004, 4
1646, 37.1573481, -22.7778512, -1.33226763e-14
1647, 37.1573481, -22.7778512, -1.99813549
1648, 37.1573481, -22.7778512, 2
1649, 37.2834772, -22.5674174, 4
1650, 36.8650523, -23.1719664, -1.33226763e-14
1651, 36.8650523, -23.1719664, -1.99802012
1652, 36.8650523, -23.1719664, 1.9992618
1653, 37.0112002, -22.9749088, 4
1654, 36.5355339, -23.5355339, -1.33226763e-14
1655, 36.5355339, -23.5355339, -2
1656, 36.5355339, -23.5355339, 1.99923851
1657, 36.7002931, -23.3537502, 4
1658, 36.1719664, -23.8650523, 0.000222060575
1659, 36.1719664, -23.8650523, -1.99795588
1660, 36.1719664, -23.8650523, 1.99934412
1661, 36.3537502, -23.7002931, 4
1662, 35.7778512, -24.1573481, 7.70584795e-05
1663, 35.7778512, -24.1573481, -1.99800563
1664, 35.7778512, -24.1573481, 1.99595382
1665, 35.969818, -24.0149758, 4
1666, 35.3569837, -24.4096063, 9.63631501e-05
1667, 35.3569837, -24.4096063, -1.99583999
1668, 35.3569837, -24.4096063, 1.99571886
1669, 35.5697335, -24.282089, 4
1670, 34.9134172, -24.6193977, -0.000504374685
1671, 34.9134172, -24.6193977, -1.99408992
1672, 34.9134172, -24.6193977, 1.99570421
1673, 35.1296411, -24.5171314, 4
1674, 34.4514234, -24.7847017, 0.000495491757
1675, 34.4514234, -24.7847017, -1.99905223
1676, 34.4514234, -24.7847017, 1.99617056
1677, 34.6823705, -24.7020675, 4
1678, 33.9754516, -24.9039264, -0.000344436756
1679, 33.9754516, -24.9039264, -1.99766969
1680, 33.9754516, -24.9039264, 1.99691744
1681, 34.2102064, -24.8451234, 4
1682, 33.4900857, -24.9759236, 0.000829921759
1683, 33.4900857, -24.9759236, -1.99869648
1684, 33.4900857, -24.9759236, 1.99750075
1685, 33.7300057, -24.9403349, 4
1686, 33, -25, -0.00121923274
1687, 33, -25, -1.99794274
1688, 33, -25, 1.99863131
1689, 33.2398623, -24.9882163, 4
1690, 16.2000272, -25, -3.76048674
1691, 15.6257626, -25, -3.5064516
1692, 14.9777007, -25, -3.07343053
1693, 14.4265695, -25, -2.52229925
1694, 13.9935484, -25, -1.87423743
1695, 13.7395133, -25, -1.29997282
1696, 13.92, -25, -1.91725546e-16
1697, 13.7395133, -25, 1.29997282
1698, 13.9935484, -25, 1.87423743
1699, 14.4265695, -25, 2.52229925
1700, 14.9777007, -25, 3.07343053
1701, 15.6257626, -25, 3.5064516
1702, 16.2000272, -25, 3.76048674
1703, 17.6660036, -25, 3.58570035
1704, 23.6133528, -25, 4
1705, 28.3056668, -25, 4
1706, 21.222217, -25, 4
1707, 25.9528327, -25, 4
1708, 30.630469, -25, 4
1709, 25.3988515, -25, 1.50025436
1710, 25.8594362, -25, -0.538015783
1711, 24.5519912, -25, -2.17938399
1712, 22.4440074, -25, -2.17744794
1713, 21.140603, -25, -0.538187534
1714, 21.6007673, -25, 1.4997717
1715, 24.5067612, -25, 2.20064352
1716, 25.8608087, -25, 0.531960699
1717, 25.3966123, -25, -1.50308407
1718, 23.5000261, -25, -2.42
1719, 21.6043909, -25, -1.50434906
1720, 21.139209, -25, 0.532039536
1721, 22.5018929, -25, 2.2045821
1722, 15.804923, -24.9017792, -4.09227793
1723, 14.8861355, -24.7079595, -3.9119246
1724, 15.0672102, -24.924205, -3.64092722
1725, 14.7648266, -24.3834733, -4.09347629
1726, 15.1274508, -24, -4.37398647
1727, 14.7221488, -22.75, -4.15734806
1728, 15.1274508, -21.5, -4.37398647
1729, 18.4481806, -19.5, -5.26450451
1730, 18.6647203, -19.5, -6.28883669
1731, 18.0026771, -19.5, -7.0896402
1732, 16.9526058, -19.5, -7.06787619
1733, 16.3300865, -19.5, -6.26702512
1734, 16.5618022, -19.5, -5.25181224
1735, 17.9825374, -19.5, -4.90129273
1736, 18.6606782, -19.5, -5.69532636
1737, 18.4603886, -19.5, -6.7194816
1738, 17.5360089, -19.5, -7.19945961
1739, 16.591823, -19.5, -6.78435614
1740, 16.3300865, -19.5, -5.73297488
1741, 16.8998331, -19.5, -4.96086588
1742, 13.9644661, -22.75, -3.53553391
1743, 14.3433075, -24, -3.84644098
1744, 14.3433075, -21.5, -3.84644098
1745, 13.3426519, -22.75, -2.77785117
1746, 13.653559, -24, -3.15669254
1747, 13.653559, -21.5, -3.15669254
1748, 12.9093751, -22.7493246, -1.96724726
1749, 13.1260135, -24, -2.37254921
1750, 13.1320851, -21.5, -2.38390828
1751, 11.5, -20.4984079, 2.42
1752, 13.4004417, -19.5, 1.49823935
1753, 13.8572847, -19.5, -0.547365397
1754, 12.5495814, -19.5, -2.18054552
1755, 10.4489456, -19.5, -2.17983594
1756, 9.14295664, -19.5, -0.548403667
1757, 9.60707306, -19.5, 1.50772265
1758, 12.5317071, -19.5, 2.18905926
1759, 13.8461738, -19.5, 0.59318517
1760, 13.4004847, -19.5, -1.49818491
1761, 11.5020393, -19.5, -2.41999914
1762, 9.59757792, -19.5, -1.49572398
1763, 9.13873743, -19.5, 0.529942539
1764, 10.4175839, -19.5, 2.1644342
1765, 12.2380354, -21.5, 2.30471339
1766, 12.9093751, -22.7528763, 1.96724726
1767, 12.9556673, -24.3323816, 1.93324412
1768, 12.9211, -24.1686567, 1.95879422
1769, 13.0112641, -24.4863299, 1.89010072
1770, 13.3891, -24.917809, 1.51251482
1771, 13.231106, -24.7999692, 1.69105648
1772, 13.5396098, -24.9813917, 1.30245604
1773, 13.3891, -24.917809, -1.51251483
1774, 13.5396098, -24.9813917, -1.30245607
1775, 13.2311058, -24.7999691, -1.69105666
1776, 12.9556673, -24.3323816, -1.93324412
1777, 13.0112641, -24.4863299, -1.89010072
1778, 12.9211, -24.1686567, -1.95879422
1779, 10.7448677, -21.5, -2.29916839
1780, 9.19197923, -21.5, -0.727626378
1781, 9.55034895, -21.5, 1.43361807
1782, 11.8665264, -21.5, -2.39208244
1783, 9.76399384, -21.5, -1.68602569
1784, 9.10741225, -21.5, 0.363213211
1785, 10.3984584, -21.5, 2.15476359
1786, 13.3426519, -22.75, 2.77785117
1787, 13.1260135, -24, 2.37254921
1788, 13.1309416, -21.5, 2.38176896
1789, 13.9644661, -22.75, 3.53553391
1790, 13.653559, -24, 3.15669254
1791, 13.653559, -21.5, 3.15669254
1792, 14.7221488, -22.75, 4.15734806
1793, 14.3433075, -24, 3.84644098
1794, 14.3433075, -21.5, 3.84644098
1795, 15.5327527, -22.75, 4.59062488
1796, 15.1274508, -24, 4.37398647
1797, 15.1274508, -21.5, 4.37398647
1798, 17.5, -20.4967551, 8.42
1799, 19.3877035, -19.5, 7.51425741
1800, 19.8619412, -19.5, 5.47309044
1801, 18.5501984, -19.5, 3.81975155
1802, 16.4500014, -19.5, 3.81965534
1803, 15.1406745, -19.5, 5.46149934
1804, 15.6079678, -19.5, 7.50884532
1805, 18.518757, -19.5, 8.19511599
1806, 19.8580406, -19.5, 6.54409967
1807, 19.3848717, -19.5, 4.48221915
1808, 17.5039896, -19.5, 3.58000329
1809, 15.5876405, -19.5, 4.51700261
1810, 15.1406745, -19.5, 6.53850066
1811, 16.4441987, -19.5, 8.17754073
1812, 19.5376233, -21.5, 7.30556174
1813, 18.6175511, -21.5, 8.14650403
1814, 19.9127256, -21.5, 6.18749725
1815, 19.7037241, -22.7531806, 5
1816, 19.4576521, -24.816513, 4.57732704
1817, 19.6555901, -24.4357314, 4.90007674
1818, 19.2829687, -24.9315096, 4.36371687
1819, 15.9874852, -24.917809, 4.11089999
1820, 16.1975439, -24.9813917, 3.96039018
1821, 15.8089433, -24.7999691, 4.26889418
1822, 15.5667559, -24.3323816, 4.54433274
1823, 15.6098993, -24.4863299, 4.48873587
1824, 15.5412058, -24.1686567, 4.5789
1825, 15.0944034, -21.5, 6.26363793
1826, 15.8846988, -21.5, 7.80199942
1827, 15.1590207, -21.5, 5.38663553
1828, 15.3474332, -21.5, 7.10582824
1829, 16.6349657, -21.5, 8.26011407
1830, 36.0922989, -18.6764151, 5
1831, 36, -20.1400147, 5
1832, 23.7682469, -21.5, 5
1833, 27.8475309, -21.5, 5
1834, 31.9305177, -21.5, 5
1835, 21.7365613, -21.5, 5
1836, 25.821729, -21.5, 5
1837, 29.8903629, -21.5, 5
1838, 33.9411855, -21.5, 5
1839, 24.1451398, -24, 5
1840, 28.5826775, -24, 5
1841, 21.9250114, -24, 5
1842, 26.3480757, -24, 5
1843, 30.7688929, -24, 5
1844, 33.2223147, -23.9878724, 5
1845, 33.634003, -23.9436336, 5
1846, 34.0244082, -23.8607688, 5
1847, 34.3936464, -23.7432894, 5
1848, 34.761064, -23.5852475, 5
1849, 35.0959638, -23.4001857, 5
1850, 35.4163964, -23.180413, 5
1851, 35.721666, -22.9235641, 5
1852, 35.9941878, -22.6437447, 5
1853, 36.2318176, -22.3470852, 5
1854, 36.4554653, -22.0037353, 5
1855, 36.6311137, -21.6640881, 5
1856, 36.7755813, -21.3033968, 5
1857, 36.8862434, -20.9227079, 5
1858, 36.9584658, -20.5340126, 5
1859, 36.9916385, -20.1456541, 5
1860, 37, -18.6725458, 5
1861, 36.826526, -17.6529772, 5
1862, 36.41794, -18.2598274, 5
1863, 34, -21.5, -8.2495221
1864, 34, -20.418217, -8.25
1865, 34.4445619, -20.1517569, -7.59194836
1866, 37.9811757, -13.8831777, 4.19311726
1867, 37.9034689, -14.6752011, 4.42865355
1868, 37.7488983, -15.4495011, 4.66268495
1869, 37.5160884, -16.21197, 4.8565353
1870, 37.224008, -16.9146191, 4.97458732
1871, 37.0276018, -17.3175026, 4.999619
1872, 37.7032358, -19.9854209, 4.71131055
1873, 37.953734, -19.9977271, 4.3008287
1874, 37.2850711, -19.9648778, 4.95876239
1875, 38, -16.7357871, 4
1876, 38, -18.3634163, 4
1877, 38, -15.1229353, 4
1878, 37.6843781, -20.446839, 4.70894439
1879, 37.9039418, -20.4794082, 4.37449093
1880, 37.3613165, -20.3989173, 4.92553263
1881, 37.6186489, -20.9039933, 4.70830255
1882, 37.8352956, -20.9582605, 4.36945425
1883, 37.2964258, -20.8232806, 4.92753717
1884, 37.5089298, -21.3527506, 4.70710678
1885, 37.7130309, -21.4257792, 4.38268343
1886, 37.2021894, -21.2429972, 4.92444213
1887, 37.3546253, -21.7881892, 4.70710678
1888, 37.5505856, -21.8808715, 4.38268343
1889, 37.0637161, -21.6505993, 4.92279109
1890, 37.1583834, -22.2064065, 4.70710678
1891, 37.3443156, -22.3178499, 4.38268343
1892, 36.8572876, -22.0259366, 4.93445997
1893, 36.922094, -22.6033749, 4.70710678
1894, 37.0962075, -22.7325063, 4.38268343
1895, 36.6836354, -22.4265219, 4.91198488
1896, 36.6480327, -22.9752714, 4.70710678
1897, 36.8183966, -23.1296802, 4.3492415
1898, 36.4076509, -22.757402, 4.92387953
1899, 36.3388388, -23.3185143, 4.70710678
1900, 36.4844145, -23.4791324, 4.38268343
1901, 36.1231203, -23.0805056, 4.92254637
1902, 35.9974901, -23.6297982, 4.70710678
1903, 36.1266215, -23.8039117, 4.38268343
1904, 35.803069, -23.3676517, 4.92468534
1905, 35.6271051, -23.9058435, 4.70743499
1906, 35.7402497, -24.0946139, 4.37540697
1907, 35.4576551, -23.6231331, 4.92614206
1908, 35.2308696, -24.1429606, 4.70917312
1909, 35.3262021, -24.3445241, 4.37256648
1910, 35.0894151, -23.8438801, 4.92735236
1911, 34.8143776, -24.3426007, 4.70819379
1912, 34.889128, -24.551514, 4.37282484
1913, 34.7014907, -24.0271029, 4.92865982
1914, 34.3800943, -24.49994, 4.7077722
1915, 34.4338997, -24.7147432, 4.37287848
1916, 34.2998543, -24.1796039, 4.92653524
1917, 33.9324046, -24.6137271, 4.70758787
1918, 33.9645881, -24.8306903, 4.37761531
1919, 33.8842893, -24.2893602, 4.9255157
1920, 33.4756668, -24.6824191, 4.7080707
1921, 33.4866222, -24.9054223, 4.36903975
1922, 33.4590304, -24.3437794, 4.93018407
1923, 33, -24.6942339, 4.71974948
1924, 33, -24.9511801, 4.3086364
1925, 33, -24.2599534, 4.96562116
1926, 15.804923, -24.9017792, 4.09227793
1927, 14.8861355, -24.7079595, 3.9119246
1928, 15.0672102, -24.924205, 3.64092722
1929, 14.7648266, -24.3834733, 4.09347629
1930, 14.1731816, -24.7079595, 3.32681841
1931, 14.4036459, -24.924205, 3.09635408
1932, 14.0187846, -24.3834733, 3.48121543
1933, 13.5880754, -24.7079595, 2.61386445
1934, 13.8590728, -24.924205, 2.43278979
1935, 13.4065237, -24.3834733, 2.73517341
1936, 13.4077221, -24.9017792, 1.69507702
1937, 13.4077221, -24.9017792, -1.69507702
1938, 13.5880754, -24.7079595, -2.61386445
1939, 13.8590728, -24.924205, -2.43278979
1940, 13.4065237, -24.3834733, -2.73517341
1941, 14.1731816, -24.7079595, -3.32681841
1942, 14.4036459, -24.924205, -3.09635408
1943, 14.0187846, -24.3834733, -3.48121543
1944, 23.5, -22.2458189, 2.42
1945, 23.5, -23.6193741, 2.42
1946, 23.5, -20.8699808, 2.42
1947, 25.4188968, -19.5, 1.47452871
1948, 25.8666477, -19.5, -0.505350254
1949, 24.5466203, -19.5, -2.18196835
1950, 22.4657122, -19.5, -2.18784111
1951, 21.1396184, -19.5, -0.533852843
1952, 21.603647, -19.5, 1.50341125
1953, 24.5573041, -19.5, 2.17681144
1954, 25.8577829, -19.5, 0.545215503
1955, 25.4183769, -19.5, -1.47520503
1956, 23.4741922, -19.5, -2.41986238
1957, 21.6264503, -19.5, -1.53173479
1958, 21.1591338, -19.5, 0.613795808
1959, 22.4333185, -19.5, 2.17223168
1960, 17.5, -18.0211067, -4.8
1961, 18.4322269, -16.55, -5.24438572
1962, 18.6404286, -16.55, -6.37339337
1963, 18.0191109, -16.55, -7.08190752
1964, 16.9793395, -16.55, -7.08116264
1965, 16.3300865, -16.55, -6.26702512
1966, 16.5618022, -16.55, -5.25181224
1967, 18.0145379, -16.55, -4.91591018
1968, 18.6713616, -16.55, -5.73940091
1969, 18.4625429, -16.55, -6.7165969
1970, 17.5002592, -16.55, -7.19999997
1971, 16.5618022, -16.55, -6.74818776
1972, 16.3302891, -16.55, -5.73208901
1973, 16.9793395, -16.55, -4.91883736
1974, 12.453673, -19.5, 0.728359641
1975, 12.6644725, -19.5, -0.289834046
1976, 11.9997844, -19.5, -1.09097002
1977, 10.9620692, -19.5, -1.07267442
1978, 10.3248103, -19.5, -0.242753463
1979, 10.5711827, -19.5, 0.759801575
1980, 11.9792709, -19.5, 1.10013608
1981, 12.6604723, -19.5, 0.305457159
1982, 12.4601785, -19.5, -0.719761953
1983, 11.5335254, -19.5, -1.1995316
1984, 10.5863081, -19.5, -0.777924873
1985, 10.3221012, -19.5, 0.229247377
1986, 10.9426791, -19.5, 1.06272924
1987, 18.4454038, -19.5, 6.73906138
1988, 18.6354032, -19.5, 5.61159369
1989, 18.0017334, -19.5, 4.90992494
1990, 16.9586673, -19.5, 4.92903832
1991, 16.3300865, -19.5, 5.73297488
1992, 16.5618022, -19.5, 6.74818776
1993, 17.9826651, -19.5, 7.09865119
1994, 18.6669402, -19.5, 6.27973292
1995, 18.451586, -19.5, 5.26891587
1996, 17.536236, -19.5, 4.80054723
1997, 16.5900133, -19.5, 5.21774412
1998, 16.3300865, -19.5, 6.26702512
1999, 16.968927, -19.5, 7.07608617
2000, 35.8313548, -18.9643225, 5.00712298
2001, 35.6568542, -19.1568542, 7.26360559
2002, 35.9204689, -18.8660003, 9.5
2003, 36.1840836, -18.5751463, 7.25024274
2004, 36.417933, -18.2598369, 9.5
2005, 36.6517569, -17.9445619, 7.25004544
2006, 36.8535635, -17.6078679, 9.5
2007, 37.0553701, -17.2711739, 7.24885178
2008, 34.6231896, -21.5, 5.54934736
2009, 35.1150291, -21.5, 5.20644864
2010, 34.1547126, -21.5, 6.228693
2011, 34, -20.9582668, 7
2012, 34.1407555, -20.3338514, 6.2629723
2013, 34.7355657, -19.9359338, 5.45041753
2014, 35.3612111, -19.4248096, 5.10475629
2015, 34, -21.5, 8.24980324
2016, 34, -20.9591053, 9.5
2017, 34, -20.418217, 8.25
2018, 37.9614778, -14.2841371, 6.88744127
2019, 37.9614778, -14.2841371, 5.58035567
2020, 37.9614778, -14.2841371, 8.1940311
2021, 37.9807429, -13.8919867, 9.5
2022, 38, -13.5, 6.75
2023, 38, -13.5, 5.3783179
2024, 38, -13.5, 8.125
2025, 37.8462822, -15.0607226, 7.01545579
2026, 37.9038654, -14.6725285, 9.5
2027, 37.6555227, -15.8222774, 7.12615322
2028, 37.750879, -15.4415938, 9.5
2029, 37.3910363, -16.5614675, 7.2092975
2030, 37.5232234, -16.1920292, 9.5
2031, 37.2232032, -16.9163207, 9.5
2032, 24.4476876, -19.5, 0.736130572
2033, 24.6639143, -19.5, -0.292067549
2034, 23.9874556, -19.5, -1.09653411
2035, 22.9575645, -19.5, -1.07040355
2036, 22.3243899, -19.5, -0.240709213
2037, 22.5736681, -19.5, 0.762829769
2038, 23.9817327, -19.5, 1.09906033
2039, 24.660895, -19.5, 0.303846576
2040, 24.4689971, -19.5, -0.707844992
2041, 23.5382759, -19.5, -1.19938941
2042, 22.5854739, -19.5, -0.776944054
2043, 22.3224247, -19.5, 0.230903432
2044, 22.9387647, -19.5, 1.0606672
2045, 12.4397882, -16.55, 0.746189063
2046, 12.6681915, -16.55, -0.274460415
2047, 12.0255843, -16.55, -1.07877764
2048, 10.9799086, -16.55, -1.08143651
2049, 10.3263723, -16.55, -0.250196055
2050, 10.5343656, -16.55, 0.712425565
2051, 12.0050499, -16.55, 1.0885424
2052, 12.6666759, -16.55, 0.280833148
2053, 12.4356088, -16.55, -0.751422808
2054, 11.482768, -16.55, -1.19987627
2055, 10.563109, -16.55, -0.749823486
2056, 10.3454926, -16.55, 0.327280612
2057, 10.9531631, -16.55, 1.06816169
2058, 19.844641, -16.55, 1.87153906
2059, 20.4253862, -16.55, -0.664917531
2060, 18.7984154, -16.55, -2.7044625
2061, 16.1983488, -16.55, -2.7029066
2062, 14.5761535, -16.55, -0.671655727
2063, 15.1578086, -16.55, 1.87460379
2064, 18.8068066, -16.55, 2.70041783
2065, 20.4245441, -16.55, 0.668611641
2066, 19.843867, -16.55, -1.87250831
2067, 17.5065882, -16.55, -2.99999277
2068, 15.155609, -16.55, -1.87185225
2069, 14.5755437, -16.55, 0.668995908
2070, 16.2000635, -16.55, 2.70373171
2071, 18.4272235, -16.55, 6.7617457
2072, 18.6711781, -16.55, 5.73857746
2073, 18.0268383, -16.55, 4.92183423
2074, 16.9793395, -16.55, 4.91883736
2075, 16.3300865, -16.55, 5.73297488
2076, 16.5618022, -16.55, 6.74818776
2077, 17.9808149, -16.55, 7.09946213
2078, 18.6739782, -16.55, 6.24854603
2079, 18.4458923, -16.55, 5.26156396
2080, 17.4510982, -16.55, 4.80099682
2081, 16.5618022, -16.55, 5.25181224
2082, 16.3300865, -16.55, 6.26702512
2083, 17.0333474, -16.55, 7.10554753
2084, 24.4606901, -16.55, 0.719078944
2085, 24.6741858, -16.55, -0.24756344
2086, 24.0255002, -16.55, -1.07881861
2087, 22.9744658, -16.55, -1.07880202
2088, 22.3292849, -16.55, -0.263488399
2089, 22.5600012, -16.55, 0.745923699
2090, 23.9996759, -16.55, 1.09101969
2091, 24.6560577, -16.55, 0.321761706
2092, 24.4303454, -16.55, -0.757929679
2093, 23.5123675, -16.55, -1.19993627
2094, 22.5696563, -16.55, -0.757931745
2095, 22.3304624, -16.55, 0.268666919
2096, 22.9877038, -16.55, 1.08515097
2097, 11.5, -18.0169302, 1.2
2098, 17.5, -18.0251871, 7.2
2099, 35.0751463, -19.6840836, 7.3589686
2100, 35.3660003, -19.4204689, 9.5
2101, 34.4445619, -20.1517569, 7.59405386
2102, 34.7586492, -19.9188138, 9.5
2103, 34.2222809, -20.284987, 9.5
2104, 23.5, -18.0254967, 1.2
2105, 17.5, -17.5262668, 3
2106, 19.838044, -18.5, 1.87977393
2107, 20.4299626, -18.5, -0.644452536
2108, 18.79705, -18.5, -2.7051176
2109, 16.1897937, -18.5, -2.69877001
2110, 14.5712853, -18.5, -0.650099972
2111, 15.1585126, -18.5, 1.87548302
2112, 18.8047043, -18.5, 2.70143418
2113, 20.4428649, -18.5, 0.58270615
2114, 19.8643121, -18.5, -1.84662614
2115, 17.5013066, -18.5, -2.99999972
2116, 15.1513862, -18.5, -1.86655114
2117, 14.5583378, -18.5, 0.588747271
2118, 16.2062333, -18.5, 2.70668942
2119, 21.623872, -21.5, 9.5
2120, 25.7491089, -21.5, 9.5
2121, 29.875, -21.5, 9.5
2122, 19.5750266, -21.5, 9.5
2123, 23.6876179, -21.5, 9.5
2124, 27.8123572, -21.5, 9.5
2125, 31.9376121, -21.5, 9.5
2126, 38, -4.49113899, 9.5
2127, 38, -9, 9.5
2128, 38, -2.29327319, 9.5
2129, 38, -6.74801854, 9.5
2130, 38, -11.25, 9.5
2131, 20.9893906, -19, 9.5
2132, 24.4973963, -19, 9.5
2133, 19.3014295, -19, 9.5
2134, 22.7530201, -19, 9.5
2135, 26.2525644, -19, 9.5
2136, 28.2782918, -18.9870556, -7.12497526
2137, 28.2776246, -18.9870867, -4.75037165
2138, 28.2785179, -18.9870451, 7.12535895
2139, 28.2777862, -18.9870791, 4.74929221
2140, 28.2776788, -18.9870841, -2.37457008
2141, 28.2772767, -18.9871028, 2.37515335
2142, 28.2775685, -18.9870893, -0.000785279546
2143, 28.8327285, -18.9353892, -7.12508403
2144, 28.8332464, -18.9353165, -4.74918137
2145, 28.8330086, -18.9353499, 7.12512385
2146, 28.8330342, -18.9353463, 4.75
2147, 28.8342133, -18.9351808, -2.3755668
2148, 28.833012, -18.9353494, 2.37481565
2149, 28.8327196, -18.9353904, -0.00071152827
2150, 29.3803952, -18.8323915, -7.125
2151, 29.380217, -18.8324336, -4.74983739
2152, 29.3805738, -18.8323492, 7.12495677
2153, 29.3804388, -18.8323812, 4.74938458
2154, 29.3799259, -18.8325026, -2.37491085
2155, 29.3803209, -18.8324091, -0.000865164146
2156, 29.3801768, -18.8324432, 2.37492849
2157, 29.9157826, -18.6790896, -7.12498965
2158, 29.9157809, -18.6790901, -4.7499077
2159, 29.9157471, -18.6791016, 7.1250942
2160, 29.9157636, -18.679096, 4.74971695
2161, 29.9152293, -18.6792762, -2.3744256
2162, 29.915866, -18.6790614, 2.37497666
2163, 29.9158937, -18.6790521, -0.000747251057
2164, 30.4347861, -18.4766868, -7.12506883
2165, 30.4347726, -18.4766928, -4.74995587
2166, 30.4345885, -18.4767746, 7.12510723
2167, 30.4345894, -18.4767742, 4.74994309
2168, 30.4343933, -18.4768614, -2.37453284
2169, 30.4344075, -18.4768551, 2.3747841
2170, 30.4345831, -18.476777, 7.8986092e-05
2171, 30.9325799, -18.2270696, -7.12501655
2172, 30.9325271, -18.2270992, -4.75010217
2173, 30.9326043, -18.2270559, 7.125
2174, 30.9326043, -18.2270559, 4.75
2175, 30.932528, -18.2270987, 0.000188564163
2176, 30.9325956, -18.2270608, -2.37501997
2177, 30.9326768, -18.2270152, 2.37475823
2178, 31.4051713, -17.93225, -7.12499561
2179, 31.4053323, -17.9321388, -4.75023136
2180, 31.405063, -17.9323247, 7.12511743
2181, 31.4051518, -17.9322634, 4.75
2182, 31.405161, -17.9322571, -2.37497359
2183, 31.4052011, -17.9322294, 2.37502676
2184, 31.4051404, -17.9322713, 9.16659225e-06
2185, 31.8482431, -17.5949218, -7.12500812
2186, 31.8482841, -17.5948874, -4.74990144
2187, 31.8481782, -17.5949762, 7.12522552
2188, 31.8483642, -17.5948204, 4.75027545
2189, 31.8482902, -17.5948823, 1.02744403e-05
2190, 31.8482695, -17.5948997, -2.37501325
2191, 31.8483197, -17.5948577, 2.3750044
2192, 32.2581673, -17.217854, -7.12501588
2193, 32.2582371, -17.2177836, -4.74976798
2194, 32.2580024, -17.2180205, 7.12502816
2195, 32.2582244, -17.2177964, 4.75002526
2196, 32.2582388, -17.2177818, 7.53611916e-06
2197, 32.2582105, -17.2178104, -2.37501042
2198, 32.2582471, -17.2177734, 2.37499458
2199, 32.631345, -16.8043297, -7.125
2200, 32.6313858, -16.8042801, 7.12501552
2201, 32.6313872, -16.8042784, 4.74989231
2202, 32.631345, -16.8043297, -4.75
2203, 32.6313598, -16.8043117, 0.000130435229
2204, 32.6313758, -16.8042923, -2.37500413
2205, 32.6313236, -16.8043558, 2.37487239
2206, 32.9644494, -16.3580535, -7.12496722
2207, 32.9644911, -16.3579919, 7.125
2208, 32.9645551, -16.3578973, -4.74995237
2209, 32.9644911, -16.3579919, 4.75
2210, 32.9645067, -16.3579688, 0.000119093512
2211, 32.964609, -16.3578176, -2.37470822
2212, 32.9645714, -16.3578732, 2.37483975
2213, 33.2547667, -15.8826565, -7.125
2214, 33.2548191, -15.8825609, 7.1249456
2215, 33.2546753, -15.8828231, 4.75002602
2216, 33.2546583, -15.882854, -4.74956926
2217, 33.2549257, -15.8823666, -2.37518875
2218, 33.2548875, -15.8824363, 2.37520303
2219, 33.2548392, -15.8825243, 9.2353425e-05
2220, 33.4996668, -15.3824245, -7.12501308
2221, 33.4996092, -15.3825574, -4.75094467
2222, 33.4996944, -15.3823608, 7.12508022
2223, 33.4998682, -15.3819595, 4.74998938
2224, 33.4996249, -15.3825213, 7.82415393e-05
2225, 33.499695, -15.3823593, -2.37498427
2226, 33.4994116, -15.3830135, 2.37567122
2227, 33.6970719, -14.8616265, -7.125
2228, 33.6970862, -14.8615828, -4.74928098
2229, 33.6970947, -14.8615566, 7.12504243
2230, 33.6972075, -14.8612116, 4.75033411
2231, 33.6970761, -14.8616137, -2.37506181
2232, 33.6970732, -14.8616224, 0.000100215318
2233, 33.6969584, -14.8619738, 2.37525357
2234, 33.8452734, -14.3247866, -7.1250695
2235, 33.8453811, -14.3243117, -4.74918454
2236, 33.845282, -14.3247489, 7.125
2237, 33.845282, -14.3247489, 4.75
2238, 33.8452919, -14.3247053, -2.37504891
2239, 33.8452158, -14.3250408, 2.37507695
2240, 33.8452883, -14.3247213, 4.92315109e-05
2241, 33.9430073, -13.7764955, -7.12506998
2242, 33.9430157, -13.7764316, -4.75
2243, 33.9430157, -13.7764316, 7.125
2244, 33.9430157, -13.7764316, 4.75
2245, 33.943008, -13.77649, -2.37497758
2246, 33.9430035, -13.7765245, 2.37498704
2247, 33.9429969, -13.7765753, -7.42869325e-06
2248, 33.9895622, -13.5, -7.12494882
2249, 33.9895652, -13.5, 7.125
2250, 33.9895652, -13.5, 4.75
2251, 33.9895652, -13.5, -4.75
2252, 33.9895554, -13.5, -2.37497402
2253, 33.9895567, -13.5, 2.37498945
2254, 33.9895535, -13.5, -1.88756311e-05
2255, 34, -0.537714452, 1.38724804
2256, 34, -6.25551933, -4.67927459
2257, 34, 5.52360379, -6.09707496
2258, 34, 5.56869621, 6.26129234
2259, 34, 6.96673883, -4.65743726
2260, 34, -7.84568382, 4.31970327
2261, 34, -8.62532215, -3.93873719
2262, 34, -5.63593515, 5.13382506
2263, 34, 3.63702837, 7.43000726
2264, 34, 6.86881075, 4.42798334
2265, 34, -2.24693524, -8.42772225
2266, 34, 4.06004212, -5.69589279
2267, 34, 4.16790406, 3.90756111
2268, 34, -1.77200209, -2.11008798
2269, 34, 0.0842227438, -0.952953749
2270, 34, -4.36865217, 7.04018406
2271, 34, -4.76704315, -6.88575007
2272, 34, -10.5119926, 2.92939667
2273, 34, -10.1426164, 6.14810103
2274, 34, -2.1037678, 0.922802913
2275, 34, 1.75656049, 0.981502416
2276, 34, 7.76403247, 3.263028
2277, 34, -3.98225459, -4.78675032
2278, 34, -4.00594914, 3.85737256
2279, 34, 2.72221103, -2.60803142
2280, 34, 4.19063676, 5.9127363
2281, 34, 3.71676642, -7.53685673
2282, 34, -6.89065437, 7.09312952
2283, 34, 4.79306969, 7.09715647
2284, 34, 6.45366864, 5.54315733
2285, 34, 5.56702604, 4.53286457
2286, 34, -10.8122688, -2.50941464
2287, 34, 6.45655847, -5.54659979
2288, 34, 5.59609194, -4.75663491
2289, 34, 7.64575066, -3.71965211
2290, 34, -10.6230748, -6.33834903
2291, 34, 4.76672918, -7.01878451
2292, 34, 2.69760767, -8.0844632
2293, 34, -10.3368746, 0.285465155
2294, 34, 6.17623964, -3.56783718
2295, 34, 2.70101595, 2.82695776
2296, 34, -3.27002824, -3.11203257
2297, 34, -2.48703434, 2.57311178
2298, 34, -7.47648312, -6.87113708
2299, 34, 1.59293739, -1.26986232
2300, 34, 4.29173302, -3.74712243
2301, 34, 2.84176795, 8.26002164
2302, 34, 1.79145949, 8.68341447
2303, 34, -1.47310631, -0.359240559
2304, 34, 8.1711786, -2.70769966
2305, 34, -12.0615374, -5.54417451
2306, 34, -12.0615374, -7.91917451
2307, 34, -9.81153741, -7.91917451
2308, 34, -11.8179589, 7.82286192
2309, 34, -11.8249348, 5.4532228
2310, 34, -9.57870657, 7.82977052
2311, 34, 1.18621769, -8.88512746
2312, 34, 0.56621828, -8.92576437
2313, 34, -3.37656436, -8.95413248
2314, 34, -1.13143701, -8.96358797
2315, 34, -0.56621828, -8.92576437
2316, 34, -1.70277524, -8.42389497
2317, 34, 1.79560874, -8.76391205
2318, 34, 2.5781943, -8.63037928
2319, 34, 3.16655014, -8.43065938
2320, 34, 1.91502212, -8.21799598
2321, 34, 3.67612952, -8.15685615
2322, 34, 4.23338321, -7.88204903
2323, 34, 3.20718705, -7.81065997
2324, 34, 4.75836459, -7.62301292
2325, 34, 5.27498138, -7.27782062
2326, 34, 4.2417478, -7.27782062
2327, 34, 5.65392173, -6.81665666
2328, 34, 6.1205591, -6.40729469
2329, 34, 5.14516979, -6.55732837
2330, 34, 6.58703645, -6.13205711
2331, 34, 6.9967076, -5.66491668
2332, 34, 5.99008113, -5.82183737
2333, 34, 7.25179778, -5.22033542
2334, 34, 7.59816474, -4.70384357
2335, 34, 6.71164865, -5.10201852
2336, 34, 7.93665918, -4.23591354
2337, 34, 8.21251426, -3.67634042
2338, 34, 7.30624474, -4.18854468
2339, 34, 8.47671388, -3.1649596
2340, 34, 8.69801436, -2.61483966
2341, 34, 7.90799346, -3.21461251
2342, 34, 8.92587307, -1.53044871
2343, 34, 8.99900307, -0.903519193
2344, 34, 8.49672262, -1.74261658
2345, 34, 9.0398254, -0.310476877
2346, 34, 9.08852811, 0.338879334
2347, 34, 8.6069662, 2.06604591
2348, 34, 8.76895901, 1.49790616
2349, 34, 8.48961753, 2.87584442
2350, 34, 8.2694256, 3.44549588
2351, 34, 7.96385809, 2.49203927
2352, 34, 7.99224601, 4.00246731
2353, 34, 7.55226193, 4.59470528
2354, 34, 7.20263888, 5.10678636
2355, 34, 7.32407786, 3.8700364
2356, 34, 6.99556552, 5.66402673
2357, 34, 6.58621831, 6.13059643
2358, 34, 6.66025691, 4.98369065
2359, 34, 6.14362231, 6.48919167
2360, 34, 5.67658758, 6.89918907
2361, 34, 6.01039771, 5.90226936
2362, 34, 5.28791292, 7.31639342
2363, 34, 4.77137662, 7.662317
2364, 34, 5.18207826, 6.6777744
2365, 34, 4.19430854, 7.82693154
2366, 34, 3.63256053, 8.1017508
2367, 34, 4.21385205, 7.25697494
2368, 34, 3.23970689, 8.52110066
2369, 34, 2.6632865, 8.72015593
2370, 34, 3.23432414, 7.85113016
2371, 34, 2.12917254, 8.91509775
2372, 34, 1.51425783, 9.06112461
2373, 34, 2.31962297, 8.45195045
2374, 34, -0.0287849459, 9.07232959
2375, 34, 0.617735473, 9.06911594
2376, 34, 0.9142374, 8.75920591
2377, 34, -1.16971068, 8.73736213
2378, 34, -3.29182599, 8.54564547
2379, 34, -1.95799154, -3.19955763
2380, 34, -0.886296335, -2.68041185
2381, 34, 1.41221873, -2.84032409
2382, 34, 2.40843077, -3.47643952
2383, 34, -0.832978155, -1.52766761
2384, 34, 0.0433633938, -2.15575302
2385, 34, 0.832781071, -1.11760211
2386, 34, 0.791379266, -2.29164563
2387, 34, 2.15454033, -1.90870479
2388, 34, -7.99864023, 3.01746303
2389, 34, -6.9289091, 3.5280952
2390, 34, -5.00655876, 3.33654123
2391, 34, -3.93500221, 2.78580061
2392, 34, -6.73597071, 4.7386071
2393, 34, -5.83854754, 3.88830086
2394, 34, -4.82945435, 4.51033787
2395, 34, 4.0089905, 2.80510481
2396, 34, 5.07875097, 3.33909982
2397, 34, 6.88997855, 3.05038429
2398, 34, 6.42603882, 3.55307043
2399, 34, 5.7870258, 3.59129954
2400, 34, 6.21415607, 4.47250148
2401, 34, 4.8702263, 4.23316179
2402, 34, 1.96331799, 8.17843582
2403, 34, -12.0084171, 3.83770849
2404, 34, -12.0137764, 1.45893546
2405, 34, -10.3308711, 4.54160982
2406, 34, -12.1702154, -1.26079216
2407, 34, -12.1588324, -3.62854567
2408, 34, -10.4473498, 1.63024946
2409, 34, -11.9201056, 0.144799576
2410, 34, -10.5971389, -1.10511244
2411, 34, -10.7208849, -4.42414429
2412, 34, -8.23824156, -8.18556854
2413, 34, -5.98824156, -8.18556854
2414, 34, -9.04977896, -6.60474306
2415, 34, -4.63352157, -8.19287503
2416, 34, -3.53459746, -7.66438083
2417, 34, -6.12176313, -6.87844357
2418, 34, -5.70657331, 8.29905401
2419, 34, -7.94615142, 8.29770349
2420, 34, -3.26524204, 7.37231851
2421, 34, -4.44902734, 8.27553211
2422, 34, -5.63174194, 7.06625972
2423, 34, -8.51825219, 6.62247575
2424, 34, -3.30734475, -5.69220975
2425, 34, -3.01141738, -4.57972097
2426, 34, -2.65989258, -3.72911509
2427, 34, -2.51663838, -2.61059801
2428, 34, -3.62403548, -3.94978087
2429, 34, -2.50831704, -7.53084764
2430, 34, -3.64620256, -6.73106223
2431, 34, -4.37669532, -5.84009367
2432, 34, 2.62108476, -7.33262142
2433, 34, 3.05031115, -5.0342922
2434, 34, 3.30230199, -6.13833621
2435, 34, 3.88840427, -6.61637476
2436, 34, 3.13066414, -7.05881819
2437, 34, 3.1661566, -4.05990702
2438, 34, 4.17588757, -4.72150761
2439, 34, 3.50151215, -3.20334981
2440, 34, -9.48327059, -0.156002721
2441, 34, -9.31481768, 1.02995293
2442, 34, -9.28585804, 2.29116348
2443, 34, -9.19744258, 3.62497976
2444, 34, -7.89509184, -3.15393171
2445, 34, -8.72802661, -2.32876241
2446, 34, -9.75019222, -3.2316469
2447, 34, -9.7166061, -1.52426732
2448, 34, -5.5193566, -3.59085693
2449, 34, -6.7000343, -3.5431732
2450, 34, -7.44944359, -4.31800866
2451, 34, -3.25171416, -1.88714843
2452, 34, -4.0559175, -2.76571956
2453, 34, -4.408977, -3.58692727
2454, 34, -5.11888696, -4.73301246
2455, 34, -2.96438865, 1.33423747
2456, 34, -2.6732796, 0.162404845
2457, 34, -2.57953907, -1.35553891
2458, 34, -2.45433964, -0.484457799
2459, 34, -1.61699266, -1.23416268
2460, 34, -1.78451501, 0.271145184
2461, 34, -3.22687737, 2.11579432
2462, 34, -2.29212427, 1.76597597
2463, 34, -3.27405617, 3.18792487
2464, 34, 2.51493496, 0.189808248
2465, 34, 2.79721247, 1.35889117
2466, 34, 3.32347267, 2.24058315
2467, 34, 3.44411599, 3.36070839
2468, 34, 2.21926166, 1.92611023
2469, 34, 3.74627327, -2.55668348
2470, 34, 3.00860413, -1.60544852
2471, 34, 2.51447516, -0.922872609
2472, 34, 1.66098471, -0.164125156
2473, 34, 6.67252721, -3.02742554
2474, 34, 5.45702434, -3.06259368
2475, 34, 4.55604075, -3.04783449
2476, 34, 5.23398633, -3.6574798
2477, 34, 7.66549865, -2.55493885
2478, 34, 7.38492423, -3.03128869
2479, 34, 6.91099515, -3.64374465
2480, 34, -3.55098716, 6.21828803
2481, 34, -1.81764309, 3.09504184
2482, 34, -2.65532196, 3.93563013
2483, 34, -4.10805459, 5.28379709
2484, 34, -5.01076105, 6.08475618
2485, 34, -3.31691244, 4.63752495
2486, 34, 0.320611575, 2.43251179
2487, 34, -0.850220858, 2.48919122
2488, 34, -1.50846388, 1.99053676
2489, 34, 2.74201107, 4.07787875
2490, 34, 1.92557569, 3.20796789
2491, 34, 1.4598956, 2.30458842
2492, 34, 0.624552238, 1.16922848
2493, 34, 2.87005117, 7.55046494
2494, 34, 3.2112721, 6.42044107
2495, 34, 3.94418651, 6.66079539
2496, 34, 3.38422229, 5.65562898
2497, 34, 3.39052501, 4.65666484
2498, 34, 4.17456262, 4.91222124
2499, 34, 2.458494, 7.94029368
2500, 34, -0.220579319, 0.220168597
2501, 34, 0.92680314, 0.00158426461
2502, 34, -0.696097348, -0.649541673
2503, 34, -1.00513417, 0.524408248
2504, 34, -1.32930263, 1.16029075
2505, 34, -6.86678803, -5.77249039
2506, 34, -8.06336913, -5.40925096
2507, 34, -5.51107004, -5.78241875
2508, 34, 4.79182296, -5.89648387
2509, 34, 4.82806703, -5.22626385
2510, 34, 5.55984786, -5.42685494
2511, 34, 4.41338565, -6.35733865
2512, 34, 6.02632521, -5.15161735
2513, 34, 4.88052346, 6.09229528
2514, 34, 4.50573782, 6.50654198
2515, 34, 5.56880197, 5.39383869
2516, 34, 4.87408175, 5.22729053
2517, 34, 6.01161077, 5.0366246
2518, 34, 6.28141539, -4.70703608
2519, 34, 5.88735543, -4.15921815
2520, 34, 6.57148923, -4.11263722
2521, 34, -7.37025898, 5.70920181
2522, 34, -6.26772936, 6.11538404
2523, 34, -8.99954372, 5.23016476
2524, 34, -9.63340293, -5.14154725
2525, 34, 4.94391248, -4.25187867
2526, 35.9958719, 0.918944475, -9.4397692
2527, 35.998465, 0.317257711, -9.47920583
2528, 35.9877588, 2.16033019, -9.23566089
2529, 35.9861493, 1.55002977, -9.35705719
2530, 37.99, 0.612574207, -9.4700761
2531, 37.9938917, 0.240548242, -9.49695407
2532, 38.2076232, 0.315952124, -9.49474456
2533, 38.2137568, 0.650707668, -9.47768851
2534, 38.2167697, 0.918144962, -9.455528
2535, 38.2211171, 1.24030412, -9.41868599
2536, 38.2294696, 3.64660189, -8.7722457
2537, 38.2177381, 3.92842437, -8.64970994
2538, 38.2543836, -2.47311963, 9.17244129
2539, 37.9938505, 0.233545383, 9.49712886
2540, 38.2062886, 0.322643044, 9.49451955
2541, 38.2622718, -4.72713909, 8.24039781
2542, 38.245, 3.63549261, 8.77685556
2543, 38.222642, 1.24047575, 9.41866338
2544, 38.2170259, 0.915869291, 9.4557487
2545, 38.2144891, 0.648570718, 9.47783499
2546, 38.2492318, -0.0150677151, -9.49998805
2547, 38.2594197, -2.4729065, -9.17249876
2548, 38.265006, -4.72789086, -8.23996651
2549, 38.216411, 4.17970381, -8.53112396
2550, 38.2077847, 4.4955132, -8.36901195
2551, 38.2143295, 4.75238826, -8.22586201
2552, 38.2083583, 5.00130384, -8.07694001
2553, 38.2185998, 5.29600188, -7.88684753
2554, 38.2190188, 5.52309886, -7.7295135
2555, 38.2248054, 5.77962992, -7.53962055
2556, 38.224657, 7.54698951, -5.77000427
2557, 38.2192368, 7.72945611, -5.52317917
2558, 38.2215206, 7.88111421, -5.30453002
2559, 38.2027059, 8.07598884, -5.00283962
2560, 38.2146576, 8.22687495, -4.75063454
2561, 38.2056205, 8.36885748, -4.49580077
2562, 38.2190409, 8.53225351, -4.17739753
2563, 38.2185236, 8.64795515, -3.93228581
2564, 38.2233815, 8.77322065, -3.64425567
2565, 38.2257716, 9.42087053, -1.22360059
2566, 38.22034, 9.45484631, -0.925138526
2567, 38.2208488, 9.47737503, -0.655257665
2568, 38.2053643, 9.49523539, -0.300840352
2569, 38.21575, 9.49999591, -0.00881603908
2570, 38.2077936, 9.49566839, 0.286847975
2571, 38.2172256, 9.4778469, 0.648396592
2572, 38.2186042, 9.45484202, 0.925182379
2573, 38.2319352, 9.41665371, 1.25564046
2574, 38.2230732, 8.77136278, 3.64872512
2575, 38.219306, 8.64949988, 3.92888684
2576, 38.218589, 8.53463156, 4.17253689
2577, 38.207234, 8.37031045, 4.49309504
2578, 38.2164452, 8.23049962, 4.74435202
2579, 38.2071446, 8.07971412, 4.99682097
2580, 38.2179459, 7.89399825, 5.28533742
2581, 38.2156219, 7.72778357, 5.52551908
2582, 38.2450907, 7.52793012, 5.79484841
2583, 38.2438728, 5.81583413, 7.51172905
2584, 38.245, 5.53353812, 7.7220435
2585, 38.245, 5.27791721, 7.89896132
2586, 38.245, 5.01664458, 8.06742072
2587, 38.245, 4.75, 8.22724134
2588, 38.245, 4.478269, 8.37825201
2589, 38.245, 4.20174256, 8.52029104
2590, 38.245, 3.92071678, 8.65320634
2591, 38.2664227, -6.72130687, 6.71371983
2592, 38.263254, -9.1772271, 2.45530093
2593, 38.2664324, -9.49999999, 0.000422037621
2594, 38.2551055, -8.22882832, 4.7472502
2595, 38.2673638, -9.17699372, -2.45617309
2596, 38.265424, -8.22422909, -4.75521355
2597, 38.2684301, -6.71988736, -6.71514064
2598, 37.99, 0.603565864, 9.47076493
2599, 37.99, 1.85131277, 9.30764526
2600, 37.99, 3.05040584, 8.98620584
2601, 37.99, 4.19724443, 8.51116975
2602, 37.99, 5.272267, 7.89050518
2603, 37.99, 6.25707962, 7.13483187
2604, 37.99, 7.12903572, 6.26395911
2605, 37.99, 7.89073614, 5.27214999
2606, 37.99, 8.51392795, 4.19222497
2607, 37.99, 8.98547007, 3.052926
2608, 37.99, 9.30691222, 1.85544032
2609, 37.99, 9.46958874, 0.622207573
2610, 37.99, 9.46950185, -0.625883609
2611, 37.99, 9.30854099, -1.84675586
2612, 37.99, 8.98591279, -3.05158527
2613, 37.99, 8.51334153, -4.19340545
2614, 37.99, 7.88788156, -5.27637047
2615, 37.99, 7.13577656, -6.25618112
2616, 37.99, 6.25778717, -7.13436285
2617, 37.99, 5.27474319, -7.88923137
2618, 37.99, 4.19656246, -8.51184206
2619, 37.99, 3.05124811, -8.98617677
2620, 37.99, 1.85075779, -9.30771349
2621, 38.5, 0.0115815041, 8.78621129
2622, 38.5, -2.40698435, 8.27325351
2623, 38.5, 2.40390757, 8.27869118
2624, 38.5, -4.74838297, 7.36059871
2625, 38.5, 4.72614101, 7.34968865
2626, 38.5, -6.56156884, 5.72854771
2627, 38.5, -8.62276129, 1.27109908
2628, 38.5, -7.99673718, 3.60027986
2629, 38.5, -8.62778743, -1.27164569
2630, 38.5, -7.96958243, -3.60422067
2631, 38.5, -6.53305527, -5.6989709
2632, 38.5, -4.74807844, -7.34824612
2633, 38.5, -2.41117443, -8.27008064
2634, 38.5, 0.0125741347, -8.79356985
2635, 38.5, 2.41270236, -8.29368075
2636, 38.5, 6.57187142, -5.72352763
2637, 38.5, 4.77666938, -7.39475523
2638, 38.5, 8.01275538, -3.63537513
2639, 38.5, 8.68728035, -1.26157734
2640, 38.5, 8.66497118, 1.26231569
2641, 38.5, 8.00669508, 3.63882192
2642, 38.5, 6.55481048, 5.69493797
2643, 35.9968315, 3.33542649, -8.87871428
2644, 35.9955621, 2.75826511, -9.07463417
2645, 35.9952086, 4.4739474, -8.36337541
2646, 35.9922779, 3.9233228, -8.63491341
2647, 35.9972655, 0.298378653, 9.48044323
2648, 35.9924957, 0.909002886, 9.4404208
2649, 35.9942996, 5.52607944, -7.70868163
2650, 35.9948523, 5.0079066, -8.05491365
2651, 35.9966572, 1.562108, 9.35465468
2652, 35.9949898, 2.15601395, 9.23651945
2653, 35.995, 6.48394421, -6.92235
2654, 35.995, 6.01680379, -7.33202115
2655, 35.9940314, 2.75675684, 9.07514616
2656, 35.9924953, 3.34099584, 8.87682374
2657, 35.995, 7.33202115, -6.01680379
2658, 35.995, 6.92235, -6.48394421
2659, 35.9961799, 3.917131, 8.63796687
2660, 35.9955432, 4.47246306, 8.36410741
2661, 35.9954659, 8.0550997, -5.00762816
2662, 35.9923364, 7.71082169, -5.52287662
2663, 35.995535, 5.00818145, 8.05473001
2664, 35.9950353, 5.5242608, 7.70989681
2665, 35.9944475, 8.63908122, -3.91487133
2666, 35.9947495, 8.36422226, -4.47223017
2667, 35.9945682, 6.01653953, 7.3322529
2668, 35.9979565, 6.48449687, 6.92186533
2669, 35.9969436, 9.07380087, -2.76071992
2670, 35.9989094, 8.87583928, -3.34389598
2671, 35.9970949, 6.92241144, 6.48387415
2672, 35.9984199, 7.33156948, 6.01731883
2673, 35.9998177, 9.35556449, -1.55753412
2674, 35.994934, 9.23798704, -2.14863588
2675, 35.9953111, 7.7091721, 5.52534541
2676, 35.9962614, 8.05410297, 5.00911988
2677, 35.9874307, 9.47928302, -0.316079976
2678, 35.9882778, 9.43860176, -0.936756118
2679, 35.9963682, 8.36333563, 4.47402807
2680, 35.9939378, 8.63814966, 3.91676034
2681, 35.9941357, 9.43960226, 0.921491445
2682, 35.9999468, 9.47879415, 0.323538801
2683, 35.9981853, 8.87827936, 3.33670773
2684, 35.994607, 9.07642141, 2.75300008
2685, 35.9984393, 9.2355197, 2.16104003
2686, 35.9957926, 9.35611565, 1.55476322
2687, 34.275, -1.33107782, -3.75493167
2688, 34.2813048, 1.15016932, -3.65709357
2689, 34.4125, -0.690098416, -3.48288574
2690, 34.1375, -0.690098416, -3.48288574
2691, 34.1375, -1.71389213, -4.0315809
2692, 34.275, 2.04058017, -4.37269162
2693, 34.4125, -1.71389213, -4.0315809
2694, 34.275, -2.54456185, -5.41922036
2695, 34.2834647, -2.54188715, -6.59237632
2696, 34.275, -2.04058017, -4.37269162
2697, 34.2943434, -2.04685855, -7.61940424
2698, 34.275, 1.71233505e-14, -8.61
2699, 34.275, 1.13243656, -8.35152875
2700, 34.2833419, -1.14073258, -8.34751553
2701, 34.275, 2.04058017, -7.62730838
2702, 34.275, 2.54456185, -6.58077964
2703, 34.275, 2.54456185, -5.41922036
2704, 34.2613459, -7.38654325, 2.2112435
2705, 34.2771722, -4.870506, 2.35294354
2706, 34.3329994, -6.68131345, 2.5195063
2707, 34.1219124, -6.69465189, 2.51586143
2708, 34.1386577, -7.71136863, 1.97061346
2709, 34.2757143, -3.95875417, 1.62647332
2710, 34.3851241, -7.72599478, 1.95781563
2711, 34.2793441, -8.54665831, 0.57151679
2712, 34.2760049, -8.54654552, -0.572019169
2713, 34.272634, -8.03108414, 1.63914527
2714, 34.2661601, -8.02216849, -1.65013169
2715, 34.2742585, -6.00109074, -2.60999977
2716, 34.275, -4.86756344, -2.35152875
2717, 34.2768865, -7.14509667, -2.34538986
2718, 34.268277, -3.97050033, -1.64110667
2719, 34.275, -3.45543815, -0.580779638
2720, 34.275102, -3.45563519, 0.581642257
2721, 34.275, 4.86756344, 2.35152875
2722, 34.2774763, 7.12818564, 2.35357115
2723, 34.275, 3.95941983, 1.62730838
2724, 34.2755384, 8.0434251, 1.62373454
2725, 34.2752245, 3.45567151, 0.581801126
2726, 34.275, 3.45543815, -0.580779638
2727, 34.2747146, 3.95983728, -1.62783171
2728, 34.2759189, 4.86130238, -2.3485033
2729, 34.2751208, 5.99450871, -2.60999422
2730, 34.2758895, 8.03654527, -1.63235515
2731, 34.2736845, 8.54416515, -0.582514962
2732, 34.2746164, 7.13262973, -2.35143571
2733, 34.2840873, 8.53797868, 0.608904113
2734, 34.2402658, -1.32999376, 8.24571071
2735, 34.275, 1.13243656, 8.35152875
2736, 34.3498004, -0.655436382, 8.52636164
2737, 34.1093082, -0.663169455, 8.52434274
2738, 34.1269126, -1.72953207, 7.95469149
2739, 34.275, 2.04058017, 7.62730838
2740, 34.378976, -1.73509505, 7.94975516
2741, 34.274287, -2.54473813, 6.58000675
2742, 34.2758576, -2.03843504, 7.62999466
2743, 34.275, -2.54456185, 5.41922036
2744, 34.275, -2.04058017, 4.37269162
2745, 34.275, -1.13243656, 3.64847125
2746, 34.275, 1.85929266e-14, 3.39
2747, 34.275, 1.13243656, 3.64847125
2748, 34.2825083, 2.0285736, 4.35774876
2749, 34.275, 2.54456185, 6.58077964
2750, 34.275, 2.54456185, 5.41922036
2751, 39.4835341, -3.05811589, 7.39242363
2752, 39.4616417, 2.47275165, 7.60825205
2753, 38.969529, -1.56011674, 7.84640273
2754, 39.9740676, -1.5653385, 7.84536267
2755, 38.9465294, -3.90903285, 6.97993282
2756, 39.475, 4.70228202, 6.47213595
2757, 39.9808421, -3.90065551, 6.98461786
2758, 39.477194, -6.47249126, 4.70179295
2759, 39.4660861, -4.70974202, 6.46670937
2760, 39.4959929, -7.61562604, 2.44994695
2761, 39.4611682, -7.99999997, -0.000728917516
2762, 39.5010583, -4.68204467, -6.48679102
2763, 39.4780692, -6.47197548, -4.70250288
2764, 39.4587176, -7.62735678, -2.41317811
2765, 39.4905128, -0.00165024713, -7.99999983
2766, 39.4857584, -2.47150435, -7.60865732
2767, 39.4500426, 2.46750048, -7.60995673
2768, 39.4765124, 6.47228389, -4.70207839
2769, 39.475, 4.70228202, -6.47213595
2770, 39.4909633, 7.61808675, 2.44228465
2771, 39.4568356, 7.99999992, 0.00116468266
2772, 39.4500316, 7.62718302, -2.41372725
2773, 39.4771954, 6.47244028, 4.70186312
2774, 34.55, 1.12797203, -3.75259035
2775, 34.55, 3.47055192e-05, -3.48426441
2776, 34.55, -1.05381656, -3.71687895
2777, 34.55, -1.96808313, -4.43325676
2778, 34.55, 1.96690292, -4.43149165
2779, 34.55, -2.45429306, -6.56067631
2780, 34.55, -2.4446597, -5.40717931
2781, 34.55, -1.08914957, -8.26912969
2782, 34.55, -1.99200695, -7.53713619
2783, 34.55, 1.09150549, -8.2666145
2784, 34.55, -0.0324287424, -8.51429905
2785, 34.55, 2.45265312, -6.55983767
2786, 34.55, 1.94006501, -7.59978712
2787, 34.55, 2.46037468, -5.48064705
2788, 34.55, -4.87564594, 2.2502023
2789, 34.55, -6.00338422, 2.51477864
2790, 34.55, -7.0643868, 2.27904745
2791, 34.55, -7.98530078, 1.54261702
2792, 34.55, -4.03285672, 1.56967459
2793, 34.55, -8.45373533, -0.553746479
2794, 34.55, -8.44455745, 0.584484884
2795, 34.55, -7.09773778, -2.26433133
2796, 34.55, -7.98085592, -1.54866317
2797, 34.55, -4.90770564, -2.26676831
2798, 34.55, -6.03523889, -2.51494875
2799, 34.55, -3.54640704, -0.559898559
2800, 34.55, -4.05797845, -1.5980186
2801, 34.55, -3.54090325, 0.528064823
2802, 34.55, 7.12560334, 2.25082254
2803, 34.55, 5.99974841, 2.51600617
2804, 34.55, 4.93944526, 2.27992447
2805, 34.55, 4.03145125, 1.56816577
2806, 34.55, 7.96782277, 1.5680441
2807, 34.55, 3.54736571, -0.561242494
2808, 34.55, 3.55619475, 0.594629886
2809, 34.55, 4.90979313, -2.2679679
2810, 34.55, 4.01277421, -1.5400464
2811, 34.55, 7.09251042, -2.2673306
2812, 34.55, 5.96802504, -2.51565624
2813, 34.55, 8.45227648, -0.557045686
2814, 34.55, 7.94401868, -1.5947457
2815, 34.55, 8.45507074, 0.533488611
2816, 34.55, 1.12797204, 8.24740965
2817, 34.55, 3.47055197e-05, 8.51573559
2818, 34.55, -1.05840286, 8.27996648
2819, 34.55, -1.97224888, 7.56337143
2820, 34.55, 1.96690292, 7.56850835
2821, 34.55, -2.4525635, 5.43692396
2822, 34.55, -2.44321506, 6.59713917
2823, 34.55, -1.09156803, 3.73341562
2824, 34.55, -1.98959004, 4.46170988
2825, 34.55, 1.09150549, 3.7333855
2826, 34.55, -0.0411531852, 3.48574515
2827, 34.55, 2.45265312, 5.44016233
2828, 34.55, 1.94006501, 4.40021288
2829, 34.55, 2.46037468, 6.51935295
2830, 40.45, 5.42265688, 1.97063598
2831, 40.45, -5.27306327, 2.03464938
2832, 40.45, 3.55986564, -2.97306493
2833, 40.45, -3.56072818, -2.97297111
2834, 40.45, -1.72329538, 4.95410701
2835, 40.45, 1.72305603, 4.95162827
2836, 40.45, 6.10938359, -2.05720788
2837, 40.45, -6.09882662, -2.0682543
2838, 40.45, 4.15466079, 0.599871769
2839, 40.45, -4.0912192, 0.455306579
2840, 40.45, 4.49799615, -1.33603675
2841, 40.45, -4.5303928, -1.37381328
2842, 40.45, -2.31710612, -4.56827025
2843, 40.45, 2.32111919, -4.56404524
2844, 40.45, 2.38232862, 5.79050399
2845, 40.45, 3.23404289, 4.34674051
2846, 40.45, -2.38200597, 5.79119224
2847, 40.45, -3.15982177, 4.25162401
2848, 40.45, -0.588844051, -4.12195506
2849, 40.45, 0.962564733, -4.25603533
2850, 40.45, -6.20303129, 2.03075427
2851, 40.45, -5.15349661, 3.48312683
2852, 40.45, -1.18015799, 3.88060001
2853, 40.45, 0.904413474, 4.00854635
2854, 40.45, 4.14431622, 2.54448233
2855, 40.45, 5.15989921, 3.66143529
2856, 40.45, -3.81006659, -4.75037888
2857, 40.45, -2.89940418, -6.09041089
2858, 40.45, 3.810603, -4.75583002
2859, 40.45, 2.90573447, -6.0463708
2860, 40.45, -4.10525751, 2.1321022
2861, 40.45, 5.1717469, -3.43603997
2862, 40.45, -5.17704361, -3.44848643
2863, 40.45, -1.87966525, -5.56086534
2864, 40.45, 1.86926135, -5.57022271
2865, 40.45, 0.0049891357, 7.63171294
2866, 40.45, -0.557267382, 7.42640073
2867, 40.45, 0.536955098, 7.42474922
2868, 40.45, -2.86007766, 6.87918093
2869, 40.45, 2.87280757, 6.91346127
2870, 40.45, 6.89899231, 1.83786677
2871, 40.45, 7.37913949, 1.52965549
2872, 40.45, 6.54838471, 2.2276169
2873, 40.45, 5.71997652, 1.59645565
2874, 40.45, 5.20536353, 1.38244983
2875, 40.45, -0.295634282, -4.44852926
2876, 40.45, -0.828189161, -4.64419489
2877, 40.45, 1.00743254, -4.72829964
2878, 40.45, 0.478344376, -4.51099919
2879, 40.45, 0.204893576, -4.21406507
2880, 40.45, -0.581565524, 3.45874076
2881, 40.45, -1.886981, 3.01186843
2882, 40.45, 1.76040628, 3.10810081
2883, 40.45, 0.44252492, 3.51803315
2884, 40.45, -0.142769712, 3.86147314
2885, 40.45, -6.10948418, 1.62966563
2886, 40.45, -6.6373394, 1.44588514
2887, 40.45, -5.14336615, 1.42472707
2888, 40.45, -5.64701173, 1.64509967
2889, 40.45, -5.74044648, 2.05545451
2890, 40.45, -6.44328304, 3.0308917
2891, 40.45, -5.05655531, 5.03393718
2892, 40.45, -3.52461057, 6.26340647
2893, 40.45, -1.71876556, 6.34268653
2894, 40.45, -3.95145627, 5.43333302
2895, 40.45, -2.77538828, 5.0224327
2896, 40.45, -4.15415341, 3.86039541
2897, 40.45, -7.47667178, -1.27199866
2898, 40.45, -7.56630646, 1.01603719
2899, 40.45, -7.37430161, 1.51671457
2900, 40.45, -6.94991846, 2.23115112
2901, 40.45, -5.69854654, 2.78174428
2902, 40.45, -5.05392003, -5.0202369
2903, 40.45, -6.45838691, -3.01126267
2904, 40.45, -7.14635434, -1.73858882
2905, 40.45, -6.89261526, -2.26224206
2906, 40.45, -6.35335173, -1.61181177
2907, 40.45, -5.66237389, -2.78416965
2908, 40.45, -2.66718596, -7.02835433
2909, 40.45, -0.296205973, -7.56833474
2910, 40.45, -1.78005424, -6.70260302
2911, 40.45, -3.77465768, -6.34646848
2912, 40.45, -3.35288925, -5.4021941
2913, 40.45, -4.27141493, -5.64980869
2914, 40.45, -4.52650659, -4.10906682
2915, 40.45, 0.27926342, -7.55130128
2916, 40.45, 2.66969112, -7.04229695
2917, 40.45, 6.45937049, -3.00896515
2918, 40.45, 5.05744977, -5.0238661
2919, 40.45, 3.80635251, -6.33157511
2920, 40.45, 1.78936451, -6.69798887
2921, 40.45, 3.34984148, -5.3880921
2922, 40.45, 4.27468625, -5.65731828
2923, 40.45, 4.52205926, -4.10840362
2924, 40.45, 7.47887761, -1.26098299
2925, 40.45, 7.56861876, 1.01681075
2926, 40.45, 7.14481315, -1.74117353
2927, 40.45, 6.35644104, -1.60859365
2928, 40.45, 6.88537943, -2.26287255
2929, 40.45, 5.65644246, -2.7817926
2930, 40.45, 5.04794057, 5.11629167
2931, 40.45, 6.45796325, 3.14098919
2932, 40.45, 5.30244549, 2.82799809
2933, 40.45, 1.70597888, 6.31385846
2934, 40.45, 3.54667394, 6.25221649
2935, 40.45, 2.81208384, 5.077798
2936, 40.45, 3.98812559, 5.47561119
2937, 40.45, 4.18718271, 4.00055901
2938, 40.45, 4.6030629, 0.688747426
2939, 40.45, 4.46474388, 0.143597789
2940, 40.45, 4.75043827, 1.30512928
2941, 40.45, 4.63861042, -0.806857688
2942, 40.45, 4.99376034, -1.24885397
2943, 40.45, 4.29180702, -0.401814711
2944, 40.45, 5.78003323, -1.61544908
2945, 40.45, 5.29250362, -1.73768428
2946, 40.45, -1.44154127, -5.37934158
2947, 40.45, -1.56256869, -5.93911693
2948, 40.45, -1.48347474, -4.32945876
2949, 40.45, -1.65291442, -4.90638881
2950, 40.45, -2.11855343, -5.07409591
2951, 40.45, -2.03920406, -6.2456083
2952, 40.45, -2.39455405, -5.83267408
2953, 40.45, 2.03463182, -6.22978577
2954, 40.45, 1.57499021, -5.95141374
2955, 40.45, 1.43771854, -5.38803268
2956, 40.45, 2.38595384, -5.83136364
2957, 40.45, 1.65166066, -4.39950813
2958, 40.45, 1.66317372, -4.9023532
2959, 40.45, 2.12450328, -5.07299929
2960, 40.45, -3.35098521, 1.26045433
2961, 40.45, -3.54766418, -0.156046968
2962, 40.45, -3.22909973, 2.05433018
2963, 40.45, -4.11346805, 1.33670186
2964, 40.45, -2.19481767, 4.08186526
2965, 40.45, -2.80093671, 3.07308724
2966, 40.45, -3.64111803, 3.18127037
2967, 40.45, -3.32126222, -1.8545441
2968, 40.45, -2.47364192, -2.91163056
2969, 40.45, -3.72126187, -1.04561817
2970, 40.45, -4.08234935, -2.18172195
2971, 40.45, -4.26738695, -0.486396563
2972, 40.45, -1.00549814, -3.47260516
2973, 40.45, 0.439954583, -3.55039245
2974, 40.45, -2.94989094, -3.78835671
2975, 40.45, -1.84696742, -3.62411006
2976, 40.45, 2.4715053, -2.91314478
2977, 40.45, 3.32108515, -1.8539134
2978, 40.45, 1.84117096, -3.62667659
2979, 40.45, 2.94993731, -3.78728025
2980, 40.45, 1.18758983, -3.5161072
2981, 40.45, 3.59397299, -0.0849564107
2982, 40.45, 3.37899819, 1.32849298
2983, 40.45, 4.06940769, -2.15893697
2984, 40.45, 3.70261253, -1.0216456
2985, 40.45, 4.16733541, 1.61489395
2986, 40.45, 3.24249519, 2.22944699
2987, 40.45, 2.10625354, 4.20906746
2988, 40.45, 2.84026118, 3.13014255
2989, 40.45, 3.70321288, 3.43569707
2990, 40.45, -1.78701, 5.7943974
2991, 40.45, -1.48282104, 5.3530965
2992, 40.45, -1.14260672, 4.90048348
2993, 40.45, -2.05554794, 5.37535855
2994, 40.45, 0.167450729, 4.38168278
2995, 40.45, 0.725696367, 4.45837181
2996, 40.45, -1.45604478, 4.40143355
2997, 40.45, -0.86291211, 4.39585594
2998, 40.45, 1.14044937, 4.8979676
2999, 40.45, 1.48225408, 5.35124496
3000, 40.45, 1.31847642, 4.46560792
3001, 40.45, 1.78695061, 5.79345931
3002, 40.45, 2.05530312, 5.37437854
3003, 40.45, -5.78274373, -1.61073827
3004, 40.45, -5.01067557, -1.25583539
3005, 40.45, -4.64580182, -0.832856813
3006, 40.45, -5.30725488, -1.75278716
3007, 40.45, -4.43970929, 0.0753434278
3008, 40.45, -4.53288831, 0.649120157
3009, 40.45, -4.60692241, 1.46787667
3010, 40.45, -4.69369206, 2.10106512
3011, 40.45, 4.79813761, 2.27566078
3012, 40.45, 4.65434297, 3.10208391
3013, 40.45, -5.2232937, 2.76126323
3014, 40.45, -4.63037095, 2.80868288
3015, 40.45, 4.36799813, -3.2035061
3016, 40.45, 4.85375802, -2.39735511
3017, 40.45, 3.05979122, -4.66904687
3018, 40.45, 3.69548238, -3.87373083
3019, 40.45, -4.87097308, -2.42206986
3020, 40.45, -4.36831416, -3.20676102
3021, 40.45, -3.69538513, -3.87326104
3022, 40.45, -3.06052609, -4.67048046
3023, 40.45, -2.43346526, 4.61787556
3024, 40.45, 2.47453219, 4.67396508
3025, 40.45, -2.61680908, -5.32334029
3026, 40.45, 2.62682536, -5.31493594
3027, 36.0054004, 2.35932555, -5.46149934
3028, 36.0149213, 1.6524786, -4.23203097
3029, 36.0404773, -1.89176276, -7.50918311
3030, 36.0224041, 1.89230198, -7.50850695
3031, 36.0186558, 0.0054887698, -8.41999378
3032, 36.0501982, -2.35926211, -5.46122146
3033, 36.0338216, -1.65247222, -4.23202502
3034, 35.2824606, 0.888232781, -3.74890193
3035, 36.7413182, 0.8390405, -3.7301077
3036, 36.7669108, -0.888228726, -3.74890033
3037, 35.2919108, -0.888228726, -3.74890033
3038, 35.2919108, -1.77698197, -4.35721728
3039, 35.2824606, 1.77698493, -4.35722048
3040, 36.7651369, -1.77824882, -4.35858867
3041, 36.7511515, 1.78288931, -4.36363033
3042, 35.2638125, -2.18414972, -4.95793954
3043, 35.2634445, -2.41999847, -6.00271761
3044, 36.0515948, -2.10698471, -4.80961543
3045, 35.2606019, -2.18164505, -7.04729408
3046, 35.2597619, -1.51947934, -7.88350273
3047, 36.0136851, -2.36070118, -6.53243774
3048, 35.2599359, -0.53936829, -8.35912735
3049, 35.2568339, 0.543878661, -8.3580916
3050, 36.0401142, -1.06009757, -8.1754524
3051, 35.286202, 1.50901449, -7.89189727
3052, 35.286202, 2.18043854, -7.04980369
3053, 36.064576, 1.0603017, -8.17535292
3054, 35.2777002, 2.42, -6
3055, 35.2777002, 2.18034466, -4.95000135
3056, 36.0139022, 2.35937369, -6.5382897
3057, 36.0101608, 2.09798504, -4.79382474
3058, 36.761225, -2.41999004, -5.99305615
3059, 36.7575776, -2.17657112, -4.94220127
3060, 36.8025301, -1.52650624, -7.87781221
3061, 36.7647301, -2.17404228, -7.06298643
3062, 36.7736086, 0.571845865, -8.35146599
3063, 36.7584702, -0.552254629, -8.35614406
3064, 36.761202, 2.18043854, -7.04980369
3065, 36.7635478, 1.5043395, -7.8956167
3066, 36.7426613, 2.18520414, -4.96015248
3067, 36.7527002, 2.42, -6
3068, 36.0464197, -3.6421273, 0.544826868
3069, 36.0313626, -5.99536351, -2.41999556
3070, 36.0045361, -7.88032314, -1.52341225
3071, 36.0374803, -4.10608711, -1.50648398
3072, 36.0309928, -4.34740651, 1.76786164
3073, 36.0498591, -8.36255278, 0.52416064
3074, 35.950039, -7.74730505, 1.67431331
3075, 35.2615163, -5.12463491, 2.25613297
3076, 36.7687152, -5.11914106, 2.25399368
3077, 36.7023784, -6.92515831, 2.23617578
3078, 35.2837531, -6.92001941, 2.23829495
3079, 35.3546885, -7.73101369, 1.69115097
3080, 35.2627198, -4.22885223, 1.64907113
3081, 36.7678764, -7.7808611, 1.63857674
3082, 36.7697884, -4.21541753, 1.634523
3083, 35.2612746, -8.1506127, 1.10962381
3084, 35.2604243, -8.41999829, 0.00287824456
3085, 35.994829, -8.10152723, 1.19999304
3086, 35.2577544, -8.17868232, -1.05344356
3087, 35.2497767, -7.50638944, -1.89398808
3088, 36.0567493, -8.36799672, -0.498990502
3089, 35.258348, -6.54461185, -2.35792238
3090, 35.2565422, -5.46866112, -2.36094875
3091, 36.0151688, -7.06205794, -2.17449602
3092, 35.2624984, -4.48840688, -1.88983762
3093, 35.2596026, -3.82065647, -1.05207499
3094, 36.0332423, -4.96083978, -2.18553106
3095, 35.2641354, -3.58000737, 0.00597195049
3096, 35.2607739, -3.8172941, 1.04508131
3097, 36.0320575, -3.64316055, -0.549279355
3098, 36.0386574, -3.89717805, 1.19772277
3099, 36.7255551, -8.41982547, -0.029063521
3100, 36.731604, -8.17301888, 1.06507696
3101, 36.7678005, -7.50679432, -1.89366599
3102, 36.7727105, -8.18649938, -1.03712123
3103, 36.7616666, -5.45413862, -2.35763342
3104, 36.7687143, -6.54875053, -2.35696263
3105, 36.7437383, -3.81768695, -1.04590141
3106, 36.7773033, -4.50336409, -1.90170475
3107, 36.7427851, -3.81587571, 1.04211377
3108, 36.7432216, -3.58000072, 0.0018694905
3109, 36.0134008, 8.35528943, 0.555888205
3110, 36.0415551, 7.67099898, 1.75047491
3111, 36.0125478, 6.00283009, -2.41999835
3112, 36.0049188, 4.11045958, -1.51196461
3113, 36.002739, 7.88952026, -1.51198981
3114, 36.0402393, 3.64035873, 0.537115529
3115, 36.0295902, 4.34377687, 1.76446166
3116, 35.2589944, 6.86378488, 2.26059189
3117, 36.735105, 6.88494842, 2.25239124
3118, 36.7716949, 5.12647611, 2.25684647
3119, 35.2623864, 5.12770423, 2.25732144
3120, 35.2581912, 4.2288715, 1.64909182
3121, 35.2627149, 7.77447571, 1.64548958
3122, 36.7663294, 4.21841237, 1.63778678
3123, 36.7572359, 7.76970115, 1.65062347
3124, 35.2558473, 3.81682878, 1.04410892
3125, 35.257126, 3.5800118, 0.00755839249
3126, 36.030363, 3.89847194, 1.1999916
3127, 35.2510123, 3.81923551, -1.04912641
3128, 35.2497548, 4.4935065, -1.89390532
3129, 36.0176599, 3.63617885, -0.518410618
3130, 35.2474157, 5.46975064, -2.36119369
3131, 35.2437886, 6.52975682, -2.36130424
3132, 36.0122983, 4.97608239, -2.19271355
3133, 35.2509903, 7.50895455, -1.89194508
3134, 35.2714516, 8.17886528, -1.0530651
3135, 36.002621, 7.02156926, -2.19380862
3136, 35.2765143, 8.41999055, 0.00676297411
3137, 35.261079, 8.1791307, 1.05251575
3138, 35.9625279, 8.35947539, -0.537843757
3139, 36.0342454, 8.0951749, 1.21105001
3140, 36.7407168, 3.58000609, -0.00542912955
3141, 36.7397104, 3.81804111, 1.04664006
3142, 36.7679037, 4.49616518, -1.8960171
3143, 36.7447064, 3.81473113, -1.03971148
3144, 36.7374157, 6.52365512, -2.36266488
3145, 36.7673762, 5.46926524, -2.36108463
3146, 36.7917749, 8.18755109, -1.03490107
3147, 36.7609717, 7.49853526, -1.90020843
3148, 36.7522239, 8.16784864, 1.07556138
3149, 36.8012754, 8.41981246, -0.0301272055
3150, 36.0445996, 2.35932555, 6.53850066
3151, 36.0350787, 1.6524786, 7.76796903
3152, 36.0322927, 1.1457254e-15, 3.58
3153, 36.0408738, 1.89204189, 4.49116685
3154, 36.0345215, -1.89113346, 4.4900284
3155, 36.0465397, -2.3555177, 6.55492012
3156, 36.0448784, -1.644987, 7.77494163
3157, 35.2925394, 0.888232781, 8.25109807
3158, 36.7812197, 0.848476702, 8.26638198
3159, 36.7583247, -0.893414173, 8.24904671
3160, 35.2657425, -0.884072103, 8.25273534
3161, 35.2659037, -1.77479602, 7.64514409
3162, 35.2925394, 1.77698493, 7.64277952
3163, 36.7771712, -1.78027063, 7.63921825
3164, 36.7356457, 1.80977307, 7.60658689
3165, 35.2634152, -2.18268518, 7.04512459
3166, 35.266826, -2.41999774, 6.00330405
3167, 36.0403702, -2.10699045, 7.19037442
3168, 35.2656788, -2.17883302, 4.94686817
3169, 35.2632998, -1.51053974, 4.10932031
3170, 36.0503667, -2.3567133, 5.45017967
3171, 35.2911464, -0.53850066, 3.64067445
3172, 35.2911464, 0.53850066, 3.64067445
3173, 36.0407199, -1.04764523, 3.81852356
3174, 35.2612238, 1.50679505, 4.10633459
3175, 35.2954369, 2.18034804, 4.95000836
3176, 36.044012, 1.05196357, 3.82060269
3177, 35.2972998, 2.42, 6
3178, 35.2972998, 2.18034466, 7.04999865
3179, 36.0427367, 2.35932728, 5.46150693
3180, 36.0398392, 2.09798504, 7.20617526
3181, 36.7796519, -2.41999121, 5.99347841
3182, 36.7628246, -2.17475656, 7.06152433
3183, 36.7791811, -1.51151315, 4.11009841
3184, 36.7839067, -2.17735543, 4.94381662
3185, 36.7417543, 0.530867363, 3.63894518
3186, 36.7332565, -0.531003189, 3.63897573
3187, 36.7704369, 2.18034804, 4.95000836
3188, 36.7769002, 1.50054775, 4.10138038
3189, 36.7722998, 2.18034466, 7.04999865
3190, 36.7722998, 2.42, 6
3191, 38.3378864, 5.06843224, -0.756426802
3192, 39.6613524, 7.00248086, -0.659569644
3193, 38.5864673, 5.48680428, 1.08472584
3194, 39.3659381, 6.52473019, 1.07919332
3195, 39.490144, 4.84794627, 0.335815744
3196, 38.4600981, 7.17480548, 0.244605974
3197, 38.3398498, 5.97999007, -1.19983316
3198, 39.2878855, 5.4360575, -1.05923031
3199, 38.3874858, 4.82959757, 0.264873841
3200, 39.5418189, 7.18539332, 0.186661947
3201, 38.424128, 6.94481388, -0.739815331
3202, 39.7481627, 5.24455638, 0.932365234
3203, 38.2068362, 6.77112235, 0.919440225
3204, 39.6838309, 6.30232861, -1.16129127
3205, 39.7033402, 4.94735453, -0.576140195
3206, 38.9752001, 6.59436136, -1.04246562
3207, 38.9789829, 7.17388015, -0.2490088
3208, 39.011327, 4.8608912, -0.3774005
3209, 39.5073434, 5.75432103, 1.17458156
3210, 38.0368154, 5.7471313, 1.17305474
3211, 38.4284834, 6.26692908, 1.16993541
3212, 39.8835587, 6.26356995, 1.17069675
3213, 40.0919024, 5.13754793, 0.834371878
3214, 40.0846678, 5.60823843, 1.13424992
3215, 39.9205586, 6.74935925, 0.93726235
3216, 39.1714214, 5.37058308, 1.02168212
3217, 38.0574701, 5.25673617, 0.942103431
3218, 37.8606378, 6.84475147, 0.852288066
3219, 37.8623136, 6.39853797, 1.13188669
3220, 38.7956497, 6.65671922, 1.00435047
3221, 39.9326448, 4.80037767, 0.0301042833
3222, 39.9454351, 4.93777996, 0.558290772
3223, 39.6276234, 4.98574561, 0.641317414
3224, 40.0624348, 5.16997996, -0.866641061
3225, 40.070781, 4.86719472, -0.395919423
3226, 39.6107885, 4.80180456, -0.0657851723
3227, 40.0767311, 6.38713387, -1.13583774
3228, 40.0646662, 5.85905297, -1.19169373
3229, 39.8754073, 5.47168801, -1.0774444
3230, 39.563087, 5.81231603, -1.18523193
3231, 39.4929637, 5.16131596, -0.85825933
3232, 39.997604, 7.12308111, -0.422716012
3233, 40.0557318, 6.77742345, -0.914118577
3234, 39.6909112, 6.68687152, -0.983975364
3235, 40.0417933, 7.09913327, 0.481566258
3236, 40.0013332, 7.1999698, -0.00851331615
3237, 39.5999061, 7.15624713, -0.321080335
3238, 39.4637232, 6.94365203, 0.741296732
3239, 37.9418367, 4.92727902, 0.537837979
3240, 37.9549728, 4.80001256, -0.00549116502
3241, 38.4802339, 5.07748228, 0.76743798
3242, 37.9233671, 4.91844007, -0.519834703
3243, 37.9287696, 5.24630984, -0.933783243
3244, 38.348722, 4.83002854, -0.266771045
3245, 37.9161476, 5.7300508, -1.16924225
3246, 37.938917, 6.27178221, -1.16881753
3247, 38.3207274, 5.46589792, -1.07458595
3248, 37.9562779, 6.75634224, -0.931636419
3249, 37.9536401, 7.07970109, -0.5236846
3250, 38.3490977, 6.53947278, -1.07189977
3251, 37.9824603, 7.19992667, 0.0132663184
3252, 37.9863442, 7.07244217, 0.538393711
3253, 38.4301857, 7.16221885, -0.298742926
3254, 38.3251363, 7.0059254, 0.654304275
3255, 38.815662, 5.25490664, -0.940657153
3256, 38.7571247, 5.72950153, -1.1691153
3257, 38.6789113, 4.94512698, -0.57205149
3258, 39.1431524, 5.09816247, -0.791636958
3259, 38.704231, 4.80132662, -0.0564103255
3260, 39.2495801, 7.19999466, -0.00358127903
3261, 39.3585939, 7.12249179, -0.424278427
3262, 39.3293189, 6.77582497, -0.915475622
3263, 39.37747, 6.40453321, -1.12975789
3264, 38.9724568, 6.93764597, -0.748879187
3265, 39.0132908, 5.09759272, 0.790987418
3266, 38.9444474, 4.84251582, 0.316591805
3267, 38.9118334, 6.92183639, 0.768256251
3268, 38.9884347, 7.19471631, 0.112485303
3269, 39.2506006, 4.80000008, -0.000434165181
3270, 39.3486718, 4.89912873, -0.477579786
3271, 38.7169565, 7.19993933, 0.0120663617
3272, 38.6535677, 7.10305227, -0.472520563
3273, 39.1099141, 6.00075607, -1.19999976
3274, 38.6584732, 6.29229713, -1.16385669
3275, 38.6970716, 6.77098368, -0.919556501
3276, 38.3747055, -0.00232409636, -7.19999775
3277, 39.4694664, -1.14762154, -5.64933661
3278, 38.4823679, 1.15848656, -5.68709604
3279, 39.6451951, 0.988482451, -6.68036934
3280, 38.5833061, -0.512718395, -4.91504846
3281, 39.366901, 0.520660487, -4.91883736
3282, 38.3902752, 0.873670951, -6.82261721
3283, 38.3541923, -0.937642617, -6.74888338
3284, 39.2384893, -0.539895836, -7.07168675
3285, 39.5517679, 1.16993025, -5.7330483
3286, 38.3832123, -1.1682446, -5.72576551
3287, 39.7461656, -0.752555669, -5.06530221
3288, 38.1965399, 0.759355662, -5.07081811
3289, 39.6974513, 0.231221156, -7.17751296
3290, 39.7061836, -1.05617568, -6.56964281
3291, 38.9154852, 1.17453137, -6.24591883
3292, 38.9810638, 0.463182766, -7.10700575
3293, 38.9930677, -1.13598596, -6.38669872
3294, 39.5077477, -0.266857035, -4.83004815
3295, 38.0325152, -0.249666022, -4.82625945
3296, 38.4203511, 0.256037293, -4.82763278
3297, 39.881748, 0.264788102, -4.82957817
3298, 40.1041627, -0.856195132, -5.15920877
3299, 40.0887665, -0.403225382, -4.86977467
3300, 39.935429, 0.756646606, -5.06861076
3301, 39.166578, -0.637281135, -4.98320466
3302, 38.0449669, -0.750197141, -5.06340817
3303, 37.8650341, 0.849368081, -5.15231264
3304, 37.8576256, 0.385326834, -4.86354796
3305, 38.7827318, 0.644343606, -4.98766541
3306, 39.9439785, -1.19993211, -5.9872351
3307, 39.9463818, -1.05219742, -5.42304195
3308, 39.6239387, -1.00053548, -5.33748301
3309, 40.062664, -0.864178456, -6.83258369
3310, 40.0937264, -1.11813806, -6.43562285
3311, 39.604575, -1.19559739, -6.102698
3312, 40.0490955, 0.432561969, -7.11932575
3313, 40.0658516, -0.152930539, -7.19021521
3314, 39.8558353, -0.554153617, -7.06438422
3315, 39.4776704, -0.132799202, -7.19262918
3316, 39.4917502, -0.856384203, -6.84059865
3317, 40.081421, 1.07459858, -6.53407667
3318, 40.0550012, 0.774272155, -6.91678931
3319, 39.7160921, 0.569041043, -7.05650002
3320, 39.9709211, 1.06618084, -5.44931097
3321, 40.0035269, 1.19995924, -6.00989065
3322, 39.6398022, 1.18072798, -6.21419955
3323, 39.4911635, 0.956815587, -5.27577356
3324, 37.9495418, -1.08382882, -5.48491254
3325, 37.9599061, -1.19999462, -6.00359485
3326, 38.4781959, -0.942649066, -5.25742829
3327, 37.9239084, -1.07962733, -6.52383665
3328, 37.9625388, -0.743700833, -6.9417585
3329, 38.3549375, -1.16895855, -6.27117504
3330, 37.9301936, -0.268259566, -7.16963106
3331, 37.9244063, 0.251735984, -7.17329834
3332, 38.3316899, -0.497590375, -7.09197244
3333, 37.9364556, 0.749897207, -6.93683199
3334, 37.9620183, 1.0814316, -6.52010163
3335, 38.337023, 0.473565556, -7.10260404
3336, 38.0078426, 1.19985365, -5.98125886
3337, 38.003583, 1.07319342, -5.46310534
3338, 38.4576949, 1.17156346, -6.25969029
3339, 38.349399, 1.00009186, -5.33681354
3340, 38.6505271, 0.285053279, -7.16565202
3341, 38.6418008, 0.726540607, -6.95505955
3342, 38.7813757, -0.747457806, -6.93877944
3343, 38.8052195, -0.292371627, -7.16383797
3344, 39.1216691, -0.0198055544, -7.19983655
3345, 39.0430599, -0.918401922, -5.22764133
3346, 38.937338, -1.16258801, -5.70269693
3347, 39.2297274, -1.19971398, -6.02619877
3348, 38.6991153, -1.19862762, -6.0573745
3349, 39.349936, -1.09763262, -6.48497694
3350, 38.9164673, 0.92801992, -5.23922472
3351, 39.0139497, 1.1672384, -5.72151387
3352, 38.6801436, 1.07692529, -6.52936936
3353, 38.6887912, 1.19999155, -6.00450384
3354, 39.2521735, 1.19965882, -6.02861309
3355, 39.3600377, 1.08692089, -6.50853022
3356, 39.3226509, 0.746810886, -6.93929415
3357, 39.3377861, 0.378084682, -7.1388819
3358, 39.0002303, 0.931013212, -6.75710924
3359, 38.7032572, -1.03173564, -6.61279814
3360, 39.0879266, -0.933899359, -6.75354627
3361, 39.4922429, 1.29605733, 2.70559335
3362, 39.4935035, 2.92112684, 0.683387127
3363, 39.4934111, 2.34693053, -1.86866719
3364, 39.4957483, -2.92408068, 0.670635652
3365, 39.4890573, -1.3017405, 2.70286361
3366, 39.4999111, -2.34602152, -1.86980829
3367, 39.43214, -0.00546704502, -2.99999502
3368, 39.0426828, 0.658398986, 2.92686022
3369, 39.9634368, 0.671667222, 2.9238439
3370, 39.9594621, -0.674694206, 2.92314689
3371, 39.0452454, -0.665224584, 2.92531644
3372, 39.9628852, -1.88147128, 2.33667837
3373, 39.9740672, 1.89233702, 2.32788759
3374, 39.029354, -1.88008597, 2.33779313
3375, 39.0208904, 1.89051601, 2.3293667
3376, 39.9576477, -2.99999396, -0.00602059109
3377, 39.9712281, -2.69761061, 1.3125917
3378, 39.4784012, -2.34394598, 1.87240947
3379, 39.035265, -2.70733958, 1.29240567
3380, 39.9715819, -1.85626804, -2.35674966
3381, 39.9592683, -2.70288535, -1.30169535
3382, 39.4775045, -2.92695127, -0.657994123
3383, 39.0287548, -2.99996027, -0.0154390128
3384, 39.0002455, -2.69875935, -1.31022822
3385, 39.9388764, 0.683895938, -2.92100776
3386, 39.9478502, -0.683168333, -2.92117802
3387, 39.4787452, -1.30499029, -2.70129605
3388, 39.0104129, -1.86968904, -2.34611655
3389, 39.0209914, -0.675776637, -2.92289684
3390, 39.959827, 2.70452885, -1.29827721
3391, 39.969309, 1.85738102, -2.35587261
3392, 39.476394, 1.30462223, -2.70147383
3393, 39.0050519, 1.86352569, -2.3510151
3394, 39.0293511, 0.678395909, -2.92229003
3395, 39.9747288, 2.69596053, 1.31597752
3396, 39.9636352, 2.99996812, -0.013829751
3397, 39.4757876, 2.92644497, -0.660242257
3398, 39.0203707, 2.99988077, -0.0267458706
3399, 39.0204681, 2.70201309, -1.303505
3400, 39.4766219, 2.33614725, 1.88213072
3401, 39.0392295, 2.70181066, 1.30392453
3402, 38.3939461, -0.938197779, 5.25181224
3403, 38.369995, 0.938250851, 5.25187879
3404, 38.3915304, 0.827984234, 6.86858627
3405, 38.5726418, -0.52888494, 7.07716327
3406, 39.5783971, 0.00172911593, 4.80000125
3407, 39.5560539, 1.16991349, 6.26702512
3408, 39.4919243, -1.15997763, 6.30733029
3409, 38.3426065, 1.17656381, 6.23600341
3410, 38.3679827, -0.000172250658, 4.80000001
3411, 38.4047083, -1.1719649, 6.25787261
3412, 39.5810556, 0.938198376, 5.25181299
3413, 39.749493, -0.767911903, 6.92212326
3414, 39.636, -0.943060133, 5.25795042
3415, 39.2384273, 0.742904172, 6.94238707
3416, 38.9652495, 1.16953351, 5.73131547
3417, 38.9050242, 1.11946523, 6.43220087
3418, 38.9671546, 0.520695305, 4.91885413
3419, 38.9843258, -0.520722118, 4.91886704
3420, 38.9809918, -1.15433737, 5.67212009
3421, 39.5312567, -0.256623084, 7.17223914
3422, 38.0150714, -0.262313998, 7.17097881
3423, 38.3573143, 0.358931544, 7.14506251
3424, 39.8652591, 0.36771676, 7.14227159
3425, 40.0948973, -0.862496045, 6.83432642
3426, 40.1161113, -0.356925381, 7.14568943
3427, 39.8442137, 0.846140819, 6.85090876
3428, 39.1487861, -0.636681528, 7.0171709
3429, 38.0684657, -0.740845894, 6.94400602
3430, 37.9492074, 0.872418528, 6.82394533
3431, 37.9409954, 0.404322813, 7.1298332
3432, 38.8170888, 0.788465613, 6.90461151
3433, 39.9776931, -1.19984935, 6.01901393
3434, 39.9608975, -1.0703726, 6.54249654
3435, 39.6151665, -1.01270128, 6.64376713
3436, 40.043, -0.75124492, 5.06424839
3437, 40.043, -1.08285569, 5.48286989
3438, 39.6012333, -1.18030332, 5.78347267
3439, 40.0141986, 0.267867933, 4.83027919
3440, 40.0141986, -0.26618217, 4.82989443
3441, 39.6071986, -0.523407472, 4.92016454
3442, 40.0155278, 1.08116285, 5.47933994
3443, 40.0155278, 0.748188136, 5.06180252
3444, 39.5797264, 0.521439723, 4.91921296
3445, 40.0030269, 1.08116264, 6.52066049
3446, 40.0030269, 1.2, 6
3447, 39.5685547, 1.1699136, 5.73297535
3448, 39.3972406, 1.01427131, 6.64129065
3449, 37.9515233, -1.0831062, 6.51660523
3450, 37.9615096, -1.19999945, 5.99884632
3451, 38.4813477, -0.968373235, 6.7086983
3452, 37.9511602, -1.08151597, 5.48007384
3453, 37.9525797, -0.752581628, 5.06532311
3454, 38.3692389, -1.166984, 5.72044975
3455, 37.9338127, -0.27197296, 4.83122684
3456, 37.927327, 0.266705085, 4.83001351
3457, 38.3809644, -0.520738082, 4.91887473
3458, 37.9501907, 0.746026313, 5.06008259
3459, 37.9349975, 1.08118111, 5.47937786
3460, 38.3689889, 0.520621238, 4.91881846
3461, 37.9213033, 1.19989514, 5.98413673
3462, 37.9213033, 1.08795098, 6.50632268
3463, 38.3563008, 1.16629138, 5.71757403
3464, 38.3799822, 1.05775803, 6.56669917
3465, 38.689136, -0.748214503, 5.06182355
3466, 38.6761543, -0.267142431, 4.83011329
3467, 38.6934874, -1.19993998, 5.98799796
3468, 38.6877584, -1.0691233, 5.45504553
3469, 38.9841102, -0.928271709, 5.23953196
3470, 38.6676223, 1.08081155, 5.47861109
3471, 38.653928, 1.19988359, 5.98328563
3472, 38.6675687, 0.266959993, 4.83007164
3473, 38.6685748, 0.748236145, 5.06184081
3474, 38.9662021, 0.937678899, 5.25116205
3475, 38.6238154, 1.1521982, 6.3353197
3476, 38.6650139, 1.00239093, 6.65970632
3477, 39.0717258, 0.965493365, 6.7126167
3478, 39.0316876, -0.935221663, 6.75190454
3479, 38.9420574, -1.16813162, 6.27471532
3480, 39.2741051, 0.748203244, 5.06181457
3481, 39.2727759, 0.267886769, 4.8302835
3482, 39.2813615, -0.26621552, 4.82990201
3483, 39.3101629, -0.751271591, 5.06426981
3484, 38.9757402, -1.48800985e-05, 4.8
3485, 39.2606517, 1.1999997, 5.99914882
3486, 39.2731526, 1.08079326, 5.47857319
3487, 39.230539, 1.1476648, 6.35052176
3488, 38.9351369, 1.19694983, 6.08550501
3489, 39.2289022, -1.19977742, 6.02311178
3490, 39.3033535, -1.0679672, 5.45278334
3491, 38.3866315, -6.96327664, -0.715610311
3492, 39.6664, -5.04229844, -0.723054441
3493, 38.5942233, -6.53160424, 1.07582384
3494, 39.3700705, -5.48452423, 1.08364419
3495, 39.4875855, -7.16670156, 0.280726698
3496, 38.4562628, -4.83774415, 0.298598973
3497, 38.3134587, -5.99843693, -1.19999898
3498, 39.2967142, -6.52796293, -1.07761549
3499, 38.4551671, -7.17548324, 0.241327906
3500, 39.5589477, -4.82771734, 0.256424171
3501, 38.3819793, -5.07103605, -0.759622263
3502, 39.7446396, -6.7663782, 0.923398321
3503, 38.1962471, -5.23785102, 0.926892084
3504, 39.6990824, -5.78937807, -1.18137141
3505, 39.6850966, -7.10833034, -0.460004191
3506, 38.9871604, -5.45682214, -1.07002702
3507, 38.9885497, -4.84194317, -0.314490649
3508, 39.0351721, -7.15804312, -0.314541151
3509, 39.5191464, -6.26295778, 1.17083441
3510, 38.0351136, -6.26753639, 1.16979668
3511, 38.4186896, -5.75104992, 1.17389261
3512, 39.9098211, -5.7536256, 1.17443589
3513, 40.0907705, -6.88163014, 0.814081264
3514, 40.1022248, -6.38668548, 1.13599047
3515, 39.8872716, -5.24548384, 0.933115944
3516, 39.166727, -6.65692823, 1.00421377
3517, 38.0458317, -6.76358401, 0.925710242
3518, 37.8581595, -5.15530515, 0.852344187
3519, 37.8647483, -5.60118789, 1.13179013
3520, 38.7714643, -5.3665141, 1.01916417
3521, 39.9757408, -7.19997243, 0.00813399543
3522, 39.992574, -7.08796222, 0.50629853
3523, 39.6353571, -7.00161867, 0.660878234
3524, 40.0654593, -6.84978866, -0.847265735
3525, 40.010991, -7.16187977, -0.300058991
3526, 39.5717354, -7.18710992, -0.175413877
3527, 40.0760229, -5.61597033, -1.13689103
3528, 40.0729545, -6.17025255, -1.18786113
3529, 39.8682616, -6.53109985, -1.07607293
3530, 39.4930456, -6.15287516, -1.19022233
3531, 39.4951105, -6.85341609, -0.843611861
3532, 40.0598724, -4.89956074, -0.478574377
3533, 40.0414028, -5.23862492, -0.927527894
3534, 39.7057164, -5.34640289, -1.00638502
3535, 40.0187173, -4.9180227, 0.518965431
3536, 39.9693223, -4.80023229, -0.0236101271
3537, 39.652753, -4.81448695, -0.185900012
3538, 39.4918181, -5.04802007, 0.73057115
3539, 37.9849948, -7.09430911, 0.492430275
3540, 37.9810589, -7.19989872, 0.0155907667
3541, 38.4732317, -6.94097904, 0.744686816
3542, 37.916033, -7.08205402, -0.518805461
3543, 37.9377422, -6.77027842, -0.920147359
3544, 38.3772127, -7.1588309, -0.311626286
3545, 37.9194412, -6.27208873, -1.16874622
3546, 37.9169033, -5.73113193, -1.16949133
3547, 38.3207422, -6.55337284, -1.06479035
3548, 37.9467709, -5.25399802, -0.939936723
3549, 37.9540264, -4.92087321, -0.524867013
3550, 38.3339927, -5.47793679, -1.080486
3551, 37.9826333, -4.80021467, 0.0226970936
3552, 37.9783662, -4.92247219, 0.528141851
3553, 38.3950128, -4.82455779, -0.241527642
3554, 38.3239567, -5.00693152, 0.673657921
3555, 38.8357566, -6.76465687, -0.924824236
3556, 38.7995676, -6.27926878, -1.16705139
3557, 38.6524038, -7.08848958, -0.505163779
3558, 39.1438652, -6.90813873, -0.784400438
3559, 38.7778177, -7.19759276, -0.075970954
3560, 39.2710361, -4.80013709, -0.0181385298
3561, 39.3220545, -4.92545756, -0.534189607
3562, 39.3219209, -5.23030509, -0.920635508
3563, 39.3461873, -5.62623811, -1.14030787
3564, 38.9886469, -5.07615805, -0.765843355
3565, 39.0346606, -6.91806673, 0.772757058
3566, 38.9699998, -7.18119946, 0.211584113
3567, 38.9030419, -5.0627696, 0.749399216
3568, 39.0150235, -4.83968743, 0.306063284
3569, 39.2214195, -7.19719512, -0.0819990194
3570, 39.377819, -7.15168727, -0.337070369
3571, 38.7265842, -4.80000396, -0.0030832851
3572, 38.68427, -4.92954588, -0.542335668
3573, 39.1812871, -5.99386729, -1.19998433
3574, 38.645358, -5.7180334, -1.16640252
3575, 38.6904896, -5.24423029, -0.932100933
3576, 37.5, 0.965014583, -4.571162
3577, 37.5, 0.0179745278, -4.1732675
3578, 37.5, -0.522042726, -4.34817362
3579, 37.5, -1.40725897, -4.86505701
3580, 37.5, 1.40646439, -4.89164403
3581, 37.5, -1.76662205, -6.40216022
3582, 37.5, -1.60485219, -5.38572565
3583, 37.5, -1.48011756, -6.87562867
3584, 37.5, -0.800212911, -7.6248128
3585, 37.5, -0.259649235, -7.71727039
3586, 37.5, 0.787717133, -7.63359382
3587, 37.5, 1.75126248, -6.41612938
3588, 37.5, 1.17846989, -7.27060573
3589, 37.5, 1.72005398, -5.86444316
3590, 37.5, -5.04427851, 1.43012428
3591, 37.5, -6.00172633, 1.81388447
3592, 37.5, -6.53124619, 1.65575751
3593, 37.5, -7.41646153, 1.1318571
3594, 37.5, -4.59385738, 1.10401263
3595, 37.5, -7.78199387, -0.394453137
3596, 37.5, -7.60580637, 0.616475018
3597, 37.5, -7.51222124, -0.869074831
3598, 37.5, -6.78827585, -1.6223564
3599, 37.5, -5.22615091, -1.63954112
3600, 37.5, -6.25426217, -1.71499825
3601, 37.5, -4.82252955, -1.25518272
3602, 37.5, -4.24099411, -0.419615045
3603, 37.5, -4.27439805, 0.140858283
3604, 37.5, 6.96564054, 1.42484201
3605, 37.5, 6.01841687, 1.81699957
3606, 37.5, 5.47615173, 1.6474095
3607, 37.5, 4.58595067, 1.13462442
3608, 37.5, 7.42691556, 1.11347195
3609, 37.5, 4.24067021, -0.390657928
3610, 37.5, 4.3927728, 0.619813658
3611, 37.5, 5.20486091, -1.61495448
3612, 37.5, 4.50332919, -0.874568826
3613, 37.5, 6.77069829, -1.62690468
3614, 37.5, 5.7562922, -1.70830196
3615, 37.5, 7.76791369, -0.406193154
3616, 37.5, 7.18590815, -1.25955253
3617, 37.5, 7.72971066, 0.133528814
3618, 37.5, 0.984864282, 7.43381377
3619, 37.5, 0.00898695545, 7.8122555
3620, 37.5, -0.510494421, 7.64167648
3621, 37.5, -1.41346679, 7.12971849
3622, 37.5, 1.43399332, 7.12544763
3623, 37.5, -1.7628903, 5.61012744
3624, 37.5, -1.61536387, 6.63223815
3625, 37.5, -0.795137654, 4.36514103
3626, 37.5, -1.48756028, 5.13042413
3627, 37.5, 0.772024569, 4.35640059
3628, 37.5, -0.254146244, 4.28452695
3629, 37.5, 1.10995607, 4.77631511
3630, 37.5, 1.76461952, 5.59723711
3631, 37.5, 1.64876166, 6.10484355
3632, 38.5, 0.00266639662, 0.00266541319
3633, 38.5, -1.18602229, 0.944759186
3634, 38.5, 0.00163734621, 1.51560267
3635, 38.5, 1.18409897, 0.944627736
3636, 38.5, -1.47120724, -0.337179652
3637, 38.5, -0.660036523, -1.36705509
3638, 38.5, 0.655019336, -1.36866359
3639, 38.5, 1.47375166, -0.334853751
3640, 31.1688669, -18.6481689, -9.5
3641, 32.5715127, -17.5275347, -9.5
3642, 33.8998829, -15.5906987, -9.5
3643, 33.3586291, -16.6245213, -9.5
3644, 33.9837863, -19.8604295, -9.5
3645, 33.515185, -20.0587757, -9.5
3646, 37.1001823, -14.4395523, -9.5
3647, 33.5021807, -19.6006885, -9.5
3648, 33.1190505, -19.8219536, -9.5
3649, 36.2721329, -17.2274851, -9.5
3650, 34.9094062, -18.9166951, -9.5
3651, 33.0221098, -19.3216923, -9.5
3652, 36.8379662, -15.8835301, -9.5
3653, 33.5075813, -19.0506324, -9.5
3654, 33.0041522, -18.7530914, -9.5
3655, 33.5211657, -18.4518975, -9.5
3656, 32.5083435, -19.0488116, -9.5
3657, 32.4793762, -18.447914, -9.5
3658, 33.1814466, -20.3235952, -9.5
3659, 32.0578995, -18.7126144, -9.5
3660, 31.9679345, -19.2072844, -9.5
3661, 36.1623242, -13.3381082, -9.5
3662, 35.5934889, -14.4262242, -9.5
3663, 36.4597878, -15.1180926, -9.5
3664, 30.0433581, -19.173219, -9.5
3665, 31.9375, -20.5147063, -9.5
3666, 31.6858595, -19.7613741, -9.5
3667, 34.1440594, -18.8262562, -9.5
3668, 34.0758522, -18.1441621, -9.5
3669, 33.5525344, -17.840408, -9.5
3670, 34.0737008, -17.5199858, -9.5
3671, 34.6237237, -17.8241416, -9.5
3672, 34.6425079, -17.2073412, -9.5
3673, 35.1898991, -17.5086214, -9.5
3674, 35.1934178, -16.8316076, -9.5
3675, 34.560918, -16.5611969, -9.5
3676, 35.1761103, -16.1686998, -9.5
3677, 35.8616338, -16.5696865, -9.5
3678, 35.734863, -15.8562076, -9.5
3679, 35.1732866, -15.5115916, -9.5
3680, 28.9001469, -19.413522, -9.5
3681, 32.9781154, -17.0872283, -9.5
3682, 27.4050294, -20.0827044, -9.5
3683, 35.1201101, -18.1817824, -9.5
3684, 34.1584253, -15.0891316, -9.5
3685, 33.6527581, -16.1320422, -9.5
3686, 33.9194484, -16.6197189, -9.5
3687, 30.7541383, -20.0756057, -9.5
3688, 33.0392829, -18.1791333, -9.5
3689, 32.1583287, -17.965061, -9.5
3690, 18.992609, -19.992324, -9.5
3691, 35.8155297, -17.8840325, -9.5
3692, 34.69437, -15.8446589, -9.5
3693, 34.4598247, -19.4153879, -9.5
3694, 31.6948097, -18.3283871, -9.5
3695, 33.5884074, -17.180603, -9.5
3696, 37.1614259, -15.2921953, -9.5
3697, 36.6327752, -16.6214082, -9.5
3698, 35.7067949, -15.1928979, -9.5
3699, 35.151643, -14.9748245, -9.5
3700, 36.4135318, -1.78416881, -9.5
3701, 34.6906915, -15.2445689, -9.5
3702, 34.469259, -14.5548924, -9.5
3703, 32.488892, -19.7142025, -9.5
3704, 30.6734842, -19.0221749, -9.5
3705, 31.3053545, -19.2420646, -9.5
3706, 33.9305427, -19.3619465, -9.5
3707, 34.5878068, -18.4187237, -9.5
3708, 36.2823507, -16.1320393, -9.5
3709, 34.1862707, -16.0769902, -9.5
3710, 33.0766651, -17.6082168, -9.5
3711, 35.6665227, -17.2042866, -9.5
3712, 32.6162281, -17.972504, -9.5
3713, 35.5716967, -18.562279, -9.5
3714, 31.6226503, -18.8020113, -9.5
3715, 36, -6.75, -9.5
3716, 36.027054, -10.848018, -9.5
3717, 36.2043525, -15.6365535, -9.5
3718, 34.1648266, -17.0560351, -9.5
3719, 32.0976035, -18.3634941, -9.5
3720, 34.3484353, -15.5242557, -9.5
3721, 28.7285531, -19.1938079, -9.5
3722, 28.4500734, -19.206761, -9.5
3723, 29.004628, -19.1550604, -9.5
3724, 27.7021156, -19.5417009, -9.5
3725, 25.9525147, -19.5413522, -9.5
3726, 28.1527793, -19.7482683, -9.5
3727, 29.2759141, -19.0908531, -9.5
3728, 30.1116743, -18.881589, -9.5
3729, 29.8475197, -18.9707016, -9.5
3730, 29.4717525, -19.2933705, -9.5
3731, 30.6814794, -18.6928185, -9.5
3732, 30.4267373, -18.8060669, -9.5
3733, 30.3584211, -19.097697, -9.5
3734, 31.1723005, -18.3694092, -9.5
3735, 30.9291708, -18.5058155, -9.5
3736, 30.9211755, -18.8351719, -9.5
3737, 31.6646896, -18.0511321, -9.5
3738, 31.4352718, -18.2095183, -9.5
3739, 31.4318383, -18.488278, -9.5
3740, 32.110174, -17.6904707, -9.5
3741, 31.8964492, -17.8694691, -9.5
3742, 31.9265692, -18.146724, -9.5
3743, 32.5129521, -17.2736427, -9.5
3744, 32.3167659, -17.4717076, -9.5
3745, 32.3649207, -17.7462979, -9.5
3746, 32.8932069, -16.8380685, -9.5
3747, 32.7162535, -17.0534895, -9.5
3748, 32.7748141, -17.3073815, -9.5
3749, 33.2396564, -16.3757982, -9.5
3750, 33.0834638, -16.606715, -9.5
3751, 33.1683722, -16.8558748, -9.5
3752, 33.5208039, -15.88514, -9.5
3753, 33.3867209, -16.1295586, -9.5
3754, 33.5056936, -16.3782818, -9.5
3755, 33.7551421, -15.3586613, -9.5
3756, 33.6443663, -15.6144683, -9.5
3757, 33.7763205, -15.8613704, -9.5
3758, 33.9710442, -14.8428831, -9.5
3759, 33.884453, -15.1078749, -9.5
3760, 34.0291145, -15.3399269, -9.5
3761, 34.18808, -14.3038778, -9.5
3762, 34.126461, -14.5757635, -9.5
3763, 34.3138421, -14.822012, -9.5
3764, 33.9534505, -13.7764316, -9.5
3765, 34.2346295, -14.0274462, -9.5
3766, 35.013527, -9.92400902, -9.5
3767, 35.013527, -12.174009, -9.5
3768, 35.8779066, -13.8821662, -9.5
3769, 34.7967445, -13.9631121, -9.5
3770, 35.0811621, -13.4190541, -9.5
3771, 36.0946891, -12.0930631, -9.5
3772, 35.0313739, -14.4905583, -9.5
3773, 37.1616049, -0.905321836, -9.5
3774, 35.1978912, -0.91026428, -9.5
3775, 35.1992844, -3.15621372, -9.5
3776, 37.164861, -0.907991194, -9.5
3777, 37.1844094, -3.15248214, -9.5
3778, 37.53083, -14.3618447, -9.5
3779, 37.5500911, -13.9697761, -9.5
3780, 37.013527, -12.174009, -9.5
3781, 37.013527, -9.92400902, -9.5
3782, 36.6312532, -13.8888302, -9.5
3783, 37.0811621, -13.4190541, -9.5
3784, 37.4732323, -14.7501374, -9.5
3785, 37.4084743, -15.5572364, -9.5
3786, 37.5038541, -15.1764589, -9.5
3787, 37.1308041, -14.8658738, -9.5
3788, 37.1145012, -16.2224988, -9.5
3789, 37.2467445, -15.8529037, -9.5
3790, 36.9996961, -15.5878627, -9.5
3791, 36.8440727, -16.9462911, -9.5
3792, 37.0119057, -16.5914378, -9.5
3793, 36.7353707, -16.2524691, -9.5
3794, 36.4619449, -17.5860235, -9.5
3795, 36.6637515, -17.2493295, -9.5
3796, 36.4524541, -16.9244466, -9.5
3797, 35.9998066, -18.2295894, -9.5
3798, 36.2336433, -17.9142972, -9.5
3799, 36.0438313, -17.5557588, -9.5
3800, 35.6142755, -18.8595666, -9.5
3801, 35.8778901, -18.5687126, -9.5
3802, 35.6936132, -18.2231557, -9.5
3803, 34.9922763, -19.3003893, -9.5
3804, 35.2831302, -19.0367747, -9.5
3805, 35.2405514, -18.739487, -9.5
3806, 34.4521933, -19.7835724, -9.5
3807, 34.7674855, -19.5497357, -9.5
3808, 34.6846154, -19.1660415, -9.5
3809, 33.9918931, -20.1393232, -9.5
3810, 34.2141741, -20.0060932, -9.5
3811, 34.2218055, -19.6379087, -9.5
3812, 33.5907233, -20.9117976, -9.5
3813, 33.5907233, -20.3709061, -9.5
3814, 33.7575925, -20.2384964, -9.5
3815, 33.7494856, -19.9596026, -9.5
3816, 33.3483158, -20.1911854, -9.5
3817, 30.90625, -21.0073531, -9.5
3818, 32.96875, -21.0073531, -9.5
3819, 32.5594733, -20.4191507, -9.5
3820, 18.2646063, -19.5478091, -9.5
3821, 18.2794079, -20.7301316, -9.5
3822, 20.3276835, -20.7563827, -9.5
3823, 18.2655387, -19.5433475, -9.5
3824, 20.0172024, -19.5214748, -9.5
3825, 35, -5.625, -9.5
3826, 35, -7.875, -9.5
3827, 36.0126939, -8.80040394, -9.5
3828, 35.9996416, -4.49802571, -9.5
3829, 36.9979692, -5.62709442, -9.5
3830, 36.9950414, -7.87936531, -9.5
3831, 26.5775147, -20.7913522, -9.5
3832, 28.6400147, -20.7913522, -9.5
3833, 30.3145379, -20.7875805, -9.5
3834, 31.3457274, -20.2953146, -9.5
3835, 29.3876206, -20.4565393, -9.5
3836, 29.8271426, -19.7445639, -9.5
3837, 25.125, -20.25, -9.5
3838, 23.0629587, -20.2537782, -9.5
3839, 21.3207742, -20.2525812, -9.5
3840, 31.65873, -18.5651992, -9.5
3841, 31.3957586, -18.7250901, -9.5
3842, 31.2371107, -18.9451167, -9.5
3843, 30.9894193, -19.1321198, -9.5
3844, 31.4640024, -19.0220379, -9.5
3845, 33.0273902, -17.3477226, -9.5
3846, 32.8240889, -17.5678757, -9.5
3847, 32.5938704, -17.7500193, -9.5
3848, 32.3872784, -17.9687825, -9.5
3849, 32.8464466, -17.7903604, -9.5
3850, 34.2534303, -15.3066936, -9.5
3851, 34.1241591, -15.5574772, -9.5
3852, 34.0430768, -15.8338444, -9.5
3853, 33.9195144, -16.1045162, -9.5
3854, 34.267353, -15.8006229, -9.5
3855, 33.4735183, -16.9025622, -9.5
3856, 33.2832614, -17.1339157, -9.5
3857, 33.7861033, -16.3758805, -9.5
3858, 33.6390388, -16.6221201, -9.5
3859, 33.7539279, -16.900161, -9.5
3860, 33.5086829, -19.8297321, -9.5
3861, 33.7429835, -19.730559, -9.5
3862, 33.7163617, -19.4813175, -9.5
3863, 33.9571645, -19.611188, -9.5
3864, 34.1951837, -19.3886672, -9.5
3865, 33.3171177, -19.9403647, -9.5
3866, 33.3106156, -19.7113211, -9.5
3867, 33.1502485, -20.0727744, -9.5
3868, 36.3468356, -14.4328882, -9.5
3869, 36.7799851, -14.7788224, -9.5
3870, 36.0266384, -14.7721584, -9.5
3871, 36.8106069, -15.205144, -9.5
3872, 33.0705801, -19.571823, -9.5
3873, 33.2621453, -19.4611904, -9.5
3874, 33.2648456, -19.1861624, -9.5
3875, 33.504881, -19.3256605, -9.5
3876, 33.719062, -19.2062895, -9.5
3877, 32.8039713, -19.7680781, -9.5
3878, 32.7555009, -19.5179474, -9.5
3879, 32.8351693, -20.0188988, -9.5
3880, 36.2472045, -16.5955473, -9.5
3881, 36.0668833, -16.8985858, -9.5
3882, 35.9693278, -17.2158858, -9.5
3883, 35.7640782, -16.8869865, -9.5
3884, 35.7410262, -17.5441596, -9.5
3885, 34.301942, -19.120822, -9.5
3886, 34.5267328, -18.8714756, -9.5
3887, 34.3659331, -18.62249, -9.5
3888, 34.7486065, -18.6677094, -9.5
3889, 34.8539585, -18.3002531, -9.5
3890, 35.0147582, -18.5492387, -9.5
3891, 35.3459034, -18.3720307, -9.5
3892, 33.013131, -19.0373919, -9.5
3893, 33.2558668, -18.9018619, -9.5
3894, 32.7652266, -19.1852519, -9.5
3895, 32.7562478, -18.9009515, -9.5
3896, 32.4986178, -19.381507, -9.5
3897, 36.648877, -15.5008113, -9.5
3898, 36.5211594, -15.7600418, -9.5
3899, 36.3320702, -15.3773231, -9.5
3900, 36.457563, -16.3767238, -9.5
3901, 36.5601585, -16.0077847, -9.5
3902, 36.2433516, -15.8842964, -9.5
3903, 33.2626589, -18.6024945, -9.5
3904, 33.5143735, -18.751265, -9.5
3905, 33.8326125, -18.6390769, -9.5
3906, 33.8258204, -18.9384443, -9.5
3907, 34.037301, -19.0941014, -9.5
3908, 33.0217175, -18.4661124, -9.5
3909, 33.2802243, -18.3155154, -9.5
3910, 32.4938598, -18.7483628, -9.5
3911, 32.7417642, -18.6005027, -9.5
3912, 32.7593295, -18.3135236, -9.5
3913, 33.7985089, -18.2980298, -9.5
3914, 34.1099558, -18.4852091, -9.5
3915, 33.53685, -18.1461528, -9.5
3916, 33.8141933, -17.9922851, -9.5
3917, 33.2959087, -18.0097707, -9.5
3918, 32.2831215, -18.880713, -9.5
3919, 32.2686378, -18.5802642, -9.5
3920, 32.238139, -19.128048, -9.5
3921, 32.012917, -18.9599494, -9.5
3922, 32.2284133, -19.4607434, -9.5
3923, 32.0777515, -18.5380543, -9.5
3924, 32.2884898, -18.405704, -9.5
3925, 32.5478021, -18.210209, -9.5
3926, 32.8277555, -18.0758187, -9.5
3927, 32.3188524, -18.2064875, -9.5
3928, 32.1279661, -18.1642776, -9.5
3929, 32.213196, -20.1144544, -9.5
3930, 31.7952924, -19.0046478, -9.5
3931, 31.8402749, -18.7573128, -9.5
3932, 31.8763546, -18.5205007, -9.5
3933, 31.8962066, -18.3459406, -9.5
3934, 32.0873758, -19.7377883, -9.5
3935, 31.826897, -19.4843293, -9.5
3936, 31.495607, -19.5017194, -9.5
3937, 31.6366445, -19.2246745, -9.5
3938, 36.0832914, -15.1554952, -9.5
3939, 35.6501419, -14.809561, -9.5
3940, 35.4292189, -15.0838612, -9.5
3941, 35.372566, -14.7005244, -9.5
3942, 34.810451, -14.7648585, -9.5
3943, 35.9555737, -15.4147257, -9.5
3944, 30.3987482, -19.6244124, -9.5
3945, 30.7138113, -19.5488903, -9.5
3946, 31.2199989, -19.9184899, -9.5
3947, 31.8116798, -20.1380402, -9.5
3948, 31.0297464, -19.6588352, -9.5
3949, 34.3318295, -18.2814429, -9.5
3950, 33.8131176, -17.6801969, -9.5
3951, 34.0747765, -17.8320739, -9.5
3952, 34.3487122, -17.6720637, -9.5
3953, 34.349788, -17.9841519, -9.5
3954, 34.6057653, -18.1214327, -9.5
3955, 33.5704709, -17.5105055, -9.5
3956, 33.8310541, -17.3502944, -9.5
3957, 33.057974, -17.8936751, -9.5
3958, 33.3145997, -17.7243124, -9.5
3959, 33.3325362, -17.3944099, -9.5
3960, 34.3581043, -17.3636635, -9.5
3961, 34.6331158, -17.5157414, -9.5
3962, 34.1192637, -17.2880104, -9.5
3963, 34.4036673, -17.1316882, -9.5
3964, 33.876617, -17.1183191, -9.5
3965, 34.9162035, -17.3579813, -9.5
3966, 34.9068114, -17.6663815, -9.5
3967, 35.1550046, -17.8452019, -9.5
3968, 34.8719169, -18.002962, -9.5
3969, 34.9179629, -17.0194744, -9.5
3970, 35.1916585, -17.1701145, -9.5
3971, 34.601713, -16.884269, -9.5
3972, 34.8771679, -16.6964022, -9.5
3973, 34.3628723, -16.808616, -9.5
3974, 35.4299702, -17.0179471, -9.5
3975, 35.4282109, -17.356454, -9.5
3976, 35.5027144, -17.6963269, -9.5
3977, 35.4678199, -18.0329075, -9.5
3978, 34.8685142, -16.3649483, -9.5
3979, 35.1847641, -16.5001537, -9.5
3980, 35.5188721, -16.3691932, -9.5
3981, 35.5275258, -16.700647, -9.5
3982, 34.627644, -16.2029279, -9.5
3983, 34.9352401, -16.0066793, -9.5
3984, 34.0528596, -16.3483545, -9.5
3985, 34.3735944, -16.3190935, -9.5
3986, 34.2401832, -16.5904579, -9.5
3987, 34.0421375, -16.837877, -9.5
3988, 34.4403204, -15.9608245, -9.5
3989, 35.4554867, -16.0124537, -9.5
3990, 35.7982484, -16.212947, -9.5
3991, 35.1746985, -15.8401457, -9.5
3992, 35.4540748, -15.6838996, -9.5
3993, 34.9338283, -15.6781252, -9.5
3994, 36.0086069, -15.9941235, -9.5
3995, 36.0719922, -16.3508629, -9.5
3996, 35.4400408, -15.3522447, -9.5
3997, 35.720829, -15.5245527, -9.5
3998, 35.9696078, -15.7463805, -9.5
3999, 34.6925307, -15.5446139, -9.5
4000, 34.931989, -15.3780803, -9.5
4001, 35.1624648, -15.2432081, -9.5
4002, 34.9211672, -15.1096967, -9.5
4003, 34.5799752, -14.8997307, -9.5
4004, 34.4245584, -15.1668502, -9.5
4005, 34.5195634, -15.3844123, -9.5
4006, 34.5214026, -15.6844573, -9.5
4007, 17.2502409, -19.006122, -9.4967163
4008, 17.5081464, -18.7571968, -9.49999651
4009, 19.8952397, -18.7452061, -9.19308582
4010, 17.1837573, -18.7896454, -9.49473488
4011, 19.8978781, -18.7424599, 9.19239798
4012, 17.256357, -19.0055157, 9.49687517
4013, 17.1778643, -18.7913793, 9.49453678
4014, 13.8645074, -18.755, 8.77685556
4015, 16.2567047, -18.7801512, 9.4182916
4016, 16.5857122, -18.7839535, 9.45590175
4017, 16.8521338, -18.785512, 9.47788317
4018, 22.1675998, -18.741136, 8.27426806
4019, 24.1145313, -18.7384658, 6.81894245
4020, 25.6462477, -18.7403019, 4.88760148
4021, 26.4041919, -18.7612398, 3.31139938
4022, 25.640784, -18.7436604, -4.89669644
4023, 24.1141468, -18.7413716, -6.81931535
4024, 26.4074424, -18.7274292, -3.30264592
4025, 22.1701272, -18.7410216, -8.27284183
4026, 16.8532424, -18.7844966, -9.47795888
4027, 16.5817419, -18.7831336, -9.45551702
4028, 16.2629701, -18.778898, -9.41911657
4029, 13.8489584, -18.7689275, -8.77039882
4030, 13.570053, -18.7806315, -8.64901823
4031, 13.3203884, -18.7837071, -8.53116912
4032, 13.0042684, -18.7912819, -8.36889463
4033, 12.7482236, -18.7846028, -8.2262155
4034, 12.5010546, -18.792842, -8.07839991
4035, 12.2036949, -18.7810362, -7.88664391
4036, 11.9748149, -18.7814179, -7.72802233
4037, 11.7218766, -18.776914, -7.54077517
4038, 9.9606933, -18.7583077, -5.78003931
4039, 9.7738636, -18.7813829, -5.52782202
4040, 9.60639686, -18.7818979, -5.2859275
4041, 9.42234974, -18.7916465, -5.00015662
4042, 9.27123782, -18.7836594, -4.74736485
4043, 9.12865874, -18.7929757, -4.49117419
4044, 8.9687165, -18.7798271, -4.17937816
4045, 8.85007463, -18.7802461, -3.92794999
4046, 8.72787825, -18.775529, -3.64690004
4047, 8.07873923, -18.7732792, -1.22059229
4048, 8.04547903, -18.7788696, -0.928457496
4049, 8.02230449, -18.7773897, -0.650605729
4050, 8.00482036, -18.7940249, -0.302594745
4051, 8.00000377, -18.7827891, -0.00846389189
4052, 8.00440224, -18.7923424, 0.289176581
4053, 8.02189066, -18.7812497, 0.644548913
4054, 8.04541305, -18.7802641, 0.927785329
4055, 8.0829217, -18.7661479, 1.25245211
4056, 8.7297678, -18.7774367, 3.65144179
4057, 8.85059953, -18.7815716, 3.92910569
4058, 8.96844605, -18.7797216, 4.17882606
4059, 9.12958511, -18.7931044, 4.49290046
4060, 9.27185597, -18.7802183, 4.74843615
4061, 9.42278237, -18.7924984, 5.00085546
4062, 9.60942622, -18.7803602, 5.29044851
4063, 9.77239071, -18.7809333, 5.52576281
4064, 9.96285925, -18.7634196, 5.78286342
4065, 11.7167664, -18.755, 7.53685673
4066, 11.9664619, -18.755, 7.7220435
4067, 12.2220828, -18.755, 7.89896132
4068, 12.4833554, -18.755, 8.06742072
4069, 12.75, -18.755, 8.22724134
4070, 13.021731, -18.755, 8.37825201
4071, 13.2982574, -18.755, 8.52029104
4072, 13.5792832, -18.755, 8.65320634
4073, 26.9608924, -18.7708302, 0.861112275
4074, 26.9597641, -18.7467237, -0.873420722
4075, 16.8910004, -19.01, 9.47107892
4076, 16.8741382, -20.2690544, 9.45897885
4077, 16.5716677, -20.8797833, 9.43915389
4078, 16.5773807, -19.6454437, 9.43952834
4079, 16.8863937, -19.6217352, 9.45978212
4080, 17.1838209, -19.6343599, 9.47927653
4081, 17.187393, -20.8920549, 9.47951066
4082, 15.6506101, -20.2702684, 9.29751077
4083, 15.3459146, -20.8851342, 9.23690306
4084, 15.3459146, -19.6401342, 9.23690306
4085, 15.6506101, -19.6401342, 9.29751077
4086, 15.9566444, -19.6589128, 9.35838477
4087, 15.9553056, -20.8851342, 9.35811847
4088, 14.4528632, -20.2702684, 8.97657545
4089, 14.1586853, -20.8851342, 8.87671551
4090, 14.1586853, -19.6401342, 8.87671551
4091, 14.4528632, -19.6401342, 8.97657545
4092, 14.7470412, -19.6401342, 9.0764354
4093, 14.7470412, -20.8851342, 9.0764354
4094, 13.3072537, -20.2702684, 8.50204845
4095, 13.0286268, -20.8851342, 8.36464489
4096, 13.0286268, -19.6401342, 8.36464489
4097, 13.3072537, -19.6401342, 8.50204845
4098, 13.5858805, -19.6401342, 8.639452
4099, 13.5858805, -20.8851342, 8.639452
4100, 12.2333832, -20.2702684, 7.88204903
4101, 11.9750748, -20.8851342, 7.70945288
4102, 11.9750748, -19.6401342, 7.70945288
4103, 12.233271, -19.6416566, 7.88197403
4104, 12.4916916, -19.6401342, 8.05464519
4105, 12.4916916, -20.8851342, 8.05464519
4106, 11.249626, -20.2702684, 7.12718558
4107, 11.0160558, -20.8851342, 6.92235
4108, 11.0160558, -19.6401342, 6.92235
4109, 11.249626, -19.6401342, 7.12718558
4110, 11.4831962, -19.6401342, 7.33202115
4111, 11.4831962, -20.8851342, 7.33202115
4112, 10.3728144, -20.2702684, 6.250374
4113, 10.1679788, -20.8851342, 6.01680379
4114, 10.1683008, -19.6476967, 6.01717095
4115, 10.3732013, -19.6326172, 6.25081515
4116, 10.57765, -19.6401342, 6.48394421
4117, 10.57765, -20.8851342, 6.48394421
4118, 9.61795097, -20.2702684, 5.26661679
4119, 9.44535481, -20.8851342, 5.00830839
4120, 9.44416662, -19.6466355, 5.00653014
4121, 9.61693267, -19.6385765, 5.2650928
4122, 9.79127311, -19.6424422, 5.52601171
4123, 9.79090767, -20.8900529, 5.5254648
4124, 8.99853222, -20.2673498, 4.19392379
4125, 8.86063875, -20.887457, 3.91430349
4126, 8.86132139, -19.6457841, 3.91568775
4127, 8.99889316, -19.6356017, 4.19465569
4128, 9.13645245, -19.6471642, 4.47359834
4129, 9.13581132, -20.8867372, 4.47229825
4130, 8.52151302, -20.2743846, 3.04150561
4131, 8.42251641, -20.8937238, 2.74987098
4132, 8.42265446, -19.6449522, 2.75027766
4133, 8.5243537, -19.6390387, 3.04987398
4134, 8.62438121, -19.6537629, 3.3445455
4135, 8.62295091, -20.8883527, 3.34033198
4136, 8.2022809, -20.2637625, 1.84834249
4137, 8.1428299, -20.8932157, 1.54946217
4138, 8.14345654, -19.6524198, 1.55261247
4139, 8.20330907, -19.6342485, 1.85351146
4140, 8.26303416, -19.6505999, 2.15376979
4141, 8.26260111, -20.8835733, 2.15159267
4142, 8.04065114, -20.2747318, 0.620216522
4143, 8.02054922, -20.8778668, 0.31352046
4144, 8.01942619, -19.6470609, 0.296386423
4145, 8.04047045, -19.662763, 0.617459697
4146, 8.06194317, -19.6442399, 0.945070187
4147, 8.06093306, -20.8774846, 0.929658874
4148, 8.04085729, -20.2683778, -0.623361802
4149, 8.06115918, -20.8746149, -0.933108831
4150, 8.06117006, -19.6458022, -0.933274776
4151, 8.04089789, -19.6312616, -0.623981267
4152, 8.02077043, -19.6464975, -0.316895455
4153, 8.02024395, -20.8823874, -0.308862922
4154, 8.1997169, -20.2663473, -1.83545242
4155, 8.2626531, -20.8873264, -2.15185404
4156, 8.26585029, -19.6569228, -2.16792743
4157, 8.20081924, -19.6330525, -1.84099428
4158, 8.13937795, -19.6499871, -1.53210805
4159, 8.13971304, -20.8905236, -1.53379264
4160, 8.52300873, -20.2680654, -3.04591182
4161, 8.6237021, -20.8877182, -3.34254491
4162, 8.6255381, -19.6529152, -3.3479536
4163, 8.52592364, -19.627349, -3.05449888
4164, 8.42588058, -19.6491932, -2.75978152
4165, 8.42260154, -20.8942568, -2.75012177
4166, 8.99795155, -20.2702684, -4.1927463
4167, 9.13535511, -20.8851342, -4.47137315
4168, 9.13633633, -19.648992, -4.47336287
4169, 8.99949144, -19.6330826, -4.19586888
4170, 8.86171197, -19.6461708, -3.91647977
4171, 8.860548, -20.8851342, -3.91411946
4172, 9.61795097, -20.2702684, -5.26661679
4173, 9.79054712, -20.8851342, -5.52492518
4174, 9.79137492, -19.6413761, -5.52616408
4175, 9.61828378, -19.6364533, -5.26711488
4176, 9.44698772, -19.6441834, -5.01075221
4177, 9.44535481, -20.8851342, -5.00830839
4178, 10.3728144, -20.2702684, -6.250374
4179, 10.57765, -20.8851342, -6.48394421
4180, 10.5748552, -19.6429452, -6.48075731
4181, 10.3730242, -19.6263515, -6.25061319
4182, 10.1694154, -19.6495059, -6.01844186
4183, 10.1679788, -20.8851342, -6.01680379
4184, 11.249626, -20.2702684, -7.12718558
4185, 11.4831962, -20.8851342, -7.33202115
4186, 11.4832972, -19.6520021, -7.33210976
4187, 11.2498532, -19.633439, -7.12738487
4188, 11.0144583, -19.6439624, -6.92094903
4189, 11.0160558, -20.8851342, -6.92235
4190, 12.2333832, -20.2702684, -7.88204903
4191, 12.4916916, -20.8851342, -8.05464519
4192, 12.4916916, -19.6401342, -8.05464519
4193, 12.2333832, -19.6401342, -7.88204903
4194, 11.9743524, -19.6420943, -7.70897015
4195, 11.9750748, -20.8851342, -7.70945288
4196, 13.3072537, -20.2702684, -8.50204845
4197, 13.5858805, -20.8851342, -8.639452
4198, 13.5899103, -19.6490547, -8.64143924
4199, 13.309835, -19.633746, -8.5033214
4200, 13.0286268, -19.6401342, -8.36464489
4201, 13.0286268, -20.8851342, -8.36464489
4202, 14.4552086, -20.2653997, -8.9773716
4203, 14.7528068, -20.8812598, -9.07839257
4204, 14.7579516, -19.6520182, -9.080139
4205, 14.4554632, -19.639958, -8.97745804
4206, 14.1496675, -19.6612879, -8.87365436
4207, 14.1590779, -20.8879755, -8.87684876
4208, 15.6506101, -20.2702684, -9.29751077
4209, 15.9553056, -20.8851342, -9.35811847
4210, 15.9476424, -19.6516906, -9.35659416
4211, 15.6512126, -19.633891, -9.29763061
4212, 15.3540776, -19.6495427, -9.23852678
4213, 15.3459146, -20.8851342, -9.23690306
4214, 16.8667364, -20.2716254, -9.45849371
4215, 17.1852392, -20.89622, -9.47936949
4216, 17.1860461, -19.6349775, -9.47942237
4217, 16.5657069, -20.8744307, -9.4387632
4218, 16.8771635, -19.6227726, -9.45917714
4219, 16.5668958, -19.6327963, -9.43884112
4220, 15.6482241, -19.01, 9.30751614
4221, 14.4495942, -19.01, 8.98620584
4222, 13.3027556, -19.01, 8.51116975
4223, 12.227733, -19.01, 7.89050518
4224, 11.2429204, -19.01, 7.13483187
4225, 10.3688338, -19.01, 6.26151573
4226, 9.6095463, -19.01, 5.27251267
4227, 8.98714627, -19.01, 4.19426298
4228, 8.51441334, -19.01, 3.05251078
4229, 8.19331177, -19.01, 1.85637086
4230, 8.03042782, -19.01, 0.622122466
4231, 8.03054648, -19.01, -0.626401358
4232, 8.19139927, -19.01, -1.84637022
4233, 8.51429277, -19.01, -3.05218102
4234, 8.98691998, -19.01, -4.19406783
4235, 9.60945039, -19.01, -5.27239046
4236, 10.3707891, -19.01, -6.26348437
4237, 11.2445533, -19.01, -7.13639165
4238, 12.2246397, -19.01, -7.88888432
4239, 13.3046381, -19.01, -8.51242216
4240, 14.4530204, -19.01, -8.98763078
4241, 15.6501689, -19.01, -9.30789323
4242, 16.8840139, -19.01, -9.46982455
4243, 17.4974362, -18.5, 8.77389622
4244, 19.8926002, -18.5, 8.27111637
4245, 15.09693, -18.5, 8.27994021
4246, 22.2522465, -18.5, 7.36635089
4247, 12.773859, -18.5, 7.34968865
4248, 24.0446649, -18.5, 5.69212981
4249, 25.4538125, -18.5, 3.61149057
4250, 26.1762432, -18.5, 1.2814405
4251, 26.1536241, -18.5, -1.25346477
4252, 25.461919, -18.5, -3.62301236
4253, 24.0478281, -18.5, -5.70190785
4254, 22.2533239, -18.5, -7.36752269
4255, 17.49471, -18.5, -8.77912154
4256, 19.8999618, -18.5, -8.27419869
4257, 15.0871841, -18.5, -8.29568289
4258, 12.7282237, -18.5, -7.39282743
4259, 10.9355862, -18.5, -5.70463813
4260, 8.80807944, -18.5, -1.26010051
4261, 9.48327062, -18.5, -3.64715575
4262, 8.83673763, -18.5, 1.2599219
4263, 9.4994461, -18.5, 3.63688497
4264, 10.9404996, -18.5, 5.69577498
4265, 20.5614896, -17.5180817, 7.39102708
4266, 15.027864, -17.525, 7.60845213
4267, 19.0664765, -18.0723277, 7.84513552
4268, 19.0636533, -17.029821, 7.84569872
4269, 21.393528, -18.078765, 6.98859356
4270, 12.797718, -17.525, 6.47213595
4271, 21.4004667, -17.0151373, 6.98472327
4272, 23.9726839, -17.5214915, 4.70152776
4273, 22.2105173, -17.5320048, 6.46614468
4274, 25.4999999, -17.512998, -0.00107698244
4275, 25.1173179, -17.4979119, 2.44468173
4276, 25.1209136, -17.5365048, -2.4334495
4277, 23.9728985, -17.5223412, -4.70123227
4278, 19.9714945, -17.5241897, -7.60866052
4279, 22.1976292, -17.5235539, -6.4755139
4280, 17.49946, -17.517703, -7.99999998
4281, 15.027864, -17.525, -7.60845213
4282, 9.87597204, -17.5478114, -2.42367441
4283, 11.0265098, -17.5174629, -4.70041755
4284, 12.797718, -17.525, -6.47213595
4285, 9.88201145, -17.5155593, 2.44259092
4286, 9.50000026, -17.5343489, -0.00203431185
4287, 11.0272849, -17.5222893, 4.70148474
4288, 34.7536478, -23.1494558, -5
4289, 34.2677697, -23.4477873, -5
4290, 35.4800761, -22.6595921, -5
4291, 34.4263423, -22.3910762, -5
4292, 33.6631128, -23.1981406, -5
4293, 21.8500162, -22.7758464, -5
4294, 36.5038582, -19.3733728, -5
4295, 36.5952218, -19.2687988, -5
4296, 36.8264761, -18.9532891, -5
4297, 36.4835584, -20.9160219, -5
4298, 36.490761, -19.5630048, -5
4299, 36.0579031, -22.0033298, -5
4300, 36.1727892, -21.8402483, -5
4301, 35.7966669, -22.5807699, -5
4302, 35.7362324, -22.0830341, -5
4303, 36.2722363, -21.6683719, -5
4304, 36.3544388, -21.4901621, -5
4305, 36.4215759, -21.3017154, -5
4306, 36.4508986, -21.1182416, -5
4307, 35.2129273, -21.9457517, -5
4308, 33.1754955, -21.9482711, -5
4309, 34.9535686, -22.5348743, -5
4310, 20.7649799, -22.1168512, -5
4311, 20.7671227, -23.3362048, -5
4312, 22.8069061, -22.1218557, -5
4313, 22.9659145, -23.3316348, -5
4314, 33.331645, -23.5948362, -5
4315, 33.5520696, -23.5813429, -5
4316, 32.4629179, -22.7486135, -5
4317, 30.2503085, -22.7427362, -5
4318, 32.7974315, -22.3527562, -5
4319, 33.7438148, -23.5511299, -5
4320, 34.0427098, -23.6779756, -5
4321, 34.2373201, -23.6235247, -5
4322, 33.9642799, -23.3239618, -5
4323, 34.4229335, -23.5588628, -5
4324, 34.6623108, -23.4157233, -5
4325, 34.8385417, -23.3155251, -5
4326, 34.5127933, -23.2993719, -5
4327, 35.0114385, -23.2174207, -5
4328, 35.3676078, -22.9736313, -5
4329, 35.5253494, -22.8562015, -5
4330, 35.1113739, -22.9048318, -5
4331, 35.6705886, -22.7255908, -5
4332, 28.2035014, -22.7155628, -5
4333, 34.0448239, -22.7981524, -5
4334, 26.0066381, -22.7246675, -5
4335, 23.9572006, -22.7445326, -5
4336, 34.2014083, -23.1744706, -5
4337, 34.5831574, -22.7775092, -5
4338, 36.0920375, -18.6767035, -7.25025477
4339, 35.8281276, -18.9678832, -7.25031163
4340, 36.417882, -18.2599056, -7.25005749
4341, 36.8260414, -17.6537857, -7.25003662
4342, 37.0277108, -17.3173207, -7.25002058
4343, 37.7280036, -17.6717, -4.68557326
4344, 37.2536252, -17.5132971, -4.96730256
4345, 37.2507025, -18.8646351, -4.96806417
4346, 37.653819, -18.850796, -4.75665097
4347, 37.2765359, -17.4719188, -4.96100358
4348, 37.5391125, -17.1097306, -4.84223378
4349, 37.911967, -18.8175719, -4.41026348
4350, 37.8965578, -17.2156994, -4.44292678
4351, 37.9809907, -15.4889172, -4.19405472
4352, 37.9084822, -16.7124685, -4.41792345
4353, 37.9127107, -16.3118602, -4.40860637
4354, 37.9303448, -15.9009135, -4.36668597
4355, 37.3907541, -20.2144439, -4.91563516
4356, 37.9033155, -20.2630085, -4.40040762
4357, 37.1782128, -20.1104827, -4.98280927
4358, 37.17803, -20.2888694, -4.98116053
4359, 37.528986, -20.3295054, -4.83796664
4360, 37.5550718, -20.0692684, -4.82916321
4361, 37.9619432, -20.3924214, -4.19276837
4362, 37.9752279, -20.157976, -4.1835561
4363, 37.8217307, -20.0966574, -4.56266037
4364, 37.8195696, -20.3593482, -4.54656093
4365, 37.6937993, -20.225028, -4.70899873
4366, 37.3275511, -20.6000427, -4.9271141
4367, 37.8695686, -20.7096809, -4.37501831
4368, 37.1575349, -20.4654868, -4.98238661
4369, 37.1345739, -20.6681442, -4.98102462
4370, 37.4814392, -20.7530566, -4.83552432
4371, 37.514252, -20.5288391, -4.83581474
4372, 37.9040362, -20.849561, -4.19076056
4373, 37.9420527, -20.5954284, -4.18912676
4374, 37.7965962, -20.5826971, -4.54842088
4375, 37.7631335, -20.8117698, -4.54764025
4376, 37.6537772, -20.6745518, -4.705804
4377, 37.2463673, -21.0297944, -4.92688262
4378, 37.7750515, -21.1873555, -4.37635439
4379, 37.1119408, -20.8738931, -4.9783256
4380, 37.0418834, -21.0769666, -4.98208134
4381, 37.3867133, -21.2046128, -4.83253749
4382, 37.426079, -20.9571944, -4.84672112
4383, 37.7919647, -21.3358013, -4.20409291
4384, 37.8606309, -21.073512, -4.1897691
4385, 37.7254063, -21.0449589, -4.53678545
4386, 37.6537955, -21.2846765, -4.55402397
4387, 37.5645794, -21.1158637, -4.70926677
4388, 37.1347928, -21.435886, -4.92381144
4389, 37.6348799, -21.6443985, -4.38251906
4390, 36.9841851, -21.2751872, -4.98237777
4391, 36.9308597, -21.4712389, -4.97923139
4392, 37.2545562, -21.6155609, -4.83108802
4393, 37.3319047, -21.3979119, -4.83142019
4394, 37.644867, -21.7852511, -4.19500308
4395, 37.727519, -21.5542542, -4.19500308
4396, 37.5869619, -21.5039621, -4.55549627
4397, 37.5093544, -21.7215184, -4.55516431
4398, 37.4314453, -21.570351, -4.70675428
4399, 36.9741412, -21.8342524, -4.92381144
4400, 37.4513825, -22.090778, -4.38251906
4401, 36.8481681, -21.6616621, -4.98076792
4402, 36.7663594, -21.840151, -4.98029539
4403, 37.0757166, -22.024801, -4.83108802
4404, 37.1740261, -21.8157815, -4.83142019
4405, 37.4475155, -22.2319312, -4.19500308
4406, 37.5524111, -22.0101479, -4.19500308
4407, 37.4174604, -21.946321, -4.55549627
4408, 37.3189023, -22.1552229, -4.55516431
4409, 37.2489973, -21.9946373, -4.71425248
4410, 36.7752165, -22.2149539, -4.92381144
4411, 37.2250158, -22.5170221, -4.38251906
4412, 36.6667667, -22.0308472, -4.98076792
4413, 36.5527973, -22.200139, -4.98284075
4414, 36.8576258, -22.4145411, -4.83108802
4415, 36.9759493, -22.2161641, -4.83142019
4416, 37.207332, -22.6571166, -4.19500308
4417, 37.3334611, -22.4466828, -4.19500308
4418, 37.2054163, -22.3699357, -4.55549627
4419, 37.0868568, -22.5681714, -4.55516431
4420, 37.0399361, -22.4047093, -4.70675428
4421, 36.5399343, -22.5743242, -4.92381144
4422, 36.9579599, -22.9190259, -4.38251906
4423, 36.4500524, -22.3804741, -4.98076792
4424, 36.3349942, -22.5395733, -4.98029539
4425, 36.6023838, -22.7810279, -4.83108802
4426, 36.7395819, -22.5952038, -4.83142019
4427, 36.9266295, -23.0567125, -4.19500308
4428, 37.0727774, -22.8596549, -4.19500308
4429, 36.9528717, -22.7707267, -4.55549627
4430, 36.8154527, -22.9563869, -4.55516431
4431, 36.7844823, -22.788437, -4.70739605
4432, 36.2705607, -22.9089024, -4.92381144
4433, 36.6527867, -23.2929179, -4.38251906
4434, 36.2001122, -22.7071757, -4.98076792
4435, 36.0610772, -22.8533066, -4.98172697
4436, 36.3114845, -23.1224501, -4.83079386
4437, 36.4672004, -22.9492503, -4.83142019
4438, 36.6081115, -23.4268706, -4.19500308
4439, 36.7798288, -23.2401151, -4.18563155
4440, 36.6627239, -23.1459606, -4.55384452
4441, 36.5073037, -23.3161309, -4.55516431
4442, 36.4937547, -23.1461639, -4.70665456
4443, 35.9696898, -23.2154662, -4.92381144
4444, 36.3124351, -23.6350973, -4.38251906
4445, 35.93188, -23.0050504, -4.97947855
4446, 35.775467, -23.1414012, -4.98029539
4447, 35.9906134, -23.4303814, -4.83108802
4448, 36.1554587, -23.2541129, -4.84406688
4449, 36.2559571, -23.7669193, -4.17985607
4450, 36.4366292, -23.5992668, -4.19500308
4451, 36.3363764, -23.488655, -4.55549627
4452, 36.1622696, -23.630973, -4.57229663
4453, 36.1673309, -23.4558599, -4.72026845
4454, 35.598713, -23.5155075, -4.92590503
4455, 35.9051339, -23.9694944, -4.38012109
4456, 35.5904748, -23.2875492, -4.98183224
4457, 35.429337, -23.4137884, -4.9807719
4458, 35.6125403, -23.7136761, -4.83832955
4459, 35.8061792, -23.588052, -4.82875464
4460, 35.8444331, -24.0841799, -4.19454507
4461, 36.0520399, -23.9319687, -4.18727444
4462, 35.9594489, -23.8091108, -4.5600321
4463, 35.7761016, -23.9584494, -4.54382157
4464, 35.8024569, -23.7742826, -4.70723695
4465, 35.2832446, -23.7287242, -4.92577356
4466, 35.5404947, -24.2140302, -4.37606748
4467, 35.2767139, -23.5123651, -4.98194943
4468, 35.1059729, -23.6215848, -4.98079408
4469, 35.2622162, -23.9422618, -4.83488463
4470, 35.4596173, -23.8252535, -4.83414309
4471, 35.4530134, -24.3309923, -4.18919469
4472, 35.6740241, -24.1986275, -4.18873121
4473, 35.594381, -24.0747453, -4.55051285
4474, 35.3940706, -24.1957571, -4.54927463
4475, 35.4333939, -24.0232909, -4.70628367
4476, 34.9022114, -23.9366797, -4.9257896
4477, 35.120415, -24.4396233, -4.37755067
4478, 34.9355751, -23.7365789, -4.97739638
4479, 34.7264116, -23.8119751, -4.98175632
4480, 34.8471538, -24.1322943, -4.84716334
4481, 35.0796889, -24.0500707, -4.83089793
4482, 35.0075004, -24.5512282, -4.20576556
4483, 35.2575071, -24.4372492, -4.1864887
4484, 35.1856163, -24.3014179, -4.55935256
4485, 34.9694004, -24.4236397, -4.53163614
4486, 35.0091475, -24.2492039, -4.70793378
4487, 34.5108333, -24.1029562, -4.9257561
4488, 34.6666297, -24.6293774, -4.37689464
4489, 34.5465176, -23.890039, -4.98184752
4490, 34.3595788, -23.9637449, -4.98058561
4491, 34.4484598, -24.3069009, -4.83573623
4492, 34.6631925, -24.2299775, -4.83579236
4493, 34.558816, -24.7265649, -4.1917635
4494, 34.7996178, -24.6405839, -4.19089759
4495, 34.7463705, -24.5045338, -4.54937751
4496, 34.5287984, -24.5836384, -4.54757453
4497, 34.5966248, -24.4222392, -4.70657063
4498, 34.0953055, -24.2312207, -4.92638549
4499, 34.2083358, -24.769851, -4.37622358
4500, 34.1686577, -24.0426765, -4.97737672
4501, 33.9551745, -24.0762797, -4.98134992
4502, 34.008785, -24.4354512, -4.83274034
4503, 34.2430784, -24.3555663, -4.84605127
4504, 34.0856329, -24.8542451, -4.20586955
4505, 34.3479918, -24.7916628, -4.19084241
4506, 34.3070124, -24.6598491, -4.53665766
4507, 34.063748, -24.7093035, -4.5537786
4508, 34.1670802, -24.5521921, -4.70884058
4509, 33.6720161, -24.3230434, -4.92462407
4510, 33.724221, -24.8652488, -4.38026425
4511, 33.7516615, -24.1205516, -4.98134261
4512, 33.5574225, -24.1531822, -4.98059514
4513, 33.5697181, -24.5098199, -4.83475228
4514, 33.8032369, -24.4789161, -4.8323032
4515, 33.607111, -24.9391419, -4.19507904
4516, 33.8529268, -24.9031628, -4.19265485
4517, 33.831512, -24.7563889, -4.55336474
4518, 33.5960032, -24.7948628, -4.54805822
4519, 33.6986023, -24.650716, -4.70530099
4520, 33.2401776, -24.3974459, -4.91210499
4521, 33.2400291, -24.9019184, -4.40613238
4522, 33.3411052, -24.183528, -4.97954018
4523, 33.1114082, -24.1933757, -4.97983387
4524, 33.1058145, -24.5091742, -4.8572157
4525, 33.3666358, -24.5042028, -4.85246153
4526, 33.1164228, -24.973308, -4.20360657
4527, 33.3707547, -24.9629478, -4.19307256
4528, 33.3738018, -24.8327835, -4.52463617
4529, 33.1122431, -24.8496409, -4.51808429
4530, 33.2283456, -24.6962741, -4.70636848
4531, 21.7050733, -24.7060666, -4.70814542
4532, 23.8740805, -24.6991436, -4.71498124
4533, 21.4694408, -24.939734, -4.34190656
4534, 30.8296694, -24.3602363, -4.93286108
4535, 30.7358848, -24.6945297, -4.71946401
4536, 28.4008149, -24.7077543, -4.70645867
4537, 26.2135367, -24.7097285, -4.70447536
4538, 15.9391741, -24.3720785, -4.15061561
4539, 19.0672982, -24.1583204, -4.15609755
4540, 16.1549225, -23.2821881, -3.98824295
4541, 19.3254428, -22.7452978, -4.41123994
4542, 16.5661477, -24.0882724, -3.76744096
4543, 18.8350548, -21.0480894, -3.98157771
4544, 16.3603222, -20.6480123, -3.86516169
4545, 19.5466876, -23.3895979, -4.70869458
4546, 19.5421454, -22.130764, -4.70152318
4547, 19.9078954, -20.4997068, -5.75825689
4548, 19.5616967, -20.5041409, -4.73279566
4549, 19.3323648, -21.2783926, -4.4192283
4550, 19.1351312, -20.2989905, -4.21597483
4551, 19.706406, -20.5077552, -6.99406863
4552, 19.1022277, -21.8914913, -4.18636653
4553, 19.3053749, -24.4409909, -4.38847226
4554, 19.4473617, -24.0733093, -4.56327378
4555, 19.2029916, -23.4444826, -4.28063398
4556, 18.3307939, -24.5594215, -3.72707645
4557, 18.9901016, -24.6010537, -4.09317087
4558, 16.4970553, -24.5441362, -3.79761447
4559, 17.023761, -24.5441362, -3.62732294
4560, 18.323598, -23.1820135, -3.72445913
4561, 17.023761, -23.1691362, -3.62732294
4562, 18.1930575, -20.3205731, -3.68136435
4563, 18.1934772, -21.653107, -3.68148984
4564, 16.9599584, -21.4533285, -3.64102668
4565, 16.9455274, -20.1193301, -3.64437691
4566, 15.9418036, -20.1158198, -4.14839964
4567, 15.816673, -22.3910941, -4.26137695
4568, 15.816673, -23.6410941, -4.26137695
4569, 16.4051787, -21.8686151, -3.8418141
4570, 16.79908, -22.7745867, -3.68372903
4571, 15.8940788, -21.0769069, -4.18963622
4572, 15.5697194, -20.5, -4.54040521
4573, 15.1275829, -20.5, -5.52246788
4574, 15.2067043, -20.5, -6.77278388
4575, 15.7222973, -24.1860393, -4.35799726
4576, 15.7419088, -24.35223, -4.3370161
4577, 16.0447819, -23.8271333, -4.06641779
4578, 15.800039, -24.4989711, -4.27763752
4579, 15.9632014, -24.6449437, -4.13060172
4580, 16.1743224, -24.6860393, -3.97540646
4581, 16.2380331, -24.2301755, -3.93509334
4582, 18.4821699, -22.5041, -3.78827165
4583, 16.3551993, -23.6852303, -3.86790448
4584, 19.0603722, -20.4454288, -7.84976721
4585, 16.8642261, -20.4930905, -8.33499285
4586, 17.9158696, -20.526049, -8.38399927
4587, 15.7454667, -20.4914799, -7.66673717
4588, 35.0635539, -20.4885432, -5.23277937
4589, 34.1461924, -20.9203497, -6.24940201
4590, 35.8383399, -20.3322402, -5.00654421
4591, 35.5140498, -20.9349596, -5.05993496
4592, 35.3625893, -19.8180775, -5.10429232
4593, 34.8130182, -21.0074444, -5.39031863
4594, 35.0772728, -20.0863966, -5.22557769
4595, 34.70502, -20.3223407, -5.47585211
4596, 34.2779051, -20.5578544, -5.98295074
4597, 34.0373379, -20.6727033, -6.61534773
4598, 34.5197943, -20.8186802, -5.65501266
4599, 34.3381338, -21.2025571, -5.88725535
4600, 34.036549, -21.21395, -6.61939481
4601, 35.3683603, -19.4183299, -7.36523764
4602, 37.2229663, -16.9168215, -7.25035059
4603, 37.9807389, -13.8920686, -8.19372064
4604, 37.9807389, -13.8920686, -6.81872064
4605, 37.9807042, -13.8927755, -5.5150938
4606, 37.90388, -14.6724298, -8.19372064
4607, 37.9035077, -14.6749396, -5.71371053
4608, 37.7507916, -15.4419424, -7.12803506
4609, 37.5232811, -16.1918679, -7.21090302
4610, 37.9880259, -20.2437387, -1.99770503
4611, 37.9879715, -20.2448455, -0.000264229888
4612, 37.9880317, -20.2436194, 1.99785958
4613, 37.9401247, -20.7314226, -1.99674126
4614, 37.9398545, -20.7332439, 0.000308787321
4615, 37.9398725, -20.7331229, 1.99690274
4616, 37.8439962, -21.2147063, -1.99926386
4617, 37.8441345, -21.2141545, 1.11771636e-05
4618, 37.8438498, -21.215291, 1.9986246
4619, 37.7020999, -21.68228, -1.99931349
4620, 37.7021502, -21.6821392, 0.000113179901
4621, 37.7020814, -21.6823317, 1.99965075
4622, 37.514502, -22.1352004, -2
4623, 37.5142739, -22.1356828, 0.000308090765
4624, 37.5140283, -22.136202, 1.99890346
4625, 37.2834772, -22.5674174, -2
4626, 37.2834772, -22.5674174, -1.33226763e-14
4627, 37.2834772, -22.5674174, 2
4628, 37.0108038, -22.9754433, -1.99781809
4629, 37.0108003, -22.975448, -0.000755010389
4630, 37.0108673, -22.9753576, 1.99986896
4631, 36.7002931, -23.3537502, -2
4632, 36.7002931, -23.3537502, -1.33226763e-14
4633, 36.6999052, -23.3541781, 1.99920763
4634, 36.3541252, -23.6999532, -1.99756415
4635, 36.3542501, -23.6998399, -5.0473805e-06
4636, 36.3534529, -23.7005625, 1.99909372
4637, 35.9757821, -24.0105524, -1.99689185
4638, 35.9750319, -24.0111088, -0.000213958465
4639, 35.9747553, -24.011314, 1.99841298
4640, 35.565977, -24.2843406, -1.99710844
4641, 35.566912, -24.2837801, 4.4171962e-05
4642, 35.5659069, -24.2843826, 1.99682243
4643, 35.1322115, -24.5159156, -1.99704943
4644, 35.1364571, -24.5139076, -3.43294153e-05
4645, 35.1335797, -24.5152686, 1.99708721
4646, 34.6847989, -24.7011986, -1.99663055
4647, 34.6815973, -24.7023441, 8.95796255e-05
4648, 34.6793258, -24.7031569, 1.99630558
4649, 34.2150371, -24.8439134, -1.9971166
4650, 34.2128712, -24.8444559, -0.00022343267
4651, 34.2123739, -24.8445805, 1.99882014
4652, 33.7333558, -24.9398379, -1.9977278
4653, 33.732905, -24.9399048, 7.8327496e-05
4654, 33.7306271, -24.9402427, 1.9978668
4655, 33.2444835, -24.9879893, -1.99810521
4656, 33.2449076, -24.9879685, -0.000308971439
4657, 33.2449409, -24.9879668, 1.99843666
4658, 15.3758019, -25, 2.49617937
4659, 14.3815682, -25, -1.10520757
4660, 15.8832829, -25, -3.02466493
4661, 14.4404157, -25, 1.05842625
4662, 17.6044581, -25, 2.38712255
4663, 14.9205894, -25, -2.09854183
4664, 16.3943116, -25, 2.98485906
4665, 18.5632346, -25, -2.50770403
4666, 17.1171008, -25, -2.21295552
4667, 17.9953994, -25, -1.18465373
4668, 16.7104863, -25, -0.977494753
4669, 17.4607638, -25, -0.0117742186
4670, 16.2170999, -25, 0.0280878161
4671, 16.1464904, -25, 2.04412191
4672, 19.8067773, -25, 0.546321177
4673, 15.6355112, -25, -0.748196812
4674, 15.1876072, -25, 1.65444328
4675, 27.776507, -25, 0.475824291
4676, 15.0607082, -25, 0.203729057
4677, 15.9803241, -25, -1.81043554
4678, 20.6214916, -25, -2.47632914
4679, 19.4678887, -25, -1.046468
4680, 16.7789437, -25, -3.0048198
4681, 16.8763673, -25, 1.0447703
4682, 18.4431695, -25, 1.07771632
4683, 20.0064149, -25, 2.29298646
4684, 30.3354104, -25, 1.43262516
4685, 29.6315439, -25, -1.2321774
4686, 14.7216477, -25, 2.1698971
4687, 15.5146549, -25, -2.58787366
4688, 18.6374604, -25, -0.126954594
4689, 16.3091954, -25, -3.25320345
4690, 14.4556004, -25, -1.67295292
4691, 15.0432098, -25, -1.32279617
4692, 14.855703, -25, -0.514814141
4693, 14.3505694, -25, -0.0582118445
4694, 14.4668872, -25, 1.72725633
4695, 26.7110845, -25, -2.25696126
4696, 16.2780952, -25, -2.59217928
4697, 15.6314293, -25, 0.824700163
4698, 15.833221, -25, 2.9136117
4699, 31.3131972, -25, -2.61422708
4700, 28.9865365, -25, -2.59769802
4701, 31.319793, -25, -0.618569545
4702, 18.7362354, -25, -3.2193001
4703, 18.0170554, -25, -3.00720744
4704, 22.0646563, -25, -3.18377196
4705, 19.7425834, -25, -3.20689065
4706, 19.5936304, -25, -2.47455234
4707, 17.1415979, -25, -3.27366315
4708, 16.5968296, -25, -3.4044687
4709, 17.8362888, -25, -2.34673047
4710, 17.3121753, -25, -2.89019388
4711, 16.9480425, -25, -2.6078859
4712, 16.3654135, -25, -3.53928554
4713, 16.1401566, -25, -3.47212566
4714, 16.5399855, -25, -3.1235685
4715, 31.6752687, -25, 2.71002468
4716, 31.6772579, -25, 0.725079
4717, 29.3309922, -25, 2.72323214
4718, 15.9272004, -25, -3.3578564
4719, 15.5818451, -25, -3.17326012
4720, 16.0962392, -25, -3.13893419
4721, 15.3975311, -25, -2.95486449
4722, 15.0948246, -25, -2.7064397
4723, 15.6989689, -25, -2.8062693
4724, 14.7977918, -25, -2.46177378
4725, 14.549367, -25, -2.1590673
4726, 15.2176221, -25, -2.34320775
4727, 14.3168725, -25, -1.94627284
4728, 14.1322763, -25, -1.6009175
4729, 14.6880949, -25, -1.88574737
4730, 14.0952602, -25, -1.31704483
4731, 14.0258213, -25, -1.08813556
4732, 14.4185843, -25, -1.38908024
4733, 14.0103219, -25, -0.564637698
4734, 14.0103219, -25, 0.506425853
4735, 14.3660688, -25, -0.581709708
4736, 14.055575, -25, 1.06536665
4737, 14.1242989, -25, 1.29389372
4738, 14.3943018, -25, 0.499994752
4739, 14.1381521, -25, 1.62842864
4740, 14.3225073, -25, 1.97362551
4741, 14.4529351, -25, 1.39255776
4742, 14.45015, -25, 2.19516305
4743, 14.6983324, -25, 2.49759509
4744, 14.594063, -25, 1.94849797
4745, 15.0266046, -25, 2.6625589
4746, 15.32863, -25, 2.90963925
4747, 15.0489258, -25, 2.33364428
4748, 15.5586584, -25, 3.12107278
4749, 15.902227, -25, 3.30135197
4750, 15.6043633, -25, 2.70527166
4751, 16.1857941, -25, 3.34669923
4752, 16.4084977, -25, 3.40098001
4753, 16.1142865, -25, 2.95604938
4754, 16.987117, -25, 3.02383769
4755, 18.3006601, -25, 3.09574644
4756, 16.9782968, -25, 2.65552919
4757, 19.421028, -25, 3.11768727
4758, 21.6941945, -25, 3.13039486
4759, 18.8240909, -25, 2.31664959
4760, 24.5841389, -25, 2.84299572
4761, 23.5358414, -25, 3.20419673
4762, 22.5057443, -25, 2.8669947
4763, 27.49059, -25, -3.07850512
4764, 25.1977965, -25, -3.12760386
4765, 23.001781, -25, -3.10189339
4766, 24.0621363, -25, -3.07708045
4767, 25.6721734, -25, -2.27214206
4768, 21.5207227, -25, -2.33998877
4769, 28.1728971, -25, -1.73480864
4770, 29.9933634, -25, 0.10394583
4771, 26.8469755, -25, 2.73024774
4772, 20.8041658, -25, 1.88657427
4773, 26.6592085, -25, 1.04333123
4774, 28.0500132, -25, 2.24299323
4775, 29.0583162, -25, 0.967822867
4776, 26.8462693, -25, -0.0420303344
4777, 26.3434158, -25, -1.3884257
4778, 27.2571754, -25, -0.882874825
4779, 20.788717, -25, -1.51767399
4780, 20.6273676, -25, 1.07351975
4781, 20.4169903, -25, -0.0183466419
4782, 19.6341196, -25, -0.259925775
4783, 20.298909, -25, -0.795949816
4784, 20.0160752, -25, -1.7519861
4785, 19.8833387, -25, 1.42744548
4786, 15.7603469, -25, 2.27281699
4787, 15.280095, -25, 2.07445651
4788, 15.6675373, -25, 1.85389573
4789, 15.9865687, -25, 2.47699401
4790, 14.954124, -25, 1.91270883
4791, 14.7494051, -25, -1.49787454
4792, 14.712389, -25, -1.21400187
4793, 14.9494564, -25, -0.918805156
4794, 14.6186356, -25, -0.810010856
4795, 14.6031362, -25, -0.286512993
4796, 16.0801711, -25, -2.80909913
4797, 15.8962094, -25, -2.59203787
4798, 16.2909652, -25, -2.92055772
4799, 14.8141241, -25, 1.35738928
4800, 14.827505, -25, 1.69210831
4801, 15.0358027, -25, 0.943571483
4802, 15.4113227, -25, 1.24001578
4803, 14.7497762, -25, 0.630856238
4804, 14.7055254, -25, 0.0736460855
4805, 15.345863, -25, 0.51487748
4806, 16.2682395, -25, 2.51405579
4807, 16.8627589, -25, 2.21382877
4808, 16.5088268, -25, 1.5369154
4809, 17.2335159, -25, 1.7205181
4810, 17.6611377, -25, 1.05326801
4811, 18.0295106, -25, 1.73910217
4812, 19.2117676, -25, 1.67052595
4813, 15.4509224, -25, -1.9549624
4814, 15.7463997, -25, -2.19893748
4815, 15.5101535, -25, -1.56898834
4816, 14.9818996, -25, -1.710669
4817, 18.2723229, -25, -1.84764973
4818, 17.5557985, -25, -1.69710374
4819, 19.0057908, -25, -1.7809145
4820, 18.7324474, -25, -1.11807791
4821, 17.3521992, -25, -1.08126104
4822, 16.9131373, -25, -1.59627029
4823, 16.3449728, -25, -1.39288268
4824, 16.5478893, -25, -2.01341814
4825, 16.1286802, -25, -2.20186339
4826, 16.6985452, -25, -2.40246966
4827, 16.5280847, -25, -2.79759378
4828, 17.7273065, -25, -0.59824193
4829, 17.0845956, -25, -0.493353772
4830, 18.3162627, -25, -0.657216778
4831, 18.0503331, -25, -0.0704356912
4832, 19.048889, -25, -0.587580987
4833, 16.8379037, -25, 0.00679874245
4834, 16.4638862, -25, -0.475499115
4835, 15.9256561, -25, -0.35893629
4836, 16.1718007, -25, -0.863531644
4837, 15.8075652, -25, -1.28020977
4838, 17.1688934, -25, 0.516732378
4839, 16.5443593, -25, 0.539209395
4840, 17.9495194, -25, 0.530500208
4841, 18.5425369, -25, 0.477626758
4842, 15.638268, -25, 0.115933346
4843, 15.3489577, -25, -0.272316758
4844, 15.9240648, -25, 0.42526839
4845, 16.2509286, -25, 0.935175361
4846, 15.8896339, -25, 1.43581391
4847, 19.2307601, -25, 0.202244289
4848, 19.1303576, -25, 0.810229192
4849, 14.957392, -25, -0.15525529
4850, 15.2453251, -25, -0.631905362
4851, 15.3394593, -25, -1.03562051
4852, 28.7156292, -25, -0.375047256
4853, 15.9780797, -24.9792367, -3.90500183
4854, 15.2816843, -24.4643356, -4.3267765
4855, 15.3939954, -24.8507781, -3.9784562
4856, 15.3939419, -24.2391032, -4.48353956
4857, 14.9886399, -24.2391032, -4.26690115
4858, 15.4230995, -24.3993942, -4.43765107
4859, 15.67766, -24.9619714, -3.843913
4860, 15.5280677, -24.7491986, -4.2052582
4861, 15.4746037, -24.547657, -4.37438295
4862, 15.325594, -24.6817662, -4.1755268
4863, 15.3323047, -24.9619714, -3.65931672
4864, 15.1381205, -24.7845899, -3.94882917
4865, 15.0795415, -24.5929718, -4.12752333
4866, 15.1274508, -22.75, -4.37398647
4867, 16.5539839, -19.5, -4.64557734
4868, 17.5, -19.5, -4.19
4869, 18.0380667, -19.5, -4.35654624
4870, 18.9035333, -19.5, -4.86828757
4871, 16.0647536, -19.5, -4.88763801
4872, 19.264389, -19.5, -6.39855963
4873, 19.1103365, -19.5, -5.38340138
4874, 18.2919978, -19.5, -7.62445227
4875, 18.9958933, -19.5, -6.87272254
4876, 16.7076647, -19.5, -7.63291438
4877, 17.7542838, -19.5, -7.71982225
4878, 15.7353805, -19.5, -6.40276289
4879, 16.3141193, -19.5, -7.28343594
4880, 15.8512383, -19.5, -5.89515645
4881, 14.3433075, -22.75, -3.84644098
4882, 13.653559, -22.75, -3.15669254
4883, 13.1274709, -22.745182, -2.37527571
4884, 13.9139125, -24.1719961, -0.171541048
4885, 13.454551, -24.2946382, -1.42693042
4886, 13.6123749, -22.7014915, 1.1807931
4887, 13.7990475, -23.1820582, -0.7555001
4888, 13.4171186, -24.0502688, 1.47683991
4889, 13.8477701, -21.3920331, -0.586835328
4890, 13.7957683, -20.9811192, 0.765407007
4891, 12.2500705, -20.5032028, 2.3008247
4892, 13.7970876, -23.6111596, 0.761438445
4893, 13.9167965, -22.3967946, 0.124477263
4894, 10.434139, -20.5394402, 2.17263443
4895, 9.11068586, -20.6359238, 0.384158765
4896, 13.8747106, -24.5859981, 0.465992963
4897, 13.8357053, -24.5859981, -0.633151487
4898, 13.5699744, -24.6473191, -1.25363713
4899, 13.4223019, -24.6062236, -1.47008692
4900, 13.7726348, -24.2333172, -0.831583439
4901, 13.4031929, -24.4840389, 1.49474302
4902, 13.5536432, -24.5251344, 1.2802147
4903, 13.7389397, -24.3055798, 0.918449226
4904, 13.9012483, -23.8915778, 0.300677152
4905, 13.637249, -23.8307142, 1.13515048
4906, 13.4158854, -23.5904556, -1.47843947
4907, 13.4203108, -22.3204038, -1.4726868
4908, 13.2237997, -24.3135099, -1.6985036
4909, 13.2035214, -24.1473191, -1.71884109
4910, 13.6531326, -23.7383482, -1.10472631
4911, 12.765359, -20.4932405, -2.06282978
4912, 13.4969258, -20.521979, -1.36699945
4913, 13.4742985, -21.4440226, -1.39948035
4914, 13.8543916, -20.4467399, -0.559678452
4915, 11.6541885, -20.4771562, -2.415083
4916, 13.8251556, -22.2841282, -0.670858798
4917, 11.8376997, -20.00861, 2.39632196
4918, 11.8434879, -20.9867659, 2.39549913
4919, 10.9584249, -21.0013632, 2.35862171
4920, 10.9465086, -20.0765886, 2.35585383
4921, 12.5976899, -20.9859983, 2.15672827
4922, 9.91639118, -20.9890124, 1.82991342
4923, 12.8749804, -20.0235788, 1.99143893
4924, 9.98590433, -20.0361679, 1.88783323
4925, 13.2813156, -22.0881026, 1.63808266
4926, 13.3042473, -23.3507457, 1.61279003
4927, 13.1708224, -20.5056406, 1.75064344
4928, 13.6209297, -20.2635237, 1.16535704
4929, 13.4138629, -21.2433109, 1.48105661
4930, 13.7147157, -21.8454814, 0.975414887
4931, 13.1812243, -24.0251344, 1.74065648
4932, 13.201763, -24.1913252, 1.72058206
4933, 13.5201771, -23.3758801, 1.33239805
4934, 13.259831, -24.3380663, 1.66114266
4935, 13.2810967, -24.460251, -1.63832065
4936, 13.9168061, -20.2336351, 0.124292001
4937, 13.9179137, -21.1835753, 0.100464599
4938, 10.5981723, -20.4884924, -2.24568625
4939, 9.16274296, -20.4966, -0.627399016
4940, 9.68043809, -20.4664516, -1.59549191
4941, 9.28915919, -20.0916963, 0.984166101
4942, 9.08182164, -20.0814596, -0.0938797353
4943, 9.08946922, -21.0675828, -0.213872301
4944, 9.59063481, -20.4966622, 1.48685055
4945, 9.27524093, -21.0405083, 0.952285196
4946, 13.8745, -23.6770272, -0.467065106
4947, 13.919998, -23.3966089, 0.00312671028
4948, 13.7146793, -23.1563255, 0.975497586
4949, 13.8758347, -21.6957498, 0.460227627
4950, 13.8229026, -22.5526246, 0.678618836
4951, 13.8755314, -22.9960827, 0.461790549
4952, 13.899315, -22.7824966, -0.315733673
4953, 13.9087834, -21.9013673, -0.232728747
4954, 13.1260135, -22.75, 2.37254921
4955, 13.653559, -22.75, 3.15669254
4956, 14.3433075, -22.75, 3.84644098
4957, 15.1274508, -22.75, 4.37398647
4958, 17.6963424, -24.0663696, 3.5879781
4959, 16.137254, -24.2484697, 4.00016917
4960, 18.0736357, -21.5358259, 3.64896999
4961, 16.7943412, -22.9755018, 3.68516833
4962, 19.0260635, -23.80855, 4.12182796
4963, 18.2162948, -22.7871165, 3.68843737
4964, 16.6291079, -21.5298546, 3.74213664
4965, 16.6007508, -20.5013601, 8.24672003
4966, 18.6598135, -20.6836027, 8.12396628
4967, 17.342749, -20.4784614, 3.58511447
4968, 18.3275784, -24.5255046, 3.72590371
4969, 17.0462171, -24.5331848, 3.62292594
4970, 16.2801218, -24.6242348, 3.90995286
4971, 16.0613039, -24.5831393, 4.05409315
4972, 16.8814536, -24.1574196, 3.66038458
4973, 19.2867046, -24.2643356, 4.36779702
4974, 18.970024, -24.4422841, 4.07765003
4975, 18.4193391, -23.927957, 3.76142552
4976, 16.0889474, -23.4877509, 4.03395564
4977, 16.0889474, -22.2377509, 4.03395564
4978, 15.8296958, -24.2904256, 4.24886214
4979, 15.8090319, -24.1242348, 4.26880771
4980, 16.4521603, -23.6046452, 3.81861697
4981, 15.2933252, -20.5, 5.00652813
4982, 15.9284257, -20.5149345, 4.15974071
4983, 16.0188714, -21.5149273, 4.08619275
4984, 16.5440008, -20.5070848, 3.77683435
4985, 15.0840163, -20.5, 5.86063489
4986, 16.7112101, -22.2526782, 3.7121603
4987, 17.0385404, -20.9931995, 8.37559573
4988, 17.0493364, -20.0140653, 8.37766741
4989, 18.0678009, -20.0740163, 8.35244598
4990, 18.049355, -21.1274025, 8.35682182
4991, 19.1573898, -21.0703653, 7.76336587
4992, 16.223213, -21.0006801, 8.05577599
4993, 19.0612812, -20.0975003, 7.84899998
4994, 16.0564184, -20.0006801, 7.94228533
4995, 19.4388207, -22.6509756, 4.55176862
4996, 19.421678, -23.9067279, 4.5290977
4997, 19.227561, -20.4803754, 4.30532218
4998, 19.7905887, -20.4967643, 5.21922899
4999, 19.8826393, -20.4980784, 6.42359165
5000, 18.3167887, -20.5203128, 3.72200608
5001, 19.0380367, -21.5102628, 4.13162021
5002, 18.1416307, -22.1649713, 3.66660974
5003, 19.091309, -22.1474721, 4.17677877
5004, 18.6405313, -23.2938077, 3.86561758
5005, 15.8908007, -24.4371667, 4.19254944
5006, 19.4618532, -20.5013668, 7.41687409
5007, 16.8792732, -20.0385997, 3.66096212
5008, 17.956406, -20.0471207, 3.62342819
5009, 17.7030885, -21.0289541, 3.58853674
5010, 16.9760126, -20.9999498, 3.63740879
5011, 15.2628056, -20.5, 6.92269243
5012, 15.7402183, -20.5, 7.66119482
5013, 17.2407467, -23.5209357, 3.59392691
5014, 17.9550702, -23.4292326, 3.62317205
5015, 17.443832, -22.8851017, 3.58065191
5016, 17.4000577, -22.2750973, 3.58206461
5017, 17.3366075, -21.5212792, 3.58552223
5018, 34.7535403, -23.1495277, 5
5019, 34.2676634, -23.4479074, 5
5020, 35.4820916, -22.6569503, 5
5021, 34.4254376, -22.3923951, 5
5022, 33.6634569, -23.1982137, 5
5023, 21.8418904, -22.7689953, 5
5024, 20.7620201, -23.3273546, 5
5025, 20.7578589, -22.1227484, 5
5026, 22.8073981, -22.1253842, 5
5027, 22.9764089, -23.3354079, 5
5028, 36.5943211, -19.2700468, 5
5029, 36.5014975, -19.3721626, 5
5030, 36.8260029, -18.9539725, 5
5031, 36.4879449, -19.5612239, 5
5032, 36.483803, -20.9137887, 5
5033, 36.166012, -21.8453268, 5
5034, 36.048136, -22.0005241, 5
5035, 35.7310826, -22.0827894, 5
5036, 35.7980045, -22.5768301, 5
5037, 36.2676559, -21.6630197, 5
5038, 36.355677, -21.4868134, 5
5039, 36.4184635, -21.3010085, 5
5040, 36.4520932, -21.1147683, 5
5041, 33.174238, -21.9459317, 5
5042, 35.2185813, -21.9445428, 5
5043, 34.9537696, -22.5332568, 5
5044, 33.552202, -23.5814873, 5
5045, 33.3323659, -23.5940398, 5
5046, 32.4643656, -22.7471818, 5
5047, 30.247747, -22.7481427, 5
5048, 32.7961335, -22.3503135, 5
5049, 33.7437233, -23.5513668, 5
5050, 34.2372853, -23.623309, 5
5051, 34.0423943, -23.6779279, 5
5052, 33.9639817, -23.3240547, 5
5053, 34.423025, -23.5589505, 5
5054, 34.8383436, -23.3154004, 5
5055, 34.6626571, -23.416143, 5
5056, 34.5127366, -23.2997163, 5
5057, 35.0108129, -23.2175871, 5
5058, 35.5236982, -22.8563182, 5
5059, 35.3654161, -22.9739709, 5
5060, 35.1107164, -22.9041922, 5
5061, 35.66774, -22.7227002, 5
5062, 25.9966424, -22.7462564, 5
5063, 23.9585847, -22.7445297, 5
5064, 28.2100863, -22.7443786, 5
5065, 34.0432017, -22.7988429, 5
5066, 34.2012912, -23.1747964, 5
5067, 34.5839795, -22.7777209, 5
5068, 34, -20.9591085, -8.25
5069, 34, -20.6886628, -8.875
5070, 34, -21.2295543, -8.875
5071, 34, -20.6886628, -7.625
5072, 34, -21.2298051, -7.62437653
5073, 34.7683492, -19.9116199, -7.62854265
5074, 34.2222809, -20.284987, -8.25
5075, 37.7291342, -17.6730267, 4.68437077
5076, 37.9122186, -18.8179566, 4.40970375
5077, 37.6539023, -18.8508673, 4.75657901
5078, 37.8966858, -17.2174464, 4.44266756
5079, 37.2504263, -18.8646545, 4.96813567
5080, 37.2532775, -17.5128405, 4.96739368
5081, 37.2762436, -17.4713709, 4.96108766
5082, 37.9809164, -15.4896014, 4.19442989
5083, 37.9266358, -15.859682, 4.37596025
5084, 37.8544699, -16.3011731, 4.51950086
5085, 37.9114242, -16.7215907, 4.41146794
5086, 37.5385933, -17.1107416, 4.84256587
5087, 37.3895129, -20.2241395, 4.91597021
5088, 37.9032894, -20.2670041, 4.40001832
5089, 37.9752403, -20.1603768, 4.18285766
5090, 37.962026, -20.3948421, 4.19174005
5091, 37.8197903, -20.360653, 4.54612492
5092, 37.8217368, -20.0982099, 4.56253937
5093, 37.176696, -20.2929337, 4.98138294
5094, 37.1785505, -20.1147737, 4.9827062
5095, 37.5280059, -20.33435, 4.83844891
5096, 37.5543696, -20.0728568, 4.82951714
5097, 37.6932539, -20.2241205, 4.70958439
5098, 37.3262946, -20.6088163, 4.92709613
5099, 37.8696048, -20.7136055, 4.37350269
5100, 37.9421525, -20.596811, 4.1875543
5101, 37.9040242, -20.851586, 4.18928679
5102, 37.7971068, -20.5852477, 4.54707775
5103, 37.7634299, -20.8143812, 4.54660556
5104, 37.1337231, -20.6724016, 4.98106747
5105, 37.1570768, -20.469565, 4.98235898
5106, 37.4809442, -20.7582575, 4.83534442
5107, 37.5132462, -20.5329481, 4.83607208
5108, 37.6535695, -20.6751567, 4.70592112
5109, 37.2437772, -21.0421208, 4.92668705
5110, 37.7730894, -21.1858887, 4.38186988
5111, 37.8589986, -21.0739135, 4.19730142
5112, 37.7970963, -21.3232151, 4.19465855
5113, 37.7238795, -21.0432066, 4.53977077
5114, 37.656112, -21.2731026, 4.55487227
5115, 37.0392809, -21.0812056, 4.98236696
5116, 37.1095749, -20.8787706, 4.97855986
5117, 37.3874578, -21.2108149, 4.83104988
5118, 37.4226575, -20.9609253, 4.84823221
5119, 37.562096, -21.1157358, 4.7116836
5120, 37.1270229, -21.4539923, 4.9243144
5121, 37.6338683, -21.6480229, 4.38186988
5122, 37.728948, -21.5535617, 4.18932331
5123, 37.6442992, -21.7870411, 4.19465855
5124, 37.5853706, -21.5044315, 4.55749701
5125, 37.5089056, -21.723351, 4.55487227
5126, 36.9258804, -21.4759264, 4.97986997
5127, 36.9874771, -21.2861273, 4.98106251
5128, 37.2475142, -21.6255105, 4.8332725
5129, 37.3292026, -21.4050213, 4.83151975
5130, 37.4294767, -21.5715197, 4.70821255
5131, 36.970208, -21.8427223, 4.92378419
5132, 37.4500205, -22.0942857, 4.38186988
5133, 37.5516706, -22.0118737, 4.19465855
5134, 37.446775, -22.2336569, 4.19465855
5135, 37.4168343, -21.9481008, 4.55520416
5136, 37.3182761, -22.1570027, 4.55487227
5137, 36.7643945, -21.8443869, 4.98028836
5138, 36.8519608, -21.6627305, 4.97998671
5139, 37.0505902, -22.038482, 4.84212894
5140, 37.1745182, -21.8178719, 4.83052398
5141, 37.2561854, -21.997147, 4.70675428
5142, 36.770472, -22.2229975, 4.92378419
5143, 37.2233165, -22.5203795, 4.38186988
5144, 37.332555, -22.4483277, 4.19465855
5145, 37.2064259, -22.6587614, 4.19465855
5146, 37.2046188, -22.3716457, 4.55520416
5147, 37.0860592, -22.5698812, 4.55487227
5148, 36.5586929, -22.2078267, 4.98110713
5149, 36.6647762, -22.0289767, 4.98129528
5150, 36.8552507, -22.4185612, 4.83106824
5151, 36.9735742, -22.2201842, 4.83140042
5152, 37.0399361, -22.4047093, 4.70675428
5153, 36.5344243, -22.5818641, 4.92378419
5154, 36.9559397, -22.9222005, 4.38186988
5155, 37.0717145, -22.861203, 4.19465855
5156, 36.9255666, -23.0582606, 4.19465855
5157, 36.9519105, -22.7723503, 4.55520416
5158, 36.8131788, -22.9776524, 4.53856785
5159, 36.3399041, -22.5698521, 4.97560845
5160, 36.4558859, -22.3697907, 4.98110047
5161, 36.5996261, -22.7847958, 4.83106824
5162, 36.7368242, -22.5989718, 4.83140042
5163, 36.7847799, -22.7891129, 4.70675428
5164, 36.2643381, -22.9158658, 4.92378419
5165, 36.650465, -23.2958792, 4.38186988
5166, 36.7716611, -23.2465233, 4.19465855
5167, 36.6069019, -23.428307, 4.19465855
5168, 36.6611431, -23.1463556, 4.55520416
5169, 36.5061877, -23.3176522, 4.55487227
5170, 36.0574276, -22.8578309, 4.98166214
5171, 36.1970024, -22.7106588, 4.98076098
5172, 36.3093352, -23.1242113, 4.83106824
5173, 36.4640866, -22.9527298, 4.83140042
5174, 36.4931743, -23.1466559, 4.70675428
5175, 35.995681, -23.1936074, 4.92328893
5176, 36.3098344, -23.6378168, 4.38186988
5177, 36.4352846, -23.6005778, 4.19465855
5178, 36.2535009, -23.765337, 4.19465855
5179, 36.3351169, -23.4900598, 4.55520416
5180, 36.1641177, -23.6453433, 4.55487227
5181, 35.7865919, -23.1287535, 4.9806764
5182, 35.937027, -22.994313, 4.98039362
5183, 36.0028634, -23.4244343, 4.82851897
5184, 36.1736694, -23.2633586, 4.83163805
5185, 36.1688964, -23.4747095, 4.70549651
5186, 35.5927509, -23.5217154, 4.92531844
5187, 35.902392, -23.9724715, 4.37827161
5188, 36.0520547, -23.9317878, 4.18798915
5189, 35.8429758, -24.0851861, 4.19484709
5190, 35.9551683, -23.8114038, 4.56107848
5191, 35.7740047, -23.9591078, 4.54493141
5192, 35.426321, -23.4165214, 4.98069251
5193, 35.5867708, -23.2913105, 4.98167444
5194, 35.6094127, -23.7162511, 4.83819615
5195, 35.8040329, -23.5895262, 4.82881843
5196, 35.8019711, -23.772867, 4.70865996
5197, 35.276231, -23.7330319, 4.92573717
5198, 35.5374297, -24.2160352, 4.37571254
5199, 35.6724278, -24.1995675, 4.18880588
5200, 35.4514927, -24.3319156, 4.18914197
5201, 35.5931723, -24.0757743, 4.55011646
5202, 35.3925672, -24.1967044, 4.54921446
5203, 35.1025069, -23.6237337, 4.9807819
5204, 35.2733726, -23.5144014, 4.98194388
5205, 35.2588214, -23.944674, 4.83467108
5206, 35.4561049, -23.8274155, 4.8341109
5207, 35.433913, -24.0232809, 4.7060247
5208, 34.8894013, -23.9424169, 4.92590822
5209, 35.1152626, -24.4427665, 4.37598096
5210, 35.2554349, -24.4383336, 4.18599111
5211, 35.0047946, -24.5528991, 4.20407679
5212, 35.1834064, -24.3028, 4.55890092
5213, 34.9672293, -24.425004, 4.53114988
5214, 34.7210094, -23.8137277, 4.98189653
5215, 34.9310143, -23.7401278, 4.97712338
5216, 34.8423651, -24.1358299, 4.84644181
5217, 35.0739546, -24.0520753, 4.8313259
5218, 35.0096854, -24.2492187, 4.70769096
5219, 34.5031954, -24.1057308, 4.92574005
5220, 34.6641931, -24.6307926, 4.37563471
5221, 34.7991274, -24.6410538, 4.1894666
5222, 34.5579207, -24.727149, 4.19048827
5223, 34.7454939, -24.5054977, 4.54844515
5224, 34.5272587, -24.5844226, 4.54723871
5225, 34.3559057, -23.9652585, 4.98054806
5226, 34.5429203, -23.8912469, 4.98186194
5227, 34.4447329, -24.308569, 4.83552911
5228, 34.6592017, -24.2310849, 4.8359906
5229, 34.5971642, -24.4222108, 4.70641545
5230, 34.0815985, -24.2343494, 4.9265056
5231, 34.2030575, -24.7713471, 4.37580779
5232, 34.345607, -24.7922461, 4.1909127
5233, 34.0834078, -24.8549245, 4.20530599
5234, 34.3049725, -24.6609616, 4.53573901
5235, 34.0614593, -24.7099611, 4.55365565
5236, 33.9490938, -24.077396, 4.98142715
5237, 34.1634023, -24.0451306, 4.97713725
5238, 34.0028531, -24.4374311, 4.83242147
5239, 34.2370701, -24.3558962, 4.84676844
5240, 34.1675486, -24.5519567, 4.70895454
5241, 33.6631302, -24.3242764, 4.92465876
5242, 33.7205993, -24.8659468, 4.37987731
5243, 33.851201, -24.9034368, 4.19256427
5244, 33.6055136, -24.9393836, 4.19505513
5245, 33.8296481, -24.7568213, 4.55313247
5246, 33.5942865, -24.7951587, 4.54799592
5247, 33.5529643, -24.1537928, 4.98060515
5248, 33.7472982, -24.1210348, 4.98137439
5249, 33.5653536, -24.5105139, 4.83472192
5250, 33.7990072, -24.479621, 4.83225212
5251, 33.698838, -24.650543, 4.70543814
5252, 33.2369313, -24.3966266, 4.91254376
5253, 33.2406264, -24.9022775, 4.40525833
5254, 33.3706774, -24.9629761, 4.19294788
5255, 33.1159123, -24.9734874, 4.20286416
5256, 33.3740057, -24.8328558, 4.52450278
5257, 33.1132118, -24.8495068, 4.518227
5258, 33.1105058, -24.1930795, 4.97990318
5259, 33.3392417, -24.18223, 4.97982429
5260, 33.1028584, -24.5077992, 4.85812603
5261, 33.3650825, -24.5036697, 4.85283451
5262, 33.2277737, -24.6963083, 4.70636239
5263, 28.4234557, -24.5947209, 4.80393225
5264, 30.753134, -24.7018198, 4.7123545
5265, 30.8262051, -24.3670429, 4.930204
5266, 21.4729242, -24.9389273, 4.34411562
5267, 21.7031477, -24.7039731, 4.71022667
5268, 23.8348654, -24.7065144, 4.70769863
5269, 26.1791169, -24.5781159, 4.81595464
5270, 15.9780797, -24.9792367, 3.90500183
5271, 15.2824317, -24.4483531, 4.33647064
5272, 15.3934786, -24.8488847, 3.98164166
5273, 15.6773069, -24.9614792, 3.84568298
5274, 15.3319515, -24.9614792, 3.66108671
5275, 15.1363474, -24.7977131, 3.92863039
5276, 15.527895, -24.7480077, 4.20669057
5277, 14.9899518, -24.230373, 4.26999287
5278, 15.3952538, -24.230373, 4.48663128
5279, 15.0793521, -24.5857162, 4.13342377
5280, 15.4237318, -24.3911445, 4.44201431
5281, 15.4746067, -24.5401205, 4.37992335
5282, 15.3249173, -24.6738424, 4.18344816
5283, 14.4173491, -24.4750149, 3.7519394
5284, 14.7078793, -24.90884, 3.39163056
5285, 14.9910206, -24.9769442, 3.36054792
5286, 14.6883141, -24.9769442, 3.11212313
5287, 14.4348784, -24.8212223, 3.36611159
5288, 14.7913553, -24.8212223, 3.65866469
5289, 14.1721668, -24.2449717, 3.66657243
5290, 14.5510081, -24.2449717, 3.9774795
5291, 14.2898688, -24.5978312, 3.5459546
5292, 14.6463458, -24.5978312, 3.83850769
5293, 14.5402124, -24.7296007, 3.5990816
5294, 13.7480606, -24.4750149, 3.08265091
5295, 14.1083694, -24.90884, 2.79212067
5296, 14.3878769, -24.9769442, 2.81168587
5297, 14.1394521, -24.9769442, 2.50897939
5298, 13.8413353, -24.8212223, 2.70864466
5299, 14.1338884, -24.8212223, 3.06512164
5300, 13.5225205, -24.2449717, 2.94899188
5301, 13.8334276, -24.2449717, 3.32783325
5302, 13.6614923, -24.5978312, 2.85365422
5303, 13.9540454, -24.5978312, 3.21013119
5304, 13.9009184, -24.7296007, 2.95978755
5305, 13.1732235, -24.4643356, 2.21831567
5306, 13.5215438, -24.8507781, 2.10600456
5307, 13.8406833, -24.9619714, 2.1676953
5308, 13.656087, -24.9619714, 1.82233996
5309, 13.2947418, -24.7491986, 1.97193226
5310, 13.5511708, -24.7845899, 2.36187947
5311, 13.0164604, -24.2391032, 2.10605812
5312, 13.2330989, -24.2391032, 2.51136007
5313, 13.0623489, -24.3993942, 2.07690047
5314, 13.1256171, -24.547657, 2.02539634
5315, 13.3244732, -24.6817662, 2.17440601
5316, 13.3724767, -24.5929718, 2.4204585
5317, 13.5949982, -24.9792367, 1.5219203
5318, 13.5949982, -24.9792367, -1.52192031
5319, 13.1635294, -24.4483531, -2.21756834
5320, 13.5183583, -24.8488847, -2.10652143
5321, 13.654317, -24.9614792, -1.82269314
5322, 13.8389133, -24.9614792, -2.16804848
5323, 13.5496823, -24.783475, -2.36208219
5324, 13.2933094, -24.7480077, -1.97210498
5325, 13.2300071, -24.230373, -2.51004815
5326, 13.0133687, -24.230373, -2.1047462
5327, 13.3665762, -24.5857162, -2.42064788
5328, 13.0579857, -24.3911445, -2.07626819
5329, 13.1200766, -24.5401205, -2.02539327
5330, 13.3165518, -24.6738424, -2.17508268
5331, 13.7468442, -24.4750149, -3.08116876
5332, 14.0998548, -24.90884, -2.78174561
5333, 14.1351948, -24.9769442, -2.50379185
5334, 14.3836196, -24.9769442, -2.80649834
5335, 14.1296311, -24.8212223, -3.05993411
5336, 13.837078, -24.8212223, -2.70345713
5337, 13.8328194, -24.2449717, -3.32709217
5338, 13.5219123, -24.2449717, -2.9482508
5339, 13.9534372, -24.5978312, -3.20939012
5340, 13.6608841, -24.5978312, -2.85291314
5341, 13.8960529, -24.7296007, -2.95385894
5342, 14.4173491, -24.4750149, -3.7519394
5343, 14.7078793, -24.90884, -3.39163056
5344, 14.6883141, -24.9769442, -3.11212313
5345, 14.9910206, -24.9769442, -3.36054792
5346, 14.7913553, -24.8212223, -3.65866469
5347, 14.4348784, -24.8212223, -3.36611159
5348, 14.5510081, -24.2449717, -3.9774795
5349, 14.1721668, -24.2449717, -3.66657243
5350, 14.6463458, -24.5978312, -3.83850769
5351, 14.2898688, -24.5978312, -3.5459546
5352, 14.5402124, -24.7296007, -3.5990816
5353, 23.51898, -23.1947067, -2.41992557
5354, 21.0988278, -21.3196526, 0.301284119
5355, 25.8770199, -23.0801174, 0.454066641
5356, 25.3975168, -21.2948173, -1.50194207
5357, 25.3790824, -23.4112591, -1.52494235
5358, 23.2421715, -21.0574317, -2.40622618
5359, 21.6099772, -22.2247679, -1.51136156
5360, 21.0860178, -23.3482944, 0.170557861
5361, 25.8858388, -21.109796, 0.405182961
5362, 21.6088806, -23.8129504, -1.50998925
5363, 25.015601, -23.3166614, 1.88662489
5364, 21.9802568, -21.1487026, 1.88328987
5365, 25.1849864, -21.4815764, 1.73701488
5366, 21.7375955, -22.9745564, 1.65841197
5367, 21.5874896, -20.6411703, -1.4828027
5368, 24.2833786, -24.1676345, 2.28969823
5369, 25.2195419, -24.1561072, 1.70281405
5370, 21.6672005, -23.9774097, 1.58026768
5371, 22.5929721, -24.004621, 2.24359098
5372, 24.2634018, -22.7863797, 2.29643586
5373, 22.5737912, -22.616609, 2.23574089
5374, 22.7326863, -21.7118574, 2.29513173
5375, 22.7230269, -20.324626, 2.29187974
5376, 24.390729, -20.4887379, 2.2501115
5377, 24.3679483, -21.8728294, 2.25899661
5378, 25.2935204, -20.4918167, 1.6247106
5379, 21.7884338, -20.3229287, 1.71083058
5380, 25.6910732, -24.0218594, 1.02742305
5381, 25.9193493, -24.0362615, -0.0561157891
5382, 25.6056326, -23.2113736, 1.19277465
5383, 25.6814869, -24.2204197, -1.04762355
5384, 24.9810904, -24.2224273, -1.91383679
5385, 25.8643983, -23.2765927, -0.515771915
5386, 24.0588426, -24.0864091, -2.35459019
5387, 22.9681485, -24.0802191, -2.36083333
5388, 24.4737793, -23.3090277, -2.21543536
5389, 22.0053481, -24.3986274, -1.90326445
5390, 21.3136381, -24.4005056, -1.03741096
5391, 22.4661108, -23.4972963, -2.18802951
5392, 21.0876352, -24.1758916, -0.192083322
5393, 21.2510966, -24.1696977, 0.893774781
5394, 21.183282, -23.5816028, -0.699441022
5395, 21.2853695, -23.1698321, 0.975608303
5396, 25.1060764, -22.4059429, 1.81022608
5397, 21.8609984, -22.0646463, 1.78047008
5398, 25.9186927, -20.2718352, -0.0795341012
5399, 25.7077132, -20.3104538, 0.99116213
5400, 25.6488654, -21.2807798, 1.11300387
5401, 24.9989901, -20.3803705, -1.89984966
5402, 25.6903435, -20.4292122, -1.02897772
5403, 25.8510134, -21.1556237, -0.57370383
5404, 22.8186321, -20.2911903, -2.32209772
5405, 23.9032124, -20.3100566, -2.38617262
5406, 24.3889996, -21.1860434, -2.25079534
5407, 21.3188799, -20.1028834, -1.04838696
5408, 21.9918108, -20.098889, -1.89255522
5409, 22.3271599, -20.8737884, -2.11680093
5410, 21.2691056, -20.4150173, 0.937821973
5411, 21.0827551, -20.4042899, -0.115442448
5412, 21.1680289, -20.9800566, -0.646769609
5413, 21.3962122, -21.2347604, 1.19602552
5414, 24.5166176, -22.2648331, -2.1961076
5415, 25.3816617, -22.3574687, -1.52175855
5416, 23.3692512, -22.1334486, -2.41646534
5417, 22.3483038, -21.6417754, -2.1283787
5418, 22.4686935, -22.7150155, -2.18924801
5419, 21.6120577, -23.0184108, -1.51395963
5420, 21.1682182, -21.7733313, -0.647451722
5421, 21.0922272, -22.3344696, 0.242960769
5422, 21.1842321, -22.7887515, -0.702580394
5423, 21.6043531, -21.4385845, -1.50430138
5424, 21.3124321, -22.1487384, 1.03486562
5425, 25.8657489, -22.2242076, -0.509541106
5426, 25.8831369, -22.0912497, 0.420783125
5427, 25.6342601, -22.2970943, 1.14076028
5428, 18.4382696, -18.5944859, -6.74809767
5429, 18.0214568, -18.0157812, -4.91922122
5430, 16.5618553, -18.630005, -6.74825431
5431, 17.5038922, -17.4216038, -7.19999369
5432, 16.3300865, -17.4439461, -5.73297488
5433, 18.6285732, -17.47301, -5.59217339
5434, 17.5057392, -18.6089603, -7.19998628
5435, 16.3300865, -18.6060539, -5.73297488
5436, 18.6453592, -18.5597599, -5.64201621
5437, 16.5617491, -17.419995, -6.74812121
5438, 18.3709438, -17.411845, -6.82550402
5439, 18.2492141, -18.9037881, -5.0626216
5440, 18.2507413, -17.1431477, -5.06384433
5441, 18.6506372, -18.0073819, -6.34063785
5442, 16.9793395, -18.0372821, -7.08116264
5443, 16.3519849, -18.0178626, -6.34937267
5444, 16.6676301, -18.025, -5.1356156
5445, 18.028917, -18.0511525, -7.07714755
5446, 17.7595256, -17.2943823, -4.82840003
5447, 17.7642353, -18.7623039, -4.82945324
5448, 17.051258, -18.7625, -4.88706216
5449, 17.051258, -17.2875, -4.88706216
5450, 17.8715058, -19.2095603, -4.85895512
5451, 18.3600069, -19.1961007, -5.16310803
5452, 16.608906, -18.7529727, -5.19628894
5453, 18.1359675, -18.4506283, -4.98238255
5454, 18.364863, -16.8431054, -5.1681274
5455, 17.9025901, -16.8571184, -4.86954822
5456, 16.6128118, -17.2875, -5.1919795
5457, 18.1389994, -17.5831985, -4.98428361
5458, 18.5669611, -19.0286811, -5.45082419
5459, 18.6991118, -19.0242378, -5.95383873
5460, 18.4867225, -18.7498105, -5.31708078
5461, 18.5795636, -19.0510186, -6.52396795
5462, 18.2540877, -19.0445272, -6.93346226
5463, 18.6804682, -18.5985625, -6.21562649
5464, 17.7573425, -19.0721773, -7.17208142
5465, 17.2454749, -19.0652235, -7.17269646
5466, 17.9800167, -18.6472871, -7.09981087
5467, 16.7512151, -19.0593916, -6.93772128
5468, 16.4188558, -19.0650025, -6.52069883
5469, 17.0146604, -18.6361601, -7.09747229
5470, 16.3, -19.0530269, -6
5471, 16.4188374, -19.0530269, -5.47933951
5472, 16.330096, -18.6180294, -6.26706662
5473, 16.455254, -18.3155269, -5.4096562
5474, 18.6983175, -16.9496376, -5.93647724
5475, 18.5576677, -17.0199162, -5.43313221
5476, 18.4961135, -17.2879919, -5.33085284
5477, 18.2636417, -16.9788519, -6.92566264
5478, 18.5692656, -16.9270741, -6.54467521
5479, 18.6830802, -17.4062748, -6.20080141
5480, 17.2106633, -17.0219393, -7.16459619
5481, 17.811033, -17.0235588, -7.15899028
5482, 17.9459692, -17.3546743, -7.11405181
5483, 16.4188189, -16.9849975, -6.52062214
5484, 16.751779, -16.9849975, -6.93817124
5485, 17.0686393, -17.3781815, -7.11978923
5486, 16.4188374, -16.9969731, -5.47933951
5487, 16.3, -16.9969731, -6
5488, 16.330077, -17.4319706, -6.26698363
5489, 16.455254, -17.7344731, -5.4096562
5490, 18.2567243, -18.318263, -6.93132612
5491, 17.7774527, -18.3577042, -7.16748447
5492, 18.6996656, -18.3105281, -5.97167378
5493, 18.5698747, -18.2831733, -6.54347787
5494, 18.4579145, -18.0131781, -6.7227723
5495, 18.44435, -17.7330192, -5.2595926
5496, 18.6457935, -18.021155, -5.64340882
5497, 18.4424637, -18.3235194, -5.25719304
5498, 17.2095789, -18.3492963, -7.16432624
5499, 16.7321128, -18.3201914, -6.92214382
5500, 16.4380243, -18.3239338, -6.55875544
5501, 16.3007566, -18.3119582, -6.04260474
5502, 16.5505884, -18.0277956, -6.73390573
5503, 16.751779, -17.7286386, -6.93817124
5504, 17.2437027, -17.7375302, -7.17231041
5505, 17.7583134, -17.7273658, -7.17186782
5506, 18.2670982, -17.7422958, -6.92280032
5507, 17.5005729, -18.0738498, -7.19999986
5508, 16.3300865, -18.025, -5.73297488
5509, 16.3001015, -17.7350118, -6.01560805
5510, 16.4379847, -17.7189288, -6.55868011
5511, 18.6984449, -17.8285857, -5.93892774
5512, 18.5624751, -17.7006947, -6.55780528
5513, 10.507682, -19.5, 1.44173338
5514, 11.4757143, -19.5, 1.81820415
5515, 12.0238259, -19.5, 1.6426039
5516, 12.902765, -19.5, 1.13271189
5517, 10.0718445, -19.5, 1.1385992
5518, 13.1095604, -19.5, 0.617294637
5519, 13.2696855, -19.5, -0.393166779
5520, 12.2979108, -19.5, -1.62068027
5521, 12.9891346, -19.5, -0.872959356
5522, 11.7436226, -19.5, -1.70607543
5523, 10.7284061, -19.5, -1.63044629
5524, 10.314564, -19.5, -1.25847938
5525, 9.73476309, -19.5, -0.404859961
5526, 9.77141885, -19.5, 0.135829385
5527, 16.516227, -19.5, 7.44486165
5528, 17.4840408, -19.5, 7.80657065
5529, 18.0275635, -19.5, 7.63064048
5530, 18.9157628, -19.5, 7.12048854
5531, 16.0650246, -19.5, 7.12339025
5532, 19.2963299, -19.5, 5.59166523
5533, 19.1192183, -19.5, 6.6259716
5534, 18.2919772, -19.5, 4.38098198
5535, 18.9901015, -19.5, 5.12526678
5536, 16.7140679, -19.5, 4.36513885
5537, 17.7454252, -19.5, 4.29104923
5538, 15.7353805, -19.5, 5.59723711
5539, 16.3124114, -19.5, 4.72330843
5540, 15.8512383, -19.5, 6.10484355
5541, 36.092135, -18.676596, 7.24992888
5542, 35.8281745, -18.9678315, 7.25105505
5543, 36.4177433, -18.2600927, 7.25000928
5544, 36.8259289, -17.6539735, 7.24999412
5545, 37.0276989, -17.3173406, 7.25010228
5546, 35.0715933, -20.4948938, 5.22854271
5547, 34.1492384, -20.9090032, 6.24192256
5548, 35.8380792, -20.3555652, 5.00656536
5549, 35.403189, -19.7855244, 5.09112162
5550, 35.6860695, -20.940511, 5.02479175
5551, 34.8261876, -21.0010303, 5.38069012
5552, 35.0969024, -20.086337, 5.21550714
5553, 34.0356625, -21.2027765, 6.62399714
5554, 34.03563, -20.6762017, 6.62416693
5555, 34.3374, -21.2056704, 5.88835202
5556, 34.2820955, -20.5638981, 5.97588865
5557, 34.7058662, -20.3184758, 5.47513353
5558, 34.5212705, -20.8212565, 5.65338978
5559, 34, -20.9591085, 8.25
5560, 34, -20.6886628, 7.625
5561, 34, -21.2297205, 7.62442611
5562, 34, -21.2291783, 8.87504144
5563, 34, -20.6886628, 8.875
5564, 37.9807152, -13.892551, 5.51342656
5565, 37.9807389, -13.8920686, 6.81872064
5566, 37.9807459, -13.8919263, 8.1939474
5567, 37.9035081, -14.6749375, 5.70968401
5568, 37.90388, -14.6724298, 8.19372064
5569, 37.7510931, -15.440739, 7.12816759
5570, 37.5231362, -16.1922728, 7.2120359
5571, 37.2229896, -16.9167724, 7.25051334
5572, 22.5258856, -19.5, 1.43637571
5573, 23.5027616, -19.5, 1.8216653
5574, 24.0436756, -19.5, 1.64185812
5575, 24.9256201, -19.5, 1.12637651
5576, 22.091879, -19.5, 1.11994586
5577, 25.106975, -19.5, 0.618700713
5578, 25.2709146, -19.5, -0.411411106
5579, 24.3024427, -19.5, -1.6144907
5580, 25.0256363, -19.5, -0.850531731
5581, 22.7248437, -19.5, -1.62243284
5582, 23.7499029, -19.5, -1.70623768
5583, 21.7394381, -19.5, -0.412827159
5584, 22.320549, -19.5, -1.25936496
5585, 21.7660867, -19.5, 0.135976377
5586, 12.0761989, -16.55, 1.96857433
5587, 22.7742621, -16.55, 2.03465494
5588, 13.9367843, -16.55, -2.97371249
5589, 21.063154, -16.55, -2.96963775
5590, 19.2232954, -16.55, 4.95410701
5591, 15.776944, -16.55, 4.95162827
5592, 11.397885, -16.55, -2.05068749
5593, 23.6111334, -16.55, -2.0567948
5594, 13.3454017, -16.55, 0.589813232
5595, 21.5947162, -16.55, 0.453650114
5596, 12.9822424, -16.55, -1.31684682
5597, 22.0388504, -16.55, -1.35500361
5598, 19.8192282, -16.55, -4.56915046
5599, 15.1788808, -16.55, -4.56404524
5600, 15.1176714, -16.55, 5.79050399
5601, 14.2678736, -16.55, 4.34955849
5602, 19.882006, -16.55, 5.79119224
5603, 20.6559873, -16.55, 4.25030001
5604, 18.0861126, -16.55, -4.12707128
5605, 16.5374353, -16.55, -4.25603533
5606, 23.7000579, -16.55, 2.04149792
5607, 22.6508216, -16.55, 3.48142521
5608, 18.6798807, -16.55, 3.88027461
5609, 16.5955865, -16.55, 4.00854635
5610, 13.3561651, -16.55, 2.54472341
5611, 12.3482678, -16.55, 3.66171841
5612, 21.3108146, -16.55, -4.75641664
5613, 20.4057643, -16.55, -6.04681008
5614, 13.689397, -16.55, -4.75583002
5615, 14.5942655, -16.55, -6.0463708
5616, 21.60515, -16.55, 2.13361284
5617, 12.3396935, -16.55, -3.42936598
5618, 22.6764476, -16.55, -3.44964422
5619, 19.3777363, -16.55, -5.56932673
5620, 15.6193752, -16.55, -5.55474967
5621, 17.4977806, -16.55, 7.63087145
5622, 18.0557674, -16.55, 7.42321457
5623, 16.9630449, -16.55, 7.42474922
5624, 20.3589756, -16.55, 6.87564085
5625, 14.6271924, -16.55, 6.91346127
5626, 17.8017423, -16.55, -4.45589477
5627, 18.3276336, -16.55, -4.64545624
5628, 16.5053989, -16.55, -4.73964003
5629, 17.0216748, -16.55, -4.51180181
5630, 17.3009819, -16.55, -4.21107188
5631, 10.5772495, -16.55, 1.83241793
5632, 10.1123639, -16.55, 1.52141863
5633, 10.9488881, -16.55, 2.22509487
5634, 11.7811899, -16.55, 1.59368473
5635, 12.2966897, -16.55, 1.38218587
5636, 18.0776784, -16.55, 3.45179715
5637, 19.3863864, -16.55, 3.01289421
5638, 15.7391523, -16.55, 3.10808672
5639, 17.0531717, -16.55, 3.50993197
5640, 17.64853, -16.55, 3.89780188
5641, 23.616896, -16.55, 1.62473112
5642, 24.1370935, -16.55, 1.44290244
5643, 22.6423164, -16.55, 1.4295963
5644, 23.1465315, -16.55, 1.64882411
5645, 23.2412683, -16.55, 2.05174858
5646, 23.942657, -16.55, 3.03183523
5647, 22.5572172, -16.55, 5.03436474
5648, 21.0365854, -16.55, 6.24742196
5649, 19.2177779, -16.55, 6.34364882
5650, 21.4551298, -16.55, 5.42094696
5651, 20.2684904, -16.55, 5.01524511
5652, 21.6550101, -16.55, 3.86298737
5653, 24.978306, -16.55, -1.25864867
5654, 25.0681302, -16.55, 1.00755287
5655, 24.8707095, -16.55, 1.52552256
5656, 24.4448346, -16.55, 2.23745397
5657, 23.2021015, -16.55, 2.78432799
5658, 22.556717, -16.55, -5.02458058
5659, 23.9621638, -16.55, -3.01464604
5660, 24.6449955, -16.55, -1.74793382
5661, 24.3845454, -16.55, -2.26087877
5662, 23.8547444, -16.55, -1.61204027
5663, 23.1610899, -16.55, -2.7881373
5664, 17.7905763, -16.55, -7.554639
5665, 20.1698368, -16.55, -7.04435403
5666, 19.2862193, -16.55, -6.69111269
5667, 21.306433, -16.55, -6.33177248
5668, 20.8499025, -16.55, -5.38872471
5669, 21.7748023, -16.55, -5.65754552
5670, 22.0288072, -16.55, -4.11582407
5671, 14.8261791, -16.55, -7.0347221
5672, 17.2158722, -16.55, -7.555818
5673, 11.0436788, -16.55, -3.01252096
5674, 12.4485648, -16.55, -5.01892281
5675, 13.740488, -16.55, -6.36337458
5676, 15.7435175, -16.55, -6.65480316
5677, 14.1501585, -16.55, -5.3880921
5678, 13.2279735, -16.55, -5.65381434
5679, 12.9740685, -16.55, -4.11349919
5680, 10.0133014, -16.55, -1.26570877
5681, 9.923343, -16.55, 1.01617157
5682, 10.3432024, -16.55, -1.75287228
5683, 11.1471068, -16.55, -1.60076166
5684, 10.6046508, -16.55, -2.27230641
5685, 11.8409014, -16.55, -2.7827801
5686, 12.45259, -16.55, 5.11580438
5687, 11.0435648, -16.55, 3.14081184
5688, 12.1993466, -16.55, 2.82807902
5689, 15.7940211, -16.55, 6.31385846
5690, 13.9533261, -16.55, 6.25221649
5691, 14.6935176, -16.55, 5.06777171
5692, 13.512979, -16.55, 5.47476041
5693, 13.3043916, -16.55, 3.99957571
5694, 18.9422967, -16.55, -5.37853436
5695, 19.0764133, -16.55, -5.96351991
5696, 18.9847378, -16.55, -4.32847106
5697, 19.1523681, -16.55, -4.9077493
5698, 19.6115405, -16.55, -5.07816597
5699, 19.5480246, -16.55, -6.25328705
5700, 19.894833, -16.55, -5.83682968
5701, 15.453318, -16.55, -6.23370034
5702, 15.9360131, -16.55, -5.92498598
5703, 16.0544808, -16.55, -5.38061783
5704, 15.1052227, -16.55, -5.82458784
5705, 15.8420518, -16.55, -4.41373585
5706, 15.8311171, -16.55, -4.92654994
5707, 15.3770853, -16.55, -5.06910784
5708, 12.9002367, -16.55, 0.692978334
5709, 13.049523, -16.55, 0.143535331
5710, 12.7514007, -16.55, 1.30586856
5711, 12.8450504, -16.55, -0.799671414
5712, 12.4934577, -16.55, -1.22562525
5713, 13.2168138, -16.55, -0.395517215
5714, 11.7194215, -16.55, -1.60641544
5715, 12.2016218, -16.55, -1.75902741
5716, 20.85097, -16.55, 1.26070052
5717, 21.0535595, -16.55, -0.153523854
5718, 20.7305322, -16.55, 2.05510495
5719, 21.6141511, -16.55, 1.33830663
5720, 19.6944611, -16.55, 4.08244755
5721, 20.2995052, -16.55, 3.07276368
5722, 21.1418598, -16.55, 3.18068421
5723, 20.82423, -16.55, -1.85490979
5724, 19.9653157, -16.55, -2.91331686
5725, 21.2216297, -16.55, -1.04399606
5726, 21.5848909, -16.55, -2.18052192
5727, 21.7559401, -16.55, -0.49068953
5728, 18.5065428, -16.55, -3.47136817
5729, 17.0568962, -16.55, -3.55965897
5730, 20.4496467, -16.55, -3.78748195
5731, 19.3501745, -16.55, -3.62891691
5732, 15.0289833, -16.55, -2.91305614
5733, 14.1765642, -16.55, -1.85597527
5734, 15.6635452, -16.55, -3.62893248
5735, 14.5520269, -16.55, -3.78563404
5736, 16.3225025, -16.55, -3.52510024
5737, 13.9103616, -16.55, -0.0776987575
5738, 14.1238201, -16.55, 1.32997647
5739, 13.4275051, -16.55, -2.16232563
5740, 13.7979279, -16.55, -1.01359046
5741, 13.3325133, -16.55, 1.61613566
5742, 14.2569634, -16.55, 2.23182202
5743, 15.3945137, -16.55, 4.21193031
5744, 14.6600546, -16.55, 3.12967398
5745, 13.7951651, -16.55, 3.44135675
5746, 19.2932858, -16.55, 5.79079005
5747, 18.9885972, -16.55, 5.3496533
5748, 18.6569246, -16.55, 4.8885356
5749, 19.5555479, -16.55, 5.37535855
5750, 17.3184347, -16.55, 4.3893536
5751, 16.7743036, -16.55, 4.45837181
5752, 18.9661967, -16.55, 4.40437502
5753, 18.3549585, -16.55, 4.40054012
5754, 16.3595506, -16.55, 4.8979676
5755, 16.0177459, -16.55, 5.35124496
5756, 16.1815236, -16.55, 4.46560792
5757, 15.7130494, -16.55, 5.79345931
5758, 15.4446969, -16.55, 5.37437854
5759, 23.2823536, -16.55, -1.61674478
5760, 22.51496, -16.55, -1.247228
5761, 22.1436309, -16.55, -0.832300267
5762, 22.8148825, -16.55, -1.77363328
5763, 21.9432961, -16.55, 0.0781569634
5764, 22.0378529, -16.55, 0.649506
5765, 22.1016407, -16.55, 1.46686964
5766, 22.1908847, -16.55, 2.09684719
5767, 12.7011904, -16.55, 2.27714444
5768, 12.8462603, -16.55, 3.10239563
5769, 22.7191775, -16.55, 2.76245134
5770, 22.1303121, -16.55, 2.80607613
5771, 13.1364796, -16.55, -3.20427127
5772, 12.6484529, -16.55, -2.3994334
5773, 14.4399872, -16.55, -4.67673036
5774, 13.8017929, -16.55, -3.87105639
5775, 22.3696992, -16.55, -2.4227671
5776, 21.8697651, -16.55, -3.20567025
5777, 21.1971455, -16.55, -3.87485159
5778, 20.5601134, -16.55, -4.66929204
5779, 19.9361174, -16.55, 4.62267383
5780, 15.0244942, -16.55, 4.67633632
5781, 20.1120653, -16.55, -5.31558728
5782, 14.8767152, -16.55, -5.30217675
5783, 12.4280313, -18.6432619, -0.760761447
5784, 12.0194524, -18.6000242, 1.08174358
5785, 10.5499163, -18.6034685, -0.733035421
5786, 11.6179968, -17.4562118, -1.19418455
5787, 12.668963, -17.4362292, 0.271155831
5788, 10.3216059, -17.4421489, 0.226687774
5789, 11.5459958, -18.6350427, -1.19911817
5790, 10.320871, -18.5859685, 0.222833725
5791, 12.6660071, -18.6497467, 0.283597475
5792, 12.440317, -17.4304545, -0.745522614
5793, 10.526275, -17.4411852, -0.70132711
5794, 12.2347636, -17.4294132, 0.948747834
5795, 12.08629, -18.0443933, -1.04702627
5796, 10.8902106, -18.0173361, -1.03351676
5797, 12.5505658, -18.0193911, 0.579923658
5798, 12.6684023, -18.0201502, -0.273561887
5799, 10.3305339, -18.0055846, -0.26897771
5800, 10.6415739, -18.0227807, 0.838513299
5801, 11.7494758, -17.5882699, 1.173781
5802, 11.7550628, -19.0560064, 1.17257962
5803, 11.0621447, -18.7802179, 1.11726573
5804, 11.0412685, -17.3085352, 1.1088577
5805, 12.2493355, -19.0369685, 0.937281371
5806, 10.5950454, -18.743657, 0.788071752
5807, 12.3540288, -16.9949328, 0.842991599
5808, 11.8802219, -17.0028241, 1.13817017
5809, 10.5725327, -17.297477, 0.76144884
5810, 12.1276655, -18.0224555, 1.02275902
5811, 12.5776327, -19.064728, 0.527927896
5812, 12.6999902, -19.0676, 0.00485758021
5813, 12.4264555, -18.6426431, 0.762679599
5814, 12.5796149, -19.0704741, -0.523862175
5815, 12.2502592, -19.0582664, -0.93654209
5816, 12.6670593, -18.6601822, -0.279235524
5817, 11.7703896, -19.0750414, -1.16914048
5818, 11.2301943, -19.0483444, -1.16927537
5819, 12.0264879, -18.6652935, -1.0783369
5820, 10.7460848, -19.0576915, -0.93360158
5821, 10.4202176, -19.0583954, -0.523516958
5822, 10.9511911, -18.6655483, -1.06714983
5823, 10.3000037, -19.0478101, 0.00296789505
5824, 10.4304972, -19.0379511, 0.544209291
5825, 10.3375957, -18.6050098, -0.298020673
5826, 10.4508483, -18.3064434, 0.582478049
5827, 12.699868, -16.9853534, -0.0178009385
5828, 12.5794638, -17.0161729, 0.524173506
5829, 12.5229941, -17.4146215, 0.627282228
5830, 12.2323328, -17.0209141, -0.950625418
5831, 12.5924871, -17.0384091, -0.496459386
5832, 12.6484038, -17.3832979, -0.348093044
5833, 11.210249, -17.0385603, -1.16449319
5834, 11.7824763, -16.9993836, -1.16627919
5835, 12.1034298, -17.3889541, -1.03724273
5836, 10.3860218, -17.0712626, -0.446153107
5837, 10.7463772, -16.9678279, -0.933837597
5838, 10.9807078, -17.3929147, -1.08182051
5839, 10.4029403, -16.950367, 0.486271596
5840, 10.3000118, -16.9831487, -0.00532476836
5841, 10.346895, -17.4656351, -0.332187971
5842, 10.4482491, -17.7315074, 0.57777166
5843, 12.2605146, -18.3482053, -0.928233583
5844, 11.7749719, -18.32167, -1.16807127
5845, 12.6999753, -18.3298717, -0.00770134261
5846, 12.5784044, -18.3285647, -0.526349645
5847, 12.4376082, -18.0287444, -0.748926422
5848, 12.3125829, -18.3094061, 0.883011309
5849, 12.6179334, -18.3334914, 0.43614783
5850, 12.3978932, -17.7325144, 0.79610796
5851, 11.1878093, -18.4047051, -1.15867897
5852, 10.7422208, -18.3088947, -0.930468007
5853, 10.411442, -18.3594915, -0.505016382
5854, 10.3010487, -18.2328732, -0.0501578403
5855, 10.5563647, -18.030495, -0.741318042
5856, 11.774916, -17.7138012, -1.16808441
5857, 12.2649647, -17.7440333, -0.924569653
5858, 10.711988, -17.7187413, -0.905006657
5859, 11.1757084, -17.7012615, -1.15535059
5860, 11.432716, -18.05657, -1.19811221
5861, 12.57425, -17.7230285, -0.534777511
5862, 12.6999115, -17.7359934, 0.0145776853
5863, 12.6178216, -17.7352516, 0.436434356
5864, 12.6866774, -18.0203587, 0.178316335
5865, 10.3156749, -18.0180894, 0.193323603
5866, 10.3010497, -17.7694089, -0.050182492
5867, 10.3941572, -17.6884962, -0.46595245
5868, 18.390862, -18.6308663, 5.19603174
5869, 18.0282464, -18.0329637, 7.07747656
5870, 16.5618553, -18.630005, 5.25174569
5871, 17.5, -17.4439461, 4.8
5872, 16.3300865, -17.4439461, 6.26702512
5873, 18.6529338, -17.4687013, 6.33278152
5874, 17.5055847, -18.6370725, 4.800013
5875, 16.3300865, -18.6060539, 6.26702512
5876, 18.6211689, -18.5758798, 6.42776206
5877, 16.5617491, -17.419995, 5.25187879
5878, 18.436963, -17.3962077, 5.25026654
5879, 18.2505724, -18.8854291, 6.9362911
5880, 18.257731, -17.1400853, 6.93050721
5881, 18.6526307, -18.0252446, 5.66616994
5882, 16.9793395, -18.0372821, 4.91883736
5883, 16.3519849, -18.0178626, 5.65062733
5884, 16.6676301, -18.025, 6.8643844
5885, 18.0221969, -18.0291028, 4.91957861
5886, 17.7490558, -17.2731556, 7.17387019
5887, 17.7602646, -18.7734565, 7.17143602
5888, 17.0806419, -18.7947401, 7.12433928
5889, 17.1042258, -17.2755224, 7.13285604
5890, 17.8681983, -19.1975111, 7.14211648
5891, 18.3682352, -19.1765247, 6.82835241
5892, 16.5872405, -18.7086835, 6.77901869
5893, 18.1331625, -18.4724807, 7.01936515
5894, 18.3575828, -16.8558591, 6.83937582
5895, 17.8614853, -16.8266311, 7.14425887
5896, 16.6128118, -17.2875, 6.8080205
5897, 18.1414862, -17.577612, 7.01414766
5898, 18.5493769, -19.0149321, 6.58207221
5899, 18.696346, -19.1047528, 6.09357519
5900, 18.4831979, -18.7431582, 6.68798397
5901, 18.5878433, -19.0900826, 5.49344601
5902, 18.2564424, -19.058759, 5.0684449
5903, 18.6898433, -18.6319195, 5.84420264
5904, 17.7694401, -19.0677453, 4.83064034
5905, 17.2370813, -19.059452, 4.82915681
5906, 18.0024422, -18.6704284, 4.9102515
5907, 16.7478428, -19.0689981, 5.06498156
5908, 16.4188558, -19.0650025, 5.47930117
5909, 16.9770909, -18.6684071, 4.91992313
5910, 16.3, -19.0530269, 6
5911, 16.4188374, -19.0530269, 6.52066049
5912, 16.330096, -18.6180294, 5.73293338
5913, 16.455254, -18.3155269, 6.5903438
5914, 18.6995668, -17.0051502, 6.03224082
5915, 18.5634895, -17.0187317, 6.55586883
5916, 18.5023397, -17.3081254, 6.65978419
5917, 18.2399571, -16.9791082, 5.05529718
5918, 18.5854505, -16.9637318, 5.48833878
5919, 18.6805696, -17.3922674, 5.78492924
5920, 17.2329749, -16.9969731, 4.83008651
5921, 17.7630596, -16.9980314, 4.82918847
5922, 18.0278569, -17.3865879, 4.92233258
5923, 16.4188189, -16.9849975, 5.47937786
5924, 16.751779, -16.9849975, 5.06182876
5925, 16.9793012, -17.4319706, 4.91885583
5926, 16.4188374, -16.9969731, 6.52066049
5927, 16.3, -16.9969731, 6
5928, 16.330077, -17.4319706, 5.73301637
5929, 16.455254, -17.7344731, 6.5903438
5930, 18.2444016, -18.3253736, 5.05879534
5931, 17.7579798, -18.3368273, 4.82805869
5932, 18.6953695, -18.2314993, 6.10531696
5933, 18.5795793, -18.3405289, 5.47606445
5934, 18.4453517, -18.0254721, 5.26087209
5935, 18.4336138, -17.7425264, 6.75390006
5936, 18.6473423, -18.0335114, 6.35157586
5937, 18.4166939, -18.3068173, 6.77438506
5938, 17.2475486, -18.3420558, 4.82685539
5939, 16.7518455, -18.3336436, 5.06177568
5940, 16.4380243, -18.3239338, 5.44124456
5941, 16.3007566, -18.3119582, 5.95739526
5942, 16.5726763, -18.0288783, 5.23837619
5943, 16.7457591, -17.7351008, 5.06666158
5944, 17.2335016, -17.7489298, 4.82996641
5945, 17.7684777, -17.7377853, 4.830419
5946, 18.2500778, -17.7115496, 5.06331261
5947, 17.5016514, -18.0523197, 4.80000114
5948, 16.3300865, -18.025, 6.26702512
5949, 16.3007566, -17.7309044, 5.95739526
5950, 16.4379847, -17.7189288, 5.44131989
5951, 18.6987615, -17.7507114, 6.05450549
5952, 18.5793617, -17.7042892, 5.47561626
5953, 35.368082, -19.4185822, 7.36436942
5954, 34.7712155, -19.909494, 7.62825142
5955, 34.2326199, -20.27879, 8.25834511
5956, 24.4359834, -18.6128762, -0.750956116
5957, 24.0343172, -17.4448235, 1.07447902
5958, 24.5541634, -18.0731248, 0.573358092
5959, 22.5665409, -17.4201653, -0.754091588
5960, 22.3320977, -18.615791, 0.275688681
5961, 24.4764062, -17.4398148, -0.697589395
5962, 24.6716285, -18.7134154, 0.25939655
5963, 24.6823114, -17.3882682, 0.20527942
5964, 22.3260257, -17.4320278, 0.248564638
5965, 23.4828749, -18.5981731, -1.1998778
5966, 23.3602491, -17.4401082, -1.19183458
5967, 22.572058, -18.6189501, -0.76087035
5968, 24.3585244, -18.6432018, 0.838412727
5969, 22.9181498, -18.0290641, -1.04950003
5970, 22.3445334, -18.0152379, -0.323877826
5971, 22.6720769, -18.0223727, 0.868644504
5972, 24.0944522, -18.0261403, -1.04241385
5973, 24.6757221, -17.9771073, -0.240161709
5974, 23.7683317, -16.9998423, 1.1696145
5975, 23.7680666, -18.4690567, 1.16967529
5976, 23.0760673, -18.7604773, 1.12262241
5977, 23.0874036, -17.2927776, 1.12683814
5978, 23.9169011, -19.0815783, 1.12525264
5979, 24.4129406, -19.0619592, 0.778806456
5980, 22.6265714, -18.7587624, 0.822874561
5981, 24.21201, -18.0404461, 0.965940834
5982, 24.2755294, -17.0097822, 0.915725991
5983, 22.6003954, -17.3029644, 0.794173557
5984, 24.5964567, -19.0995165, 0.487629689
5985, 24.6999731, -19.0887753, -0.00803666826
5986, 24.5553618, -18.6935265, 0.571149333
5987, 24.5820041, -19.0356175, -0.518909504
5988, 24.2715623, -19.0597986, -0.919071041
5989, 24.6685644, -18.679082, -0.272868691
5990, 23.7735523, -19.0364003, -1.16840453
5991, 23.2408485, -19.0460341, -1.17168277
5992, 24.0386948, -18.6522368, -1.07229098
5993, 22.7476443, -19.0503041, -0.934858759
5994, 22.4268541, -19.0444098, -0.536989686
5995, 22.9642335, -18.6345917, -1.07375706
5996, 22.3000304, -19.0606965, -0.00853531323
5997, 22.4263007, -19.0520003, 0.535882277
5998, 22.3319602, -18.6323167, -0.27510549
5999, 22.4574362, -18.3181155, 0.594189067
6000, 24.699868, -16.9601744, -0.0178012618
6001, 24.6087263, -16.9152758, 0.459048928
6002, 24.4397794, -17.4261393, 0.746200199
6003, 24.2659679, -16.9953562, -0.923738682
6004, 24.6153102, -17.0556157, -0.442812778
6005, 24.6497344, -17.4147874, -0.343672597
6006, 23.2188791, -16.992175, -1.16660662
6007, 23.7746518, -17.0003781, -1.16814657
6008, 24.0476555, -17.4194469, -1.06774224
6009, 22.4091027, -16.9771648, -0.499943067
6010, 22.7654427, -17.0029589, -0.94890758
6011, 22.906588, -17.3750649, -1.04300634
6012, 22.4215037, -16.9890364, 0.526161279
6013, 22.3002956, -17.030591, -0.0266328943
6014, 22.3167962, -17.3787483, -0.200072029
6015, 22.4545892, -17.7146205, 0.589165662
6016, 24.6998999, -18.3303223, -0.0154960737
6017, 24.6091836, -18.3244998, -0.457942881
6018, 24.270312, -18.3305459, -0.920119282
6019, 23.8040338, -18.3826465, -1.16084602
6020, 24.4423637, -18.047071, -0.742933759
6021, 24.3317279, -17.7474453, 0.86500214
6022, 24.6424645, -17.7443364, 0.367116916
6023, 24.472758, -18.3692346, 0.702667669
6024, 24.6463698, -18.3589501, 0.354734181
6025, 24.6732552, -18.0613442, 0.251936792
6026, 24.6999989, -17.7060143, 0.00162956657
6027, 22.300289, -17.7332714, -0.0263331839
6028, 22.4395901, -17.7100028, -0.561721242
6029, 22.744646, -17.7336614, -0.932437818
6030, 23.221946, -17.6960862, -1.1673414
6031, 22.5751672, -18.0194972, -0.764646473
6032, 22.3329514, -18.0177296, 0.279280576
6033, 22.3002819, -18.3033935, -0.0260112687
6034, 22.4347428, -18.3177593, -0.552473612
6035, 24.6108184, -17.6831037, -0.453963007
6036, 23.8064049, -17.7064839, -1.16022242
6037, 24.2828687, -17.7332865, -0.90945947
6038, 23.2302705, -18.2913666, -1.16929294
6039, 22.7362089, -18.3235476, -0.92553942
6040, 23.5547365, -18.0446154, -1.19875098
6041, 16.2044311, -17.5525198, 2.70582728
6042, 15.1494645, -17.5081992, -1.86413058
6043, 14.5744176, -17.5058294, 0.664053759
6044, 18.8016496, -17.5321201, 2.70290736
6045, 20.4254648, -17.503821, 0.664571914
6046, 19.8498335, -17.5378321, -1.86501545
6047, 17.5006703, -17.525, -2.99999993
6048, 16.8396604, -17.977407, 2.926423
6049, 16.8266281, -17.0595667, 2.92345179
6050, 18.1754244, -17.0561144, 2.92297826
6051, 18.1703111, -17.9705692, 2.92415509
6052, 19.382236, -17.0483493, 2.33606241
6053, 15.6071687, -17.0478086, 2.32748568
6054, 19.3707783, -17.9701844, 2.34524809
6055, 15.6133698, -17.9876132, 2.33251505
6056, 20.4999892, -17.0408516, -0.00803551284
6057, 20.1977743, -17.0283723, 1.3122553
6058, 19.845266, -17.5229455, 1.87075579
6059, 20.2051639, -17.9433899, 1.2969534
6060, 19.3681535, -17.0590765, -2.34733945
6061, 20.205344, -17.0563421, -1.29657781
6062, 20.4278392, -17.5256385, -0.654032025
6063, 20.499983, -17.9780563, 0.0100905881
6064, 20.1993218, -17.9978336, -1.30906914
6065, 16.832764, -17.0375, -2.9248583
6066, 18.1784618, -17.0431799, -2.92227474
6067, 18.7912317, -17.5151627, -2.70789967
6068, 19.3762457, -17.9832271, -2.34087638
6069, 18.1656413, -17.9645283, -2.92522164
6070, 14.7938101, -17.0369709, -1.29481127
6071, 15.642432, -17.0304332, -2.35572519
6072, 16.1981298, -17.5169368, -2.70280113
6073, 15.6406987, -17.9909914, -2.35435734
6074, 16.8240814, -17.9577, -2.92286402
6075, 14.8032473, -17.0251164, 1.31435335
6076, 14.5000045, -17.0435937, -0.00521258683
6077, 14.5745907, -17.5256862, -0.664816109
6078, 14.7990537, -18.0044972, -1.30571401
6079, 14.5000144, -17.9785761, 0.00928430058
6080, 15.162592, -17.5211688, 1.88056479
6081, 14.7978984, -17.9436342, 1.30332141
6082, 17.4977934, -18.5, 0.00209082185
6083, 18.6873245, -18.5, 0.944771903
6084, 17.5000631, -18.5, 1.51110053
6085, 16.3146042, -18.5, 0.944911269
6086, 18.9697234, -18.5, -0.335996692
6087, 18.1570695, -18.5, -1.36640849
6088, 16.8434678, -18.5, -1.36180359
6089, 16.0306481, -18.5, -0.337351845
6090, 13.7135236, -21.5, -4.45290459
6091, 11.7602989, -21.5, 6.2800882
6092, 13.0609309, -21.5, 3.7328177
6093, 11.1973563, -21.5, -5.75883648
6094, 12.7884087, -21.5, -7.12115533
6095, 10.6837816, -21.5, 4.67354651
6096, 13.7579638, -21.5, 4.45697369
6097, 12.7972409, -21.5, 4.67573088
6098, 13.0585057, -21.5, -3.76631753
6099, 12.7760858, -21.5, -4.70807133
6100, 13.4071932, -21.5, -5.45972657
6101, 12.0534564, -21.5, 4.00796758
6102, 13.4486942, -21.5, 5.28890411
6103, 12.0869054, -21.5, -4.07295623
6104, 14.2866593, -21.5, -5.33781423
6105, 9.92133905, -21.5, 2.8744324
6106, 13.7387855, -21.5, 7.54082425
6107, 12.3607688, -21.5, -5.63494069
6108, 11.8038516, -21.5, 5.0993665
6109, 12.3682263, -21.5, -3.10845717
6110, 10.6125742, -21.5, -3.77732965
6111, 14.4655362, -21.5, 5.22321231
6112, 11.0273563, -21.5, 3.49114426
6113, 13.6678978, -21.5, -7.67499381
6114, 13.7524862, -21.5, -6.53044545
6115, 12.6770715, -21.5, 6.94043987
6116, 32.084752, -21.5, -7.99487715
6117, 12.3810076, -21.5, 2.98202266
6118, 14.668488, -21.5, -8.215235
6119, 11.9789669, -21.5, -6.49867321
6120, 14.7197675, -21.5, 8.11593877
6121, 11.0005286, -21.5, 5.69988344
6122, 11.5755769, -21.5, -4.81391462
6123, 21.746622, -21.5, -7.01336698
6124, 21.7459097, -21.5, 6.96761334
6125, 15.6167779, -21.5, -8.5375934
6126, 9.14240622, -21.5, -1.90478545
6127, 9.51096582, -21.5, -2.81657074
6128, 9.92368273, -21.5, 3.88762624
6129, 12.6729494, -21.5, 5.79531837
6130, 13.6744569, -21.5, 6.17739932
6131, 10.5318723, -21.5, -4.96876465
6132, 23.9413958, -21.5, 7.53437135
6133, 29.6684124, -21.5, 7.00853697
6134, 31.9166398, -21.5, 7.08087527
6135, 29.9080213, -21.5, -6.91502831
6136, 12.9448924, -21.5, -6.23331629
6137, 24.034227, -21.5, -7.43472953
6138, 32.6077473, -21.5, 8.26815167
6139, 32.439002, -21.5, -6.55336175
6140, 33.0419881, -21.5, -7.50550531
6141, 33.0467836, -21.5, -8.74615258
6142, 30.9803317, -21.5, -8.74572753
6143, 17.3978802, -21.5, -8.96148419
6144, 16.7814812, -21.5, -8.950368
6145, 20.5771564, -21.5, -8.4344566
6146, 18.6388332, -21.5, -8.63892549
6147, 16.8880326, -21.5, 8.95724027
6148, 17.5264529, -21.5, 8.96794066
6149, 16.0276062, -21.5, 8.64705256
6150, 15.448932, -21.5, 8.49178272
6151, 18.6799024, -21.5, 8.58982296
6152, 20.6134009, -21.5, 8.38610566
6153, 14.2895989, -21.5, 8.4419228
6154, 14.8799849, -21.5, 8.64305169
6155, 15.2916426, -21.5, 7.97201038
6156, 13.2454613, -21.5, 7.88292987
6157, 13.8004914, -21.5, 8.1611453
6158, 14.2205431, -21.5, 7.82834705
6159, 12.1967188, -21.5, 7.23872514
6160, 12.7100475, -21.5, 7.58366074
6161, 13.2106411, -21.5, 7.23710477
6162, 11.2722101, -21.5, 6.49973012
6163, 11.7359436, -21.5, 6.90848473
6164, 12.2183433, -21.5, 6.61008147
6165, 10.4818359, -21.5, 5.74155851
6166, 10.8915071, -21.5, 6.20869893
6167, 11.3801973, -21.5, 5.99003143
6168, 9.97827015, -21.5, 4.71177325
6169, 10.3205929, -21.5, 5.23059821
6170, 10.8421551, -21.5, 5.18671497
6171, 9.32224939, -21.5, 3.76167342
6172, 9.5982207, -21.5, 4.31881312
6173, 10.3037322, -21.5, 4.28058637
6174, 9.11468835, -21.5, 2.67357896
6175, 9.32042959, -21.5, 3.25631833
6176, 9.92275457, -21.5, 3.3807876
6177, 8.81248554, -21.5, 1.33590803
6178, 8.93291579, -21.5, 1.93896356
6179, 9.69672994, -21.5, 2.18868182
6180, 8.71090044, -21.5, 0.744575248
6181, 8.63844626, -21.5, -0.987163783
6182, 8.57101753, -21.5, -0.376118121
6183, 8.73844821, -21.5, -2.17117968
6184, 8.60557205, -21.5, -1.56937604
6185, 9.12250456, -21.5, -1.33103376
6186, 9.11670262, -21.5, -3.22447955
6187, 8.91337121, -21.5, -2.63690762
6188, 9.33146589, -21.5, -2.37155421
6189, 9.94266641, -21.5, -4.26366482
6190, 9.6678593, -21.5, -3.70641113
6191, 10.0665451, -21.5, -3.29367376
6192, 10.2475078, -21.5, -5.37599911
6193, 9.90231548, -21.5, -4.85938232
6194, 10.5727037, -21.5, -4.37397067
6195, 10.9871483, -21.5, -6.2372012
6196, 10.5806807, -21.5, -5.76944992
6197, 10.8627641, -21.5, -5.3680783
6198, 11.8460485, -21.5, -7.01776555
6199, 11.3811415, -21.5, -6.60815192
6200, 11.5875456, -21.5, -6.12893358
6201, 12.7673596, -21.5, -7.67392343
6202, 12.2529778, -21.5, -7.3290415
6203, 12.3824009, -21.5, -6.80995574
6204, 13.7611925, -21.5, -8.22401054
6205, 13.208755, -21.5, -7.95146315
6206, 13.2288664, -21.5, -7.39804975
6207, 14.846475, -21.5, -8.70474381
6208, 14.265486, -21.5, -8.49107904
6209, 14.1765523, -21.5, -7.93428653
6210, 15.9557208, -21.5, -8.98246092
6211, 15.325156, -21.5, -8.84217309
6212, 15.1248987, -21.5, -8.38669817
6213, 16.4374086, -21.5, -8.57677543
6214, 33.263556, -21.5, -5.30701404
6215, 20.8523484, -21.5, -5.98701219
6216, 22.7728634, -21.5, -5.99977837
6217, 20.6374835, -21.5, -7.22581685
6218, 14.4980675, -21.5, -4.7261794
6219, 14.8587432, -21.5, -4.9330832
6220, 14.6564595, -21.5, -6.19899109
6221, 33.4447331, -21.5, -6.04258986
6222, 33.2074999, -21.5, -6.78986978
6223, 32.2660737, -21.5, -7.27475816
6224, 13.8469453, -21.5, -3.99320383
6225, 14.2062828, -21.5, -4.29063788
6226, 14.0014623, -21.5, -4.89503082
6227, 13.2064798, -21.5, -3.28350293
6228, 13.5157072, -21.5, -3.65279476
6229, 13.3902623, -21.5, -4.10662334
6230, 12.6707502, -21.5, -2.57471449
6231, 12.8654161, -21.5, -2.96489175
6232, 12.7094786, -21.5, -3.43751372
6233, 11.5278926, -21.5, -2.82570392
6234, 12.6726919, -21.5, 2.49594876
6235, 11.9286066, -21.5, 2.72600044
6236, 10.6961585, -21.5, 2.71660281
6237, 11.2593326, -21.5, 2.95872358
6238, 10.4685142, -21.5, 3.19778118
6239, 11.7003352, -21.5, 3.24555679
6240, 12.8680003, -21.5, 2.88804278
6241, 13.511367, -21.5, 3.63290884
6242, 13.1982419, -21.5, 3.25542588
6243, 12.7220925, -21.5, 3.35833273
6244, 14.2324565, -21.5, 4.29886038
6245, 13.8587818, -21.5, 3.99227599
6246, 13.4118744, -21.5, 4.09474538
6247, 14.9628261, -21.5, 4.8823262
6248, 14.5770698, -21.5, 4.67113678
6249, 14.1190483, -21.5, 4.83767175
6250, 14.7320103, -21.5, 5.75448312
6251, 20.8495895, -21.5, 5.96218897
6252, 20.678182, -21.5, 7.16670557
6253, 22.7738238, -21.5, 5.9743115
6254, 33.2596286, -21.5, 5.31033213
6255, 33.3057581, -21.5, 8.88281962
6256, 33.3036565, -21.5, 7.63719811
6257, 32.9122618, -21.5, 6.02114703
6258, 32.9540267, -21.5, 7.05134176
6259, 31.9106592, -21.5, 6.04128402
6260, 32.263281, -21.5, 7.67536614
6261, 31.2400637, -21.5, 8.88410191
6262, 29.8900216, -21.5, -8.2093905
6263, 27.8342622, -21.5, -8.20839577
6264, 30.9942775, -21.5, -7.45222324
6265, 24.8972634, -21.5, -8.47266939
6266, 22.8500563, -21.5, -8.47165961
6267, 28.8812161, -21.5, -5.95633204
6268, 26.8132447, -21.5, -7.25092738
6269, 25.9447114, -21.5, -6.21744294
6270, 21.7094835, -21.5, -8.26720931
6271, 22.8960559, -21.5, -7.22207873
6272, 30.9091618, -21.5, -5.95626661
6273, 32.1643219, -21.5, -5.76901739
6274, 31.1775838, -21.5, -6.72882374
6275, 23.9227657, -21.5, -6.22169198
6276, 15.3479777, -21.5, -7.81664189
6277, 14.0028832, -21.5, -5.94763641
6278, 14.4866954, -21.5, -6.7859431
6279, 13.7201689, -21.5, -7.10272065
6280, 14.4476351, -21.5, -7.3347668
6281, 14.930954, -21.5, -7.60925219
6282, 9.89554928, -21.5, -2.18752546
6283, 10.6718232, -21.5, -3.03365519
6284, 11.4718848, -21.5, -3.49047531
6285, 10.1311991, -21.5, -2.57981239
6286, 21.7003944, -21.5, 8.23438239
6287, 14.8220525, -21.5, 7.20991359
6288, 14.3801859, -21.5, 6.89727469
6289, 13.7066344, -21.5, 6.85390078
6290, 14.370222, -21.5, 6.22824718
6291, 14.0611502, -21.5, 5.70489776
6292, 25.8988066, -21.5, 6.26747877
6293, 23.8751355, -21.5, 6.27184192
6294, 22.8529363, -21.5, 7.24796091
6295, 30.7881772, -21.5, 6.00328122
6296, 28.76298, -21.5, 6.00031252
6297, 24.8501578, -21.5, 8.52179364
6298, 26.8116872, -21.5, 7.25074483
6299, 27.7140067, -21.5, 8.25466956
6300, 30.7919968, -21.5, 7.04293423
6301, 22.7990803, -21.5, 8.52199699
6302, 29.7708673, -21.5, 8.25601723
6303, 30.8993133, -21.5, 8.28805669
6304, 12.9178509, -21.5, -4.23670588
6305, 13.244627, -21.5, -4.58033653
6306, 13.0944944, -21.5, -5.08015922
6307, 13.55514, -21.5, -4.95330645
6308, 13.8522845, -21.5, -5.40406121
6309, 11.4010753, -21.5, 5.3989476
6310, 11.7810716, -21.5, 5.68932042
6311, 12.2388123, -21.5, 5.44694291
6312, 12.2165153, -21.5, 6.03764054
6313, 12.673046, -21.5, 6.36788623
6314, 13.2770989, -21.5, 4.56610333
6315, 12.9292677, -21.5, 4.20333999
6316, 12.4258847, -21.5, 4.34117658
6317, 12.5559566, -21.5, 3.8689302
6318, 12.2189471, -21.5, 3.49720244
6319, 12.1669718, -21.5, -6.06730194
6320, 11.7801912, -21.5, -5.69968853
6321, 11.9661203, -21.5, -5.22669886
6322, 11.3832223, -21.5, -5.28426805
6323, 11.0524518, -21.5, -4.89686757
6324, 13.2750529, -21.5, -6.82594381
6325, 13.3489087, -21.5, -6.37986278
6326, 12.8651439, -21.5, -6.67879672
6327, 12.4640024, -21.5, -6.36689246
6328, 11.9281666, -21.5, 4.55303642
6329, 11.2448694, -21.5, 4.88649525
6330, 11.3699434, -21.5, 4.34020312
6331, 10.8543502, -21.5, 4.0818082
6332, 11.5402413, -21.5, 3.75479813
6333, 10.4758638, -21.5, 3.69235134
6334, 13.5999876, -21.5, 4.87198799
6335, 13.1232623, -21.5, 4.98144397
6336, 13.9626143, -21.5, 5.2601917
6337, 12.3005142, -21.5, 4.88819963
6338, 13.0609235, -21.5, 5.54221653
6339, 12.7333959, -21.5, 5.23540635
6340, 12.5743532, -21.5, -3.92545626
6341, 12.4350616, -21.5, -4.38924448
6342, 12.2220801, -21.5, -3.58945716
6343, 12.5646124, -21.5, -5.17134376
6344, 12.886885, -21.5, -5.54951264
6345, 11.834909, -21.5, -4.44629774
6346, 12.1772669, -21.5, -4.75942606
6347, 13.5654822, -21.5, -5.9938798
6348, 12.6523657, -21.5, -5.93252157
6349, 13.1714078, -21.5, -5.84834102
6350, 13.5589941, -21.5, 5.73403977
6351, 13.173218, -21.5, 5.98574575
6352, 11.351085, -21.5, -3.95685834
6353, 11.090407, -21.5, -4.31325875
6354, 13.1741796, -21.5, 6.55743801
6355, 38, -15.1823786, -1.40245917
6356, 38, -15.4808433, 1.66576454
6357, 38, -12.2841264, 1.82435664
6358, 38, -11.7419591, -2.26893447
6359, 38, -11.5997894, 5.18791911
6360, 38, -11.6619967, -5.18821244
6361, 38, -17.37198, 0.070700456
6362, 38, -18.0124868, -1.95427837
6363, 38, -11.2202155, 7.58168825
6364, 38, -11.2272468, -7.58277631
6365, 38, -18.0566692, 2.03594981
6366, 38, -4.69212381, 8.88069569
6367, 38, -4.69213936, -8.88026476
6368, 38, -10.1402701, -8.54776502
6369, 38, -12.3556385, -8.54320995
6370, 38, -12.3638891, -7.1679674
6371, 38, -17.3972196, -2.9470547
6372, 38, -19.0047506, -2.94906885
6373, 38, -19.0089308, -0.976096706
6374, 38, -14.3553492, -2.70539413
6375, 38, -15.9650349, -2.68977461
6376, 38, -12.5775061, -5.9706937
6377, 38, -12.5878317, -4.59773387
6378, 38, -12.6255193, -3.13528108
6379, 38, -13.4549851, -1.83709212
6380, 38, -11.717592, -3.74650443
6381, 38, -19.030334, 1.01622284
6382, 38, -19.0262308, 2.98925239
6383, 38, -17.4144259, 2.98602406
6384, 38, -16.1119569, 2.81687742
6385, 38, -14.5059539, 2.8417766
6386, 38, -12.5604956, 4.60304518
6387, 38, -12.5472207, 5.97194881
6388, 38, -13.8797397, 1.75589672
6389, 38, -12.9013254, 2.91305692
6390, 38, -11.9721129, 3.53417805
6391, 38, -12.3598964, 7.16922437
6392, 38, -12.3522945, 8.54284856
6393, 38, -10.1371908, 8.54735268
6394, 38, -8.75041868, 7.1617439
6395, 38, -6.91547261, 8.88851656
6396, 38, -10.389997, 3.37050503
6397, 38, -10.9274632, 0.900809247
6398, 38, -9.76772668, 6.16219756
6399, 38, -9.9379484, 4.98491935
6400, 38, -11.4080061, 6.3813463
6401, 38, -10.6677173, -1.11356676
6402, 38, -10.1005286, -3.58755211
6403, 38, -12.0003435, -0.213007985
6404, 38, -8.75186755, -7.16244669
6405, 38, -6.91531278, -8.88916348
6406, 38, -9.7712078, -6.16263936
6407, 38, -9.97165074, -4.98868747
6408, 38, -11.4421821, -6.38238333
6409, 38, -16.5957119, -1.67837891
6410, 38, -17.6935665, -0.940672218
6411, 38, -18.6854439, 0.0354930598
6412, 38, -17.7149049, 1.0519357
6413, 38, -16.767772, 1.85145307
6414, 38, -13.7335063, 0.219560447
6415, 38, -15.339431, 0.131528062
6416, 38, -16.429536, 0.871273293
6417, 38, -16.2793835, -0.667943915
6418, 31.151465, -18.5538135, 9.5
6419, 32.5553145, -17.5313134, 9.5
6420, 34.0288787, -15.6273958, 9.5
6421, 33.3554993, -16.6500901, 9.5
6422, 33.9837863, -19.8604295, 9.5
6423, 33.515185, -20.0587757, 9.5
6424, 37.1001823, -14.4395523, 9.5
6425, 33.5021807, -19.6006885, 9.5
6426, 33.0112634, -19.9146948, 9.5
6427, 36.2721329, -17.2274851, 9.5
6428, 34.9094062, -18.9166951, 9.5
6429, 33.0072108, -19.3315059, 9.5
6430, 36.8379662, -15.8835301, 9.5
6431, 33.5075813, -19.0506324, 9.5
6432, 33.001669, -18.754727, 9.5
6433, 33.5214421, -18.45264, 9.5
6434, 32.5054464, -19.0507198, 9.5
6435, 32.4788272, -18.4482756, 9.5
6436, 33.3225567, -20.4755588, 9.5
6437, 32.0264228, -18.7709343, 9.5
6438, 31.9575962, -19.4968457, 9.5
6439, 35.9588679, -13.5106018, 9.5
6440, 35.8103397, -14.559526, 9.5
6441, 36.4597878, -15.1180926, 9.5
6442, 30.0367809, -19.3277335, 9.5
6443, 34.1440989, -18.8263623, 9.5
6444, 34.0759049, -18.1443035, 9.5
6445, 33.5496216, -17.8491036, 9.5
6446, 34.0738464, -17.5215076, 9.5
6447, 34.6237567, -17.8244188, 9.5
6448, 34.6444135, -17.2107347, 9.5
6449, 35.1902222, -17.5092332, 9.5
6450, 35.1934178, -16.8316076, 9.5
6451, 34.5627039, -16.5722964, 9.5
6452, 35.1708235, -16.1724951, 9.5
6453, 35.8608785, -16.5702287, 9.5
6454, 35.733856, -15.8569305, 9.5
6455, 35.1088249, -15.4595553, 9.5
6456, 28.9001469, -19.413522, 9.5
6457, 32.9719263, -17.1006679, 9.5
6458, 27.9628524, -20.2673345, 9.5
6459, 35.1201695, -18.1819306, 9.5
6460, 34.1775364, -15.0283515, 9.5
6461, 34.3117466, -14.5983537, 9.5
6462, 33.6737473, -16.1519131, 9.5
6463, 33.9255024, -16.63501, 9.5
6464, 34.7490461, -14.9408494, 9.5
6465, 34.858764, -14.2871005, 9.5
6466, 33.03621, -18.1883078, 9.5
6467, 32.1583287, -17.965061, 9.5
6468, 19.0233195, -19.9997118, 9.5
6469, 35.8155843, -17.8841411, 9.5
6470, 34.602008, -15.8983078, 9.5
6471, 34.4598247, -19.4153879, 9.5
6472, 31.6770146, -18.3260488, 9.5
6473, 33.5899905, -17.2097328, 9.5
6474, 37.1614259, -15.2921953, 9.5
6475, 36.6326853, -16.6214728, 9.5
6476, 35.7716755, -15.2407055, 9.5
6477, 36.4043342, -1.79459754, 9.5
6478, 32.516944, -19.6279184, 9.5
6479, 32.1706989, -20.419697, 9.5
6480, 30.9185854, -19.8944572, 9.5
6481, 30.7513781, -18.9663715, 9.5
6482, 33.9305483, -19.3619617, 9.5
6483, 34.5878068, -18.4187237, 9.5
6484, 31.4137437, -19.0014118, 9.5
6485, 36.2823507, -16.1320393, 9.5
6486, 35.6664472, -17.2045391, 9.5
6487, 33.0485511, -17.644512, 9.5
6488, 34.1716585, -16.1790956, 9.5
6489, 35.25973, -14.8975473, 9.5
6490, 34.5341656, -15.3859889, 9.5
6491, 29.5925612, -20.1427328, 9.5
6492, 32.6127344, -17.9761199, 9.5
6493, 35.5717083, -18.5623052, 9.5
6494, 36, -6.75, 9.5
6495, 35.9931446, -10.876767, 9.5
6496, 36.2171273, -15.6462596, 9.5
6497, 32.0864254, -18.3705586, 9.5
6498, 34.1717107, -17.0629505, 9.5
6499, 28.4496018, -19.2069212, 9.5
6500, 28.7283917, -19.1937695, 9.5
6501, 29.0046564, -19.1549326, 9.5
6502, 26.2353088, -19.639261, 9.5
6503, 27.9791628, -19.6349448, 9.5
6504, 28.4314997, -19.8404283, 9.5
6505, 29.2759141, -19.0908531, 9.5
6506, 29.8442311, -19.0479588, 9.5
6507, 30.1083857, -18.9588462, 9.5
6508, 29.4684639, -19.3706277, 9.5
6509, 30.4656843, -18.7781652, 9.5
6510, 30.7204264, -18.6649168, 9.5
6511, 30.3940795, -19.1470525, 9.5
6512, 30.9204698, -18.4586378, 9.5
6513, 31.1635995, -18.3222315, 9.5
6514, 30.9514216, -18.7600925, 9.5
6515, 31.4263743, -18.2083492, 9.5
6516, 31.6557921, -18.049963, 9.5
6517, 31.4142398, -18.4399311, 9.5
6518, 31.8964492, -17.8694691, 9.5
6519, 32.110174, -17.6904707, 9.5
6520, 31.9176717, -18.1455549, 9.5
6521, 32.3086669, -17.4735969, 9.5
6522, 32.504853, -17.2755321, 9.5
6523, 32.3568216, -17.7481872, 9.5
6524, 32.713159, -17.0602093, 9.5
6525, 32.8901124, -16.8447883, 9.5
6526, 32.7636204, -17.3159906, 9.5
6527, 33.0818989, -16.6194994, 9.5
6528, 33.2380915, -16.3885826, 9.5
6529, 33.1637128, -16.875379, 9.5
6530, 33.3972155, -16.1394941, 9.5
6531, 33.5312985, -15.8950755, 9.5
6532, 33.5146233, -16.4010016, 9.5
6533, 33.7088642, -15.6328168, 9.5
6534, 33.8196156, -15.3770415, 9.5
6535, 33.851313, -15.8896545, 9.5
6536, 33.8939543, -15.0774587, 9.5
6537, 33.9805312, -14.812544, 9.5
6538, 34.1032076, -15.3278737, 9.5
6539, 34.047656, -14.5975193, 9.5
6540, 34.1093238, -14.3256085, 9.5
6541, 34.2446415, -14.8133526, 9.5
6542, 33.9534505, -13.7764316, 9.5
6543, 34.3828325, -14.1699819, 9.5
6544, 34.429382, -13.8935503, 9.5
6545, 34.5852553, -14.4427271, 9.5
6546, 34.9959741, -12.188674, 9.5
6547, 34.9965074, -9.93851598, 9.5
6548, 35.4085196, -13.8988561, 9.5
6549, 34.9794339, -13.5053009, 9.5
6550, 35.9760063, -12.1936844, 9.5
6551, 35.1894407, -0.888610846, 9.5
6552, 37.1752943, -0.902747937, 9.5
6553, 35.1996786, -3.15908032, 9.5
6554, 37.1725983, -0.911499205, 9.5
6555, 37.1833842, -3.15150997, 9.5
6556, 18.2516371, -19.5466639, 9.5
6557, 18.2504252, -19.5412089, 9.5
6558, 20.0214553, -19.5331591, 9.5
6559, 18.2699864, -20.7477222, 9.5
6560, 20.3263821, -20.7509719, 9.5
6561, 35.877896, -18.5687257, 9.5
6562, 35.6142813, -18.8595797, 9.5
6563, 35.2831302, -19.0367747, 9.5
6564, 34.9922763, -19.3003893, 9.5
6565, 35.2405573, -18.7395001, 9.5
6566, 36.2336706, -17.9143515, 9.5
6567, 35.999834, -18.2296437, 9.5
6568, 35.6936463, -18.2232231, 9.5
6569, 36.6637515, -17.2493295, 9.5
6570, 36.4619449, -17.5860235, 9.5
6571, 36.0438586, -17.5558131, 9.5
6572, 37.0118608, -16.5914701, 9.5
6573, 36.8440277, -16.9463233, 9.5
6574, 36.4524091, -16.9244789, 9.5
6575, 33.6612784, -20.4468879, 9.5
6576, 33.6612784, -20.9877794, 9.5
6577, 33.0853494, -20.9598485, 9.5
6578, 31.0230047, -20.9594213, 9.5
6579, 32.7466278, -20.4476279, 9.5
6580, 34.2141741, -20.0060932, 9.5
6581, 33.9918931, -20.1393232, 9.5
6582, 33.7494856, -19.9596026, 9.5
6583, 33.7575925, -20.2384964, 9.5
6584, 33.4188709, -20.2671672, 9.5
6585, 37.5500911, -13.9697761, 9.5
6586, 37.5310538, -14.3617689, 9.5
6587, 37.4732323, -14.7501374, 9.5
6588, 36.9965723, -9.93838348, 9.5
6589, 36.9965723, -12.1883835, 9.5
6590, 36.9794339, -13.5053009, 9.5
6591, 36.5295251, -13.975077, 9.5
6592, 37.5038541, -15.1764589, 9.5
6593, 37.4084712, -15.5573092, 9.5
6594, 37.1308041, -14.8658738, 9.5
6595, 37.2467973, -15.8529942, 9.5
6596, 37.1145012, -16.2224988, 9.5
6597, 36.9996961, -15.5878627, 9.5
6598, 36.7353258, -16.2525014, 9.5
6599, 34.7674855, -19.5497357, 9.5
6600, 34.4521933, -19.7835724, 9.5
6601, 34.6846154, -19.1660415, 9.5
6602, 34.2218055, -19.6379087, 9.5
6603, 34.9996623, -7.87476948, 9.5
6604, 34.9998397, -5.62685487, 9.5
6605, 36.0000221, -4.4979983, 9.5
6606, 36.9979581, -5.62701773, 9.5
6607, 35.9965723, -8.81338348, 9.5
6608, 23.0613006, -20.2544135, 9.5
6609, 25.1260626, -20.2557497, 9.5
6610, 21.3137943, -20.2634212, 9.5
6611, 28.9189262, -20.8836673, 9.5
6612, 26.8571447, -20.8828618, 9.5
6613, 29.7337806, -20.8213664, 9.5
6614, 28.7777068, -20.2050337, 9.5
6615, 31.5446421, -20.1570771, 9.5
6616, 30.3967927, -20.6972286, 9.5
6617, 30.2555733, -20.018595, 9.5
6618, 37, -7.875, 9.5
6619, 31.2826043, -18.7776126, 9.5
6620, 31.5453792, -18.6637303, 9.5
6621, 31.0825609, -18.9838917, 9.5
6622, 32.8019328, -17.5879127, 9.5
6623, 33.0102387, -17.37259, 9.5
6624, 32.3855315, -17.9705905, 9.5
6625, 32.5840244, -17.7537166, 9.5
6626, 32.8306427, -17.810316, 9.5
6627, 34.2815221, -15.5066924, 9.5
6628, 34.355851, -15.2071702, 9.5
6629, 33.9227029, -16.1655044, 9.5
6630, 34.1002686, -15.9032457, 9.5
6631, 34.3868333, -16.0387017, 9.5
6632, 34.3154434, -15.7628518, 9.5
6633, 34.5680868, -15.6421483, 9.5
6634, 33.2809584, -17.1552004, 9.5
6635, 33.4727449, -16.9299115, 9.5
6636, 33.6405008, -16.6425501, 9.5
6637, 33.7996504, -16.39347, 9.5
6638, 33.7577464, -16.9223714, 9.5
6639, 33.7429835, -19.730559, 9.5
6640, 33.5086829, -19.8297321, 9.5
6641, 33.9571673, -19.6111956, 9.5
6642, 33.7163645, -19.4813251, 9.5
6643, 34.1951865, -19.3886748, 9.5
6644, 33.2567221, -19.7576917, 9.5
6645, 33.2632242, -19.9867352, 9.5
6646, 33.1669101, -20.1951268, 9.5
6647, 35.8846038, -14.0350639, 9.5
6648, 36.455261, -14.4995391, 9.5
6649, 36.1350638, -14.8388093, 9.5
6650, 36.7799851, -14.7788224, 9.5
6651, 36.8106069, -15.205144, 9.5
6652, 33.2546958, -19.4660972, 9.5
6653, 33.0092371, -19.6231003, 9.5
6654, 33.504881, -19.3256605, 9.5
6655, 33.2573961, -19.1910692, 9.5
6656, 33.7190648, -19.206297, 9.5
6657, 32.7620774, -19.4797121, 9.5
6658, 32.7641037, -19.7713066, 9.5
6659, 32.5909811, -20.1671959, 9.5
6660, 32.3438214, -20.0238077, 9.5
6661, 36.2467819, -16.5958507, 9.5
6662, 36.0665057, -16.8988569, 9.5
6663, 35.7636628, -16.8873839, 9.5
6664, 35.96929, -17.2160121, 9.5
6665, 35.7410157, -17.5443401, 9.5
6666, 34.3019618, -19.1208751, 9.5
6667, 34.5267525, -18.8715287, 9.5
6668, 34.7486065, -18.6677094, 9.5
6669, 34.3659528, -18.622543, 9.5
6670, 34.8539882, -18.3003272, 9.5
6671, 35.0147879, -18.5493128, 9.5
6672, 35.3459389, -18.3721179, 9.5
6673, 33.2546252, -18.9026797, 9.5
6674, 33.0044399, -19.0431164, 9.5
6675, 32.7535577, -18.9027234, 9.5
6676, 32.7563286, -19.1911128, 9.5
6677, 32.5111952, -19.3393191, 9.5
6678, 36.648877, -15.5008113, 9.5
6679, 36.3384576, -15.3821761, 9.5
6680, 36.5275467, -15.7648948, 9.5
6681, 36.5601585, -16.0077847, 9.5
6682, 36.457518, -16.376756, 9.5
6683, 36.249739, -15.8891495, 9.5
6684, 33.5145117, -18.7516362, 9.5
6685, 33.2615556, -18.6036835, 9.5
6686, 33.8258401, -18.9384973, 9.5
6687, 33.8327705, -18.6395011, 9.5
6688, 34.0373236, -19.094162, 9.5
6689, 33.2788261, -18.3204739, 9.5
6690, 33.0189395, -18.4715174, 9.5
6691, 32.7402481, -18.6015013, 9.5
6692, 32.4921368, -18.7494977, 9.5
6693, 32.7575186, -18.3182917, 9.5
6694, 34.1100019, -18.4853329, 9.5
6695, 33.7986735, -18.2984718, 9.5
6696, 33.8127632, -17.9967036, 9.5
6697, 33.5355318, -18.1508718, 9.5
6698, 33.2929158, -18.0187057, 9.5
6699, 32.252625, -18.6096049, 9.5
6700, 32.2659346, -18.910827, 9.5
6701, 31.9920095, -19.13389, 9.5
6702, 32.2315213, -19.2737827, 9.5
6703, 32.2372701, -19.562382, 9.5
6704, 32.2826263, -18.4094171, 9.5
6705, 32.0564241, -18.5707464, 9.5
6706, 32.8244722, -18.0822138, 9.5
6707, 32.5457808, -18.2121977, 9.5
6708, 32.3185779, -18.2066683, 9.5
6709, 32.1223771, -18.1678098, 9.5
6710, 31.7200832, -18.8861731, 9.5
6711, 31.6856699, -19.2491287, 9.5
6712, 31.8517187, -18.5484916, 9.5
6713, 31.88172, -18.3483037, 9.5
6714, 32.0641475, -19.9582714, 9.5
6715, 31.4380908, -19.6956514, 9.5
6716, 31.1661064, -19.4478761, 9.5
6717, 35.3345519, -14.4233132, 9.5
6718, 35.7910076, -14.9001157, 9.5
6719, 36.1157317, -15.179399, 9.5
6720, 35.059247, -14.5923239, 9.5
6721, 35.5350349, -14.7285367, 9.5
6722, 35.5157028, -15.0691264, 9.5
6723, 35.9944014, -15.4434825, 9.5
6724, 29.246354, -19.7781274, 9.5
6725, 29.8146711, -19.7352331, 9.5
6726, 30.8349752, -19.430298, 9.5
6727, 30.4776832, -19.6110953, 9.5
6728, 34.3318559, -18.2815136, 9.5
6729, 34.0748757, -17.8329056, 9.5
6730, 33.811734, -17.6853056, 9.5
6731, 34.3498308, -17.9843612, 9.5
6732, 34.3488016, -17.6729632, 9.5
6733, 34.6057818, -18.1215713, 9.5
6734, 33.8319185, -17.3656202, 9.5
6735, 33.569806, -17.5294182, 9.5
6736, 33.2990863, -17.7468078, 9.5
6737, 33.0423805, -17.9164099, 9.5
6738, 33.3192708, -17.4271224, 9.5
6739, 34.6340851, -17.5175768, 9.5
6740, 34.3591299, -17.3661212, 9.5
6741, 34.4080621, -17.1368426, 9.5
6742, 34.1227786, -17.2922291, 9.5
6743, 33.8808506, -17.1363417, 9.5
6744, 34.9069895, -17.666826, 9.5
6745, 34.9173178, -17.3599839, 9.5
6746, 34.8719631, -18.0031747, 9.5
6747, 35.1551959, -17.8455819, 9.5
6748, 35.19182, -17.1704204, 9.5
6749, 34.9189156, -17.0211711, 9.5
6750, 34.8780609, -16.701952, 9.5
6751, 34.6035587, -16.8915156, 9.5
6752, 34.3672073, -16.8176235, 9.5
6753, 35.4283347, -17.3568861, 9.5
6754, 35.4299325, -17.0180733, 9.5
6755, 35.4678769, -18.0330358, 9.5
6756, 35.5029033, -17.6966871, 9.5
6757, 35.1821207, -16.5020513, 9.5
6758, 34.8667637, -16.3723958, 9.5
6759, 35.5271482, -16.7009181, 9.5
6760, 35.515851, -16.3713619, 9.5
6761, 34.8864157, -16.0354014, 9.5
6762, 34.582356, -16.2353021, 9.5
6763, 34.3671812, -16.375696, 9.5
6764, 34.0485804, -16.4070528, 9.5
6765, 34.2441031, -16.6036532, 9.5
6766, 34.0486065, -16.8489803, 9.5
6767, 35.7973673, -16.2135796, 9.5
6768, 35.4523398, -16.0147128, 9.5
6769, 35.4213404, -15.6582429, 9.5
6770, 35.1398242, -15.8160252, 9.5
6771, 34.8554164, -15.6789316, 9.5
6772, 36.0716146, -16.351134, 9.5
6773, 36.0081034, -15.9944849, 9.5
6774, 35.7527658, -15.548818, 9.5
6775, 35.4402502, -15.3501304, 9.5
6776, 35.9754916, -15.751595, 9.5
6777, 35.1842774, -15.1785513, 9.5
6778, 35.0043881, -14.9191984, 9.5
6779, 34.9289355, -15.2002024, 9.5
6780, 34.6416058, -15.1634191, 9.5
6781, 34.8214952, -15.4227721, 9.5
6782, 34.4632913, -14.9846005, 9.5
6783, 34.5303963, -14.7696015, 9.5
6784, 34.8039051, -14.613975, 9.5
6785, 26.1766896, -19, -7.54765071
6786, 26.1748015, -19, 7.54816257
6787, 27.0941336, -19, 6.14791911
6788, 27.0817525, -19, 8.52049371
6789, 25.3742104, -19, 8.55520451
6790, 27.0834386, -19, -8.52136776
6791, 27.0929078, -19, -6.14616712
6792, 25.3701641, -19, -8.55735243
6793, 21.5971185, -19, -8.93105107
6794, 21.6564539, -19, 8.94247026
6795, 26.8019327, -19, 4.91063019
6796, 27.4378705, -19, 3.2521455
6797, 25.9244654, -19, 6.27431196
6798, 24.2310639, -19, 8.02907817
6799, 26.8022828, -19, -4.91057239
6800, 27.4431725, -19, -3.25219768
6801, 25.9238825, -19, -6.27454193
6802, 24.2320629, -19, -8.02949067
6803, 27.4421067, -19, -0.89996746
6804, 27.4508212, -19, 0.903839414
6805, 23.3197294, -19, -8.91364204
6806, 23.3216452, -19, 8.91376241
6807, 32.7349985, -18.2656116, 7.02070229
6808, 34.2576157, -17.839368, -6.92223876
6809, 35.4981825, -15.5436518, 6.76799246
6810, 16.8618011, -22.0575428, -0.270830293
6811, 36.0458465, -15.9218425, -7.00612727
6812, 32.4137192, -18.7828434, -6.65718535
6813, 34.9930456, -17.8357474, 7.2152453
6814, 34.1097746, -15.6932538, -7.14846567
6815, 15.1134193, -23.7614709, 2.88120111
6816, 15.1247802, -23.7598748, -2.89693152
6817, 34.0917117, -19.2851511, -8.21323106
6818, 34.1891589, -16.5065797, 7.0460769
6819, 33.7526578, -19.302308, 8.16502161
6820, 12.9883212, -19.1463279, 4.12056839
6821, 36.7619266, -21.4445769, 4.04112705
6822, 36.7615019, -21.440547, -4.04582686
6823, 33.5048273, -24.0008368, 4.04753572
6824, 33.5103209, -24.0010426, -4.04800034
6825, 32.4834591, -19.9027887, -7.89868806
6826, 13.1240445, -19.3075539, -4.35512518
6827, 33.1917641, -18.4822504, 8.24499631
6828, 31.2979812, -18.874811, 7.35187387
6829, 15.1706557, -17.9954169, 4.47605114
6830, 38.9996517, 2.37867656, 4.60644887
6831, 35.4875062, -18.0388563, -7.55008813
6832, 36.2320557, -16.7982807, 7.83116311
6833, 14.2644483, -24.0544565, -2.38876808
6834, 15.3629264, -23.5008485, -0.277335404
6835, 33.598059, -17.0512118, -8.08234928
6836, 19.873009, -17.9904557, 4.57203011
6837, 39.0304528, -2.26185376, 4.5259069
6838, 14.2465626, -24.0619297, 2.3848643
6839, 34.2604346, -17.8350891, 8.29951844
6840, 11.259957, -19.4036056, -4.2736149
6841, 11.841741, -20.1375011, 5.63490205
6842, 34.3972251, -18.4005517, -8.55734269
6843, 35.1255846, -14.728873, 7.3161858
6844, 13.393925, -18.0046221, -2.06875834
6845, 32.3964902, -18.575454, -8.46899853
6846, 18.9403946, -20.7594461, -1.33460525
6847, 18.4324726, -20.60679, 1.22178565
6848, 34.5696993, -17.1594303, -8.4119576
6849, 33.8599898, -20.7654427, -0.142242553
6850, 12.5141224, -20.1047821, -6.11499116
6851, 18.7134011, -22.9568556, -0.873068985
6852, 21.6504708, -17.9924947, -1.98293846
6853, 33.158043, -17.5710227, 8.34923051
6854, 32.0523171, -19.8955303, 7.58204625
6855, 36.2703161, 4.80217388, -4.5887457
6856, 16.548693, -23.4197659, -2.03296496
6857, 36.325631, 4.55164486, 4.90997791
6858, 29.9235435, -19.9659273, -7.21979584
6859, 15.6933353, -21.8705652, 1.67494531
6860, 39.1934089, -4.06897899, -1.95632876
6861, 35.2183543, -18.5802075, 7.79974085
6862, 34.8094132, -16.8683043, 8.44579519
6863, 36.5101695, -4.49556251, 4.39338564
6864, 35.9124349, 4.24258847, -6.87240867
6865, 19.1721814, -22.8083123, 1.37575154
6866, 39.0641864, 4.19699598, -1.78299931
6867, 36.3187074, -1.5503242, -1.51825158
6868, 10.4550066, -20.0473588, 3.68180319
6869, 35.1914149, -23.6644825, 4.27276612
6870, 37.2224271, -20.6315316, 4.30921268
6871, 36.1635702, -22.8508681, 4.26957248
6872, 36.7246936, -22.1802115, 4.48915083
6873, 34.4426426, -24.0147685, 4.27731038
6874, 35.3568644, -15.8439141, -8.1850927
6875, 36.6594456, -16.2346234, -8.19866707
6876, 31.4704978, -19.1234113, -8.35442153
6877, 35.1902179, -23.6670671, -4.27677472
6878, 37.2222462, -20.6334934, -4.28003857
6879, 36.1628775, -22.8504989, -4.26982533
6880, 36.7253093, -22.1784342, -4.4925248
6881, 34.4418362, -24.0127061, -4.27799441
6882, 13.5819428, -20.0559758, 6.74233748
6883, 15.5981096, -21.4276975, -1.92959486
6884, 15.851423, -23.5534563, 1.48051686
6885, 36.1340167, -15.2962745, 8.07605658
6886, 36.1749396, 1.77573711, 1.99776277
6887, 28.827886, -22.1052819, 1.50063016
6888, 36.220412, -1.5212917, 1.67305301
6889, 36.3441011, -4.45648607, -4.26323979
6890, 21.9447503, -19.2566653, -4.23605512
6891, 34.3812584, -15.8368415, -8.51743261
6892, 33.226712, -17.9055558, -8.58374511
6893, 36.4762875, 1.36576675, -0.457860809
6894, 38.3593319, 3.72456502, -3.7562389
6895, 33.179569, -19.0321878, -8.60264696
6896, 16.8511925, -23.6381108, -0.281520067
6897, 15.0376476, -18.0142105, -5.04680339
6898, 35.5785863, 6.89572966, -3.93014213
6899, 20.3701594, -18.0192279, -5.58610414
6900, 35.6292389, -13.5256775, -7.47269961
6901, 38.4356847, -3.9048636, -3.93729431
6902, 37.4098221, -6.00640928, -4.36631816
6903, 19.9915434, -21.2124018, 2.63776342
6904, 15.8076883, -20.1982894, 0.213764538
6905, 34.9840347, -18.481516, -9.02870354
6906, 34.6531161, -18.6586489, -9.02861169
6907, 34.7584548, -18.2912843, -9.02885518
6908, 39.4355572, -2.05378447, -5.99179094
6909, 39.9749331, -2.05301749, -5.93623453
6910, 39.7449766, -2.0412387, -6.33
6911, 20.8141526, -19.4635598, 3.53150391
6912, 20.9935822, -20.3009854, 3.71145373
6913, 20.042188, -20.3651662, 4.00686453
6914, 20.9935171, -21.1751996, 2.28919489
6915, 20.8031356, -20.3398786, 2.11151544
6916, 39.0337258, 1.01571542, -6.77940635
6917, 40.0143715, 2.04974569, -5.94580906
6918, 39.7113715, 2.01502626, -6.27548918
6919, 39.4832523, 2.02468461, -5.94392956
6920, 11.4138939, -17.5775006, -1.66769528
6921, 11.6865486, -17.3042606, -1.58307761
6922, 11.8766779, -17.5929757, -2.34899566
6923, 12.1465912, -17.2982608, -2.25252388
6924, 23.5844991, -17.5679869, -1.66787012
6925, 23.3130819, -17.3019757, -1.58794483
6926, 22.85057, -17.2945498, -2.26301423
6927, 23.1229506, -17.5816629, -2.34999615
6928, 27.3515226, -22.5847376, 0.975122142
6929, 27.2458791, -21.7203262, -0.0698610411
6930, 27.2519755, -22.7575201, -0.0519060128
6931, 35.6209756, -15.3783133, 8.78807898
6932, 35.6520376, -15.7343274, 8.78783693
6933, 35.9337743, -15.5767042, 8.78797021
6934, 39.4796727, 3.89295485, 0.524647813
6935, 39.61363, 4.10698796, 0.8356883
6936, 38.6201477, 4.71133618, 1.29205861
6937, 38.5636219, 3.60917189, 1.12547949
6938, 38.4718164, 4.48247346, 0.976224206
6939, 13.6156469, -17.7493294, 0.198204079
6940, 13.5620984, -18.0604829, 0.487449595
6941, 13.5584095, -17.7587933, 0.648366629
6942, 20.4807597, -22.4877983, -2.9733142
6943, 20.4838225, -23.2877434, -2.99263384
6944, 20.1411953, -23.3849616, -1.22513574
6945, 19.0912239, -22.8559434, -2.59651958
6946, 20.1318984, -22.5865596, -1.22931581
6947, 39.5103718, -3.90337722, 0.487709839
6948, 39.4220741, -4.19114095, 0.940302793
6949, 38.9916595, -3.93386774, 0.51023324
6950, 38.8746957, 2.79070601, 7.01262462
6951, 38.8534096, 0.4157343, 7.48297342
6952, 38.4579192, 0.461443822, 7.45139786
6953, 38.4674643, 2.79453607, 6.93194369
6954, 16.3663411, -24.2729109, 1.26673812
6955, 17.5222642, -23.1796544, 1.40352757
6956, 18.0356506, -23.9075624, 1.22196373
6957, 16.8660317, -24.3182221, 0.389362207
6958, 18.0124274, -23.2224186, 0.539494988
6959, 16.3551645, -23.593497, 0.598024679
6960, 16.5850738, -18.773746, -9.44651244
6961, 16.5885551, -18.7718837, 9.44675412
6962, 13.5816661, -18.7553131, 8.64745409
6963, 13.5798727, -18.7670765, -8.64346231
6964, 9.78060208, -18.7669106, 5.52217543
6965, 9.78143749, -18.7680118, -5.52433906
6966, 8.05470131, -18.7688732, 0.93195599
6967, 8.05477693, -18.7718561, -0.924627433
6968, 37.8960465, -1.60086611, -5.15507868
6969, 38.9779715, -2.43258177, -5.33076591
6970, 38.4738595, -1.58676913, -5.13531828
6971, 13.5943898, -17.4798779, 0.485981322
6972, 15.5201247, -24.278546, 1.56833609
6973, 15.1575646, -24.2800488, 1.6061594
6974, 15.1492229, -24.2785013, 1.2723373
6975, 21.7680588, -19.4617979, 4.03976498
6976, 20.2409352, -20.8369698, -2.76555913
6977, 20.5320817, -20.0639362, -3.05530456
6978, 18.9259834, -20.8961101, -2.64257312
6979, 19.2230948, -20.1188275, -2.88181545
6980, 20.2513138, -20.6847135, -1.46003978
6981, 33.4836882, -21.0095175, 5.12524636
6982, 35.9108452, -20.9548294, 4.57143722
6983, 34.3407995, -21.4737278, 4.51046423
6984, 32.8942445, -21.1395282, 2.43119126
6985, 35.3090884, -21.1041347, 1.94961017
6986, 34.4629781, -20.6259824, 2.55434482
6987, 39.4149568, 6.06540322, -1.70024286
6988, 39.8562385, 5.78304437, -1.61848731
6989, 39.3901246, 5.6171575, -2.35803381
6990, 39.8558676, 5.33895936, -2.26672256
6991, 14.3537489, -24.5241687, -2.03516212
6992, 14.6516594, -24.522048, -1.85701359
6993, 14.3186952, -24.521453, -1.74946715
6994, 20.4614943, -18.5562862, 6.59218523
6995, 20.3100253, -18.72309, 6.9241215
6996, 19.4537735, -18.2655282, 7.37567112
6997, 19.6300342, -18.1121374, 7.05895494
6998, 31.4022207, -19.4312381, 8.5399224
6999, 31.0451123, -19.6121783, 8.53975448
7000, 31.4858529, -19.8950592, 8.54035627
7001, 35.5998974, -21.9220679, 4.52729683
7002, 34.1450462, -21.5853821, 2.43599782
7003, 33.4870046, -20.6070283, 5.08671392
7004, 34.470915, -20.2296382, 2.54882888
7005, 29.2911078, -20.4558401, 8.2561112
7006, 29.6339689, -20.8208522, 8.25565112
7007, 29.8570974, -20.4129473, 8.25535642
7008, 36.3939276, -21.4752887, 4.51529109
7009, 15.9396712, -24.7083502, -3.93119425
7010, 15.9034087, -24.6953588, -3.59376296
7011, 15.6036954, -24.7100909, -3.75080389
7012, 19.2711709, -17.0139521, -5.14254323
7013, 19.061344, -16.8495606, -4.82770872
7014, 18.9344631, -17.2750815, -4.75265432
7015, 34.2780495, 6.42316114, 3.5454603
7016, 34.2929481, 6.89570106, 3.07145877
7017, 35.0587612, 7.7340049, 2.546276
7018, 35.2782717, 6.86923777, 2.35170886
7019, 35.0513521, 7.28337489, 3.18197472
7020, 22.7111884, -18.7814258, -1.66302043
7021, 22.9958531, -19.0863312, -1.69947699
7022, 22.6120469, -18.0097688, -2.84171423
7023, 40.085395, 1.95267853, -6.44071348
7024, 13.9420623, -17.0486696, 1.61890105
7025, 13.8807167, -18.48253, 1.13754615
7026, 13.3361114, -18.0035899, 2.03859209
7027, 12.9271989, -17.2984592, 1.58451306
7028, 12.9454067, -18.7833678, 1.07592563
7029, 34.7056209, -16.3835231, 8.97307823
7030, 34.9900632, -16.520745, 8.97312006
7031, 34.9590141, -16.1644221, 8.97325037
7032, 35.0551183, -3.39212091, 6.78047265
7033, 35.0378877, -3.0528371, 7.42977575
7034, 35.3008752, -2.25382588, 7.10462854
7035, 35.2778007, -1.84482662, 7.69371382
7036, 34.2845916, -3.27228864, 7.37969985
7037, 13.7772404, -20.323394, 4.65764196
7038, 13.2503222, -20.3276932, 4.68315895
7039, 13.3950919, -20.3271661, 4.28006704
7040, 14.2846601, -20.4956806, 5.37278917
7041, 14.7875559, -20.4928744, 5.34318379
7042, 14.3775323, -20.4913558, 5.82666829
7043, 38.9572032, 3.92866671, 0.492128194
7044, 39.253984, 3.87774093, 0.148987744
7045, 18.6855745, -22.7983855, 2.52716015
7046, 18.4337688, -23.428565, 2.48170381
7047, 16.77015, -23.8114027, 2.49707401
7048, 17.0335123, -23.1729521, 2.53991848
7049, 15.55558, -16.97418, -6.47959441
7050, 12.7380568, -16.9930664, -1.06605909
7051, 12.2874503, -16.9707403, -1.34021693
7052, 12.5276076, -17.302062, -1.24973215
7053, 33.6273494, -19.451156, 8.8327859
7054, 33.6300556, -19.1762409, 8.83276654
7055, 33.3799284, -19.3163974, 8.83298304
7056, 37.9008174, -5.4807321, -1.74245619
7057, 38.2346857, -5.21160305, -1.66522302
7058, 39.3991861, -5.62365733, -2.33878857
7059, 39.7012974, -5.33636889, -2.27336263
7060, 38.9986836, -5.1120556, -2.85493481
7061, 40.1017296, -1.97976992, -6.39900566
7062, 16.3253552, -23.2596802, 2.5718793
7063, 38.9623798, -6.13460736, 1.62890335
7064, 39.5210395, -6.38768127, 1.55914564
7065, 38.9639826, -6.16014985, 2.24341554
7066, 37.998432, -6.29145811, 1.74058732
7067, 20.239053, -21.6332754, -2.76042562
7068, 20.2418057, -21.4812346, -1.46345244
7069, 36.813029, 3.05106502, 3.02076582
7070, 36.0757987, 3.14272484, 3.1470498
7071, 36.105763, 3.05330944, 1.92278296
7072, 36.1220793, 1.90038866, 3.21175668
7073, 36.8461795, 2.92077415, 1.79008557
7074, 18.0150642, -22.4270249, 0.545303221
7075, 17.4441978, -22.3340479, 1.50497533
7076, 16.2834107, -21.9621964, 0.701805931
7077, 16.3626336, -22.8059994, 0.603328085
7078, 15.7740936, -22.7129598, 1.57777781
7079, 19.4310717, -16.96293, -6.5012856
7080, 21.4421596, -18.036632, 0.479940738
7081, 21.4044389, -17.7508194, 0.177724773
7082, 21.4014272, -17.4789911, 0.484147897
7083, 27.3744248, -21.6287213, 0.928744889
7084, 39.8942779, -5.85226567, 1.58555816
7085, 21.770242, -18.7007462, 3.60383792
7086, 19.8819793, -18.7405419, 5.02943997
7087, 20.8181367, -18.7162689, 3.07614118
7088, 39.051052, -2.57194359, -6.52261254
7089, 38.2571674, -1.74690745, -6.55193711
7090, 37.9120915, -1.82444648, -6.19639275
7091, 33.099675, -18.9065399, 8.8726854
7092, 33.0968303, -18.6182452, 8.87258805
7093, 32.8487224, -18.7660135, 8.87269464
7094, 12.8680068, -17.3023467, -0.820067394
7095, 12.9038584, -16.9740316, -0.55607734
7096, 17.0549462, -21.2242885, 1.434967
7097, 16.510999, -21.1752387, 2.61544907
7098, 17.8918682, -20.5307345, 2.39022084
7099, 17.1151278, -20.3861244, 0.722807743
7100, 16.5554443, -20.3236368, 1.9044206
7101, 15.7473594, -21.033374, 0.95922872
7102, 35.7573762, 6.41367049, 3.44520995
7103, 36.0108794, 5.9979197, 2.50875606
7104, 34.3674849, -16.7515185, 8.97289738
7105, 34.1998961, -17.0387127, 8.9727612
7106, 34.4906431, -16.9655086, 8.97286127
7107, 18.3931027, -23.9092462, 1.89368424
7108, 17.6559818, -24.517144, 2.96203784
7109, 16.7214523, -24.2768537, 1.96283094
7110, 40.0056783, 1.79097672, -5.17659552
7111, 39.4633587, 1.77233874, -5.15647448
7112, 16.8569481, -22.8482661, -0.275913007
7113, 34.9999027, -17.1887632, 8.97283174
7114, 35.3126627, -17.3761237, 8.97280413
7115, 35.2380204, -17.0365222, 8.97297728
7116, 12.3126154, -21.0012732, 2.66747473
7117, 12.6507023, -20.9954209, 3.03353287
7118, 12.1411561, -20.9918534, 3.16191059
7119, 14.615877, -16.986405, -6.91629657
7120, 16.9919735, -16.9910613, -7.41329976
7121, 14.6282369, -17.9497542, -6.89534572
7122, 37.9134694, 4.4821347, 0.881493586
7123, 37.7418137, -10.2104024, 1.71413813
7124, 37.0102844, -10.3359771, 1.19105741
7125, 37.0063548, -10.0252521, 1.84694619
7126, 33.9481721, -19.0643054, 8.83238894
7127, 33.8414507, -19.3319185, 8.83258601
7128, 37.9882304, 4.77567734, 1.3743039
7129, 35.0374255, 3.60767509, 6.82069724
7130, 35.0408894, 3.03195651, 6.988013
7131, 35.0364793, 3.31848445, 6.2190337
7132, 37.9920125, -4.45081496, -3.0833917
7133, 37.9708905, -3.7391399, -2.3372287
7134, 37.2268514, -3.99233944, -2.78204926
7135, 37.8641499, 5.48360352, -1.71656773
7136, 38.3860761, 5.24334334, -1.66853637
7137, 38.9851352, 5.1054358, -2.86456834
7138, 35.1591551, 4.36058217, 5.41462259
7139, 36.1886605, 3.48392783, 5.73079464
7140, 35.1566052, 4.67222504, 5.9973237
7141, 22.2297371, -19.369638, -3.21271433
7142, 21.7800018, -19.9433468, -2.93404782
7143, 22.606676, -20.1558264, -3.35039474
7144, 16.8827578, -21.7043298, 2.6036856
7145, 18.2502339, -21.0708254, 2.43245151
7146, 18.6141118, -22.1707214, 2.50343491
7147, 18.7945866, -21.7054757, 1.2973644
7148, 18.8111861, -23.8980002, 1.22893487
7149, 17.6446234, -24.3174435, 0.400076904
7150, 35.1551035, 5.49937962, 5.22608415
7151, 35.1602128, 5.7090803, 4.67303314
7152, 35.1592771, 5.05155487, 4.7231822
7153, 35.9275472, -19.0646275, -0.0344857997
7154, 35.9277994, -19.4094835, 0.946752234
7155, 35.9270045, -20.3820027, -0.0704258588
7156, 37.9486574, 1.55524309, -5.12079617
7157, 37.8089724, 1.35315868, -4.78752775
7158, 38.3922213, 1.24497079, -4.71683075
7159, 25.0013667, -16.9246536, 1.2106782
7160, 21.6756379, -22.497918, -3.34625171
7161, 22.5569667, -21.922929, -3.73525639
7162, 21.6811732, -21.6929144, -3.33239935
7163, 16.0688728, -20.670491, 2.74234008
7164, 16.1081222, -19.8445197, 2.05447605
7165, 37.7931985, -4.68723036, 1.26953143
7166, 38.3779599, -4.86566377, 1.3417559
7167, 37.9499025, -4.52647258, 0.908065324
7168, 39.9069524, 1.44382006, -4.73394216
7169, 17.1569157, -24.3180499, -0.144305567
7170, 17.7463648, -24.3186001, -0.204025075
7171, 40.0880528, 4.72020341, 1.77239962
7172, 39.9550368, 3.56042562, 1.62767688
7173, 38.9839091, 4.15289062, 2.04502586
7174, 35.7806533, -15.7407979, -8.84274963
7175, 35.5317205, -15.5191117, -8.84278145
7176, 35.9083546, -15.4818356, -8.84285796
7177, 34.1058473, -19.35869, 8.83214274
7178, 36.1751598, -2.8190348, -1.53652738
7179, 36.9369991, -2.63172157, -1.09934327
7180, 37.3579515, -2.72720831, -2.75109909
7181, 40.0175539, 7.49853916, 1.21963443
7182, 34.4924862, -18.4096889, -9.02882148
7183, 37.1804703, 3.89342854, -2.69513328
7184, 37.9588257, 3.63629605, -2.24938129
7185, 37.9385288, 4.37241138, -3.00798145
7186, 27.5241173, -24.2155413, -1.40982777
7187, 27.5482306, -23.1685916, -1.41676992
7188, 29.2515711, -23.5505838, 0.138138323
7189, 34.8113516, -23.0250403, 4.63868269
7190, 34.5286809, -22.2077378, 2.06291793
7191, 35.2994477, -22.6263892, 4.64151024
7192, 35.0121884, -21.8072798, 2.06314256
7193, 35.6837041, -23.2622102, 4.28817206
7194, 33.8914196, -18.143447, 8.89979971
7195, 34.2026166, -18.3303892, 8.89963366
7196, 34.1683652, -17.9895327, 8.89988379
7197, 9.99993774, -16.9815014, 1.21771812
7198, 39.2473582, -3.90303673, 0.189060887
7199, 38.3515595, -3.85437001, -1.26238949
7200, 38.3327888, -4.52193094, -2.08723374
7201, 38.8286394, -4.04648214, -2.98681328
7202, 38.3014269, 3.32614606, 3.05433592
7203, 38.3019442, 4.26669144, 3.58002848
7204, 36.9349374, 4.3265235, 3.28333027
7205, 36.9220558, 5.32592139, 3.71214084
7206, 37.7133523, 3.49924062, 4.80542898
7207, 17.2644448, -21.0718446, -1.61284846
7208, 16.2347565, -21.7407978, -1.10021048
7209, 17.8949008, -21.3957557, -0.795036654
7210, 17.3705585, -20.4566752, -0.549109807
7211, 16.3353015, -21.1232799, -0.0259461121
7212, 15.68915, -20.8015757, -0.861863687
7213, 20.0257807, -19.5955753, 3.57891896
7214, 34.2158953, -17.4490861, 8.90007346
7215, 33.9252193, -17.5222361, 8.90003087
7216, 34.1671253, -17.6782669, 8.89998599
7217, 22.7260553, -16.9683305, -1.36461098
7218, 22.3012726, -17.0011867, -1.082012
7219, 22.4912569, -17.2939494, -1.27598065
7220, 13.0619118, -19.1205211, 0.91486458
7221, 35.9880509, 4.19109519, 7.82610199
7222, 36.9954342, 3.57423672, 7.38984255
7223, 35.9968607, 4.76928406, 7.66349825
7224, 36.188912, 4.43974274, 3.38603384
7225, 36.1905582, 3.24570978, 4.68812176
7226, 33.9637628, -23.2026593, 4.52596036
7227, 32.7120118, -22.7574494, 4.51978118
7228, 33.6812879, -22.3792213, 1.94955991
7229, 34.1641105, -18.8809825, -9.02882326
7230, 34.2707468, -18.6132494, -9.0288549
7231, 34.428483, -18.9078078, -9.02867103
7232, 35.1229774, 5.19180775, -4.67447669
7233, 35.1185546, 5.61929624, -5.0647336
7234, 35.1219274, 5.15860342, -5.33583583
7235, 17.5295455, -21.0525138, 2.4503806
7236, 16.1709331, -21.7023193, 2.70491469
7237, 39.8464025, 2.77680154, 7.01302881
7238, 39.8410203, 0.427373092, 7.51512737
7239, 39.9702838, 4.46892922, 0.47663987
7240, 40.074975, 4.49395828, 0.00492561943
7241, 39.7312269, 4.44404845, 0.115375577
7242, 12.3591062, -18.0087671, 2.49772048
7243, 12.6543243, -17.5890732, 1.84438046
7244, 11.7507851, -19.1066586, 1.76514025
7245, 12.7113623, -19.0996594, 1.38191974
7246, 33.3818394, -19.6078552, 8.83307924
7247, 35.9526704, -15.2690802, 8.78821027
7248, 35.6963598, -15.0977932, 8.78832575
7249, 40.0890873, 2.85496589, -6.7700776
7250, 40.0754698, 0.531849864, -7.38261528
7251, 39.0722964, 2.83879449, -6.81428502
7252, 38.9255797, -2.66869821, -7.06702025
7253, 38.8681102, -0.307736312, -7.58968658
7254, 39.8647487, -0.270560941, -7.53598887
7255, 39.9946014, -7.48707524, 1.27031019
7256, 39.033753, 2.57703549, -6.47464686
7257, 38.9749988, 2.41238765, -5.32264825
7258, 37.9277115, 1.81984079, -6.12719996
7259, 17.6459327, -21.3234408, 0.470634423
7260, 39.9945006, -4.42916549, 0.35157746
7261, 40.0647889, -4.49555044, -0.151375145
7262, 39.7166531, -4.39706957, 0.0618899552
7263, 15.0202911, -24.3788906, -2.50427315
7264, 15.5560002, -24.3742438, -2.35171145
7265, 15.082649, -24.3767954, -2.11336367
7266, 14.882209, -24.2492905, -0.69682982
7267, 15.2074454, -24.2502933, -0.80452178
7268, 15.1185156, -24.2484405, -0.4006574
7269, 34.7872551, -16.3346164, -9.00871357
7270, 34.4710427, -16.1991935, -9.0086926
7271, 34.7785608, -16.0032393, -9.00882661
7272, 32.8294608, -18.7398544, -9.05154804
7273, 33.1093754, -18.6057031, -9.05140006
7274, 33.0918931, -18.8925199, -9.05144182
7275, 15.9089516, -19.9500531, -2.29198212
7276, 17.5856703, -19.5863263, -2.02048526
7277, 15.9073312, -19.3066438, -1.28273905
7278, 33.6051622, -19.5526548, -8.85756857
7279, 33.7967538, -19.4423311, -8.85730437
7280, 33.8030294, -19.6712317, -8.85750922
7281, 40.0038091, 1.52210613, -5.65103043
7282, 32.835322, -18.4648947, 8.87256447
7283, 20.5779089, -22.7438365, -4.70045794
7284, 21.6669351, -23.3168296, -3.35122665
7285, 34.5103531, -18.1124905, -9.02895045
7286, 36.7959854, -3.03631355, 3.02000571
7287, 36.068039, -3.15292493, 3.15531591
7288, 36.2856793, -4.41052539, 3.11542937
7289, 36.2795489, -3.21951783, 4.43488432
7290, 37.0159408, -4.2784159, 2.99614862
7291, 33.3498359, -18.7663792, 8.87249538
7292, 14.3542939, -24.5290669, 2.06000327
7293, 14.7203692, -24.5248298, 2.02266109
7294, 15.0500792, -23.8045548, 1.93071396
7295, 11.1247371, -20.7763664, 4.39479964
7296, 10.5660782, -20.778207, 4.179871
7297, 11.2600104, -20.7696196, 3.85612924
7298, 16.9494989, -22.3289491, 2.62334803
7299, 35.4445096, 5.28328676, 3.79117491
7300, 35.397165, -17.3354419, 1.0184745
7301, 35.3966243, -16.9892355, 0.035066755
7302, 33.3335288, -18.6799314, -0.0700258459
7303, 38.0008961, 3.23702904, 1.64969518
7304, 39.4778282, 3.25668755, 2.20022256
7305, 39.7149916, 3.29218734, 3.57617259
7306, 38.7666856, 2.4348654, 3.2262665
7307, 39.1182201, -2.89673938, -6.77482084
7308, 39.5237779, -3.7900424, -6.42393985
7309, 38.6151938, -1.70663823, -6.69318621
7310, 38.0538967, -3.49026912, -6.63397494
7311, 14.6679582, -17.2816518, 6.9785563
7312, 17.0295854, -17.292272, 7.4712817
7313, 14.6827005, -18.2474653, 6.95073556
7314, 17.0261787, -18.2702699, 7.48557489
7315, 18.8384866, -19.2241052, -4.77821804
7316, 19.0656467, -19.088847, -5.11038839
7317, 18.7417951, -18.7991462, -4.74223781
7318, 36.056287, -2.8981826, -2.89969853
7319, 36.2003783, -4.24880319, -2.93709285
7320, 36.1898872, -3.07326985, -4.23171369
7321, 37.2507064, -2.7715397, -4.09615178
7322, 37.3990423, -4.19004823, -4.10205804
7323, 20.3154204, -19.571756, -2.22653202
7324, 19.1424741, -19.002807, -3.5621468
7325, 18.8910631, -19.5918641, -1.95924852
7326, 35.7562215, -6.9279858, 3.41632895
7327, 36.0001425, -5.95703989, 2.50106267
7328, 34.2886401, -6.91797455, 3.52059667
7329, 35.2627851, -6.17002508, 4.3737463
7330, 35.5331339, -5.26799563, 3.53129222
7331, 37.0271444, -5.29887944, 3.46276023
7332, 35.1723891, -5.35411124, -4.48018635
7333, 35.1772891, -4.6324895, -5.57784647
7334, 35.1681181, -5.97372927, -5.58318665
7335, 18.9077087, -23.900299, 0.627615604
7336, 18.9423762, -22.8794083, 0.250227241
7337, 18.6858658, -23.9775585, -0.494965452
7338, 17.786636, -23.2960926, -0.57546818
7339, 34.5148868, -14.3948136, 6.0342686
7340, 34.4546337, -14.6604972, 8.40783417
7341, 34.5161923, -14.3889509, 8.40796542
7342, 33.1139893, -18.3351631, 8.8724767
7343, 32.9022009, -18.2289687, 8.87244152
7344, 12.0047968, -19.1212102, -1.72008756
7345, 12.2640545, -18.7854975, -1.66683173
7346, 12.399572, -17.9915176, -2.83632424
7347, 34.4533232, -14.6653363, 6.03355468
7348, 21.9258307, -17.0011485, 0.344869018
7349, 21.9013825, -17.2859958, 0.0514990741
7350, 22.0011269, -16.9596658, -0.180923386
7351, 27.8113727, -24.0508559, -0.39145814
7352, 36.4609012, -22.1570319, 4.16899058
7353, 37.2940255, 2.21061103, 3.17528289
7354, 37.3613524, 2.05845287, 1.94567171
7355, 20.0095125, -23.9016845, -3.44985906
7356, 21.1097077, -24.386936, -2.01343658
7357, 19.6772025, -23.9935377, -1.67558389
7358, 36.1373182, -1.77940132, 3.04734253
7359, 36.1334751, -2.92257679, 1.78279451
7360, 36.8754835, -2.7684315, 1.64161229
7361, 35.0422302, -7.82910083, 3.11597795
7362, 35.2693331, -6.90958431, 2.39465789
7363, 36.2082901, -15.7138377, 8.78788157
7364, 36.1756395, -15.4713605, 8.78804601
7365, 14.5170144, -16.9990841, 6.64451158
7366, 40.1013559, -2.90773024, -6.71751391
7367, 38.2651447, 4.58790451, -1.98836895
7368, 38.2826198, 3.9189836, -1.18288385
7369, 38.7202333, 4.01256185, -2.79764567
7370, 20.3257842, -16.9462605, -6.82474461
7371, 35.2558812, -5.71248391, 5.75980295
7372, 35.2652734, -4.45434105, 5.72221479
7373, 35.2630329, -5.07199408, 4.76602944
7374, 34.2781195, -6.72059318, -3.56974542
7375, 35.0529403, -6.14282631, -3.5861085
7376, 35.2666683, -6.58464338, -2.43650862
7377, 34.2749348, -7.89807955, -3.15367756
7378, 34.9992377, -7.35031885, -3.22205133
7379, 15.6676248, -24.6323733, -4.07839526
7380, 37.9987495, -1.25332277, -4.72435037
7381, 39.5035614, 4.85420567, 1.85359071
7382, 34.8814447, -16.9957514, -8.95615439
7383, 35.1180245, -17.1820196, -8.95612469
7384, 34.8797615, -17.3340777, -8.95605284
7385, 18.1259194, -22.5924869, -2.2121432
7386, 18.8110317, -21.9942235, -2.38857693
7387, 33.9052389, -17.8418064, 8.89995017
7388, 15.3682785, -21.7227108, -0.430800033
7389, 15.4022114, -22.2254924, -0.0714240673
7390, 14.6224984, -22.4410529, -0.438144936
7391, 14.6605268, -22.9404292, -0.0751684416
7392, 16.1105506, -22.7821457, -0.271403425
7393, 36.4863639, -15.589443, 8.78789705
7394, 34.4242388, -18.1267783, 8.89976384
7395, 20.6289694, -19.5181147, 8.89251469
7396, 14.3431277, -24.5266986, 1.72395294
7397, 38.9813278, 2.12021414, -4.55632619
7398, 37.9703804, 2.58042331, -1.71494466
7399, 37.2562483, 2.71825987, -2.15210768
7400, 38.4439919, 2.52336276, -3.26510765
7401, 17.6639581, -20.7005639, -2.56272747
7402, 18.240616, -20.1187304, -2.44246693
7403, 15.9597061, -21.0204139, -2.90111236
7404, 16.5373158, -20.4534613, -2.71820263
7405, 38.8958773, -2.15844768, 6.98476212
7406, 39.4788622, -2.10950691, 6.94104921
7407, 39.2013412, -2.11848099, 6.65971698
7408, 38.5485118, -3.63008472, 1.13638429
7409, 18.2301305, -21.4974522, -2.43864051
7410, 16.5412063, -21.8313928, -2.70110288
7411, 30.6680272, -19.1008117, 8.42640537
7412, 31.0252967, -18.9202115, 8.4262682
7413, 31.6754406, -19.3852448, 7.46640391
7414, 38.9904542, -2.12312477, -4.57385899
7415, 39.9523466, -1.74847558, -5.14105415
7416, 33.6680185, -18.6546347, 8.87214889
7417, 33.3566722, -18.4674656, 8.87244137
7418, 15.4631024, -24.2751778, 0.84265181
7419, 15.7465421, -24.2757859, 1.15317174
7420, 17.4075925, -19.4961157, 3.1672199
7421, 17.9883221, -19.5222258, 2.09571799
7422, 16.6152487, -19.3103806, 1.63560769
7423, 32.4380507, -18.5116015, -8.98449509
7424, 32.4525615, -18.8119162, -8.98457979
7425, 32.2272485, -18.643826, -8.98458402
7426, 15.4371597, -17.2806951, -6.27663947
7427, 15.439942, -16.9979574, -5.94215904
7428, 16.4320489, -24.5440555, -3.50448424
7429, 16.2178233, -24.546867, -3.39290261
7430, 16.4180128, -24.5422619, -3.17432735
7431, 12.9756666, -17.277999, 0.621621909
7432, 12.8116091, -16.9901281, 0.807904931
7433, 13.0226722, -17.0049182, 0.443922074
7434, 16.2503921, -22.4217106, 2.67081775
7435, 34.2764387, 5.78349441, 3.58986441
7436, 35.1583531, 5.05602876, 5.58304227
7437, 30.386418, -21.8139459, 3.24135689
7438, 31.1644538, -23.087599, 2.78856858
7439, 31.3503955, -21.4344919, 0.67532846
7440, 23.1760409, -17.9926879, 2.95910357
7441, 22.1499672, -18.0121495, 2.52108148
7442, 21.2795596, -17.2524727, 4.06195479
7443, 17.4972751, -17.524786, 7.63304375
7444, 17.5006821, -18.9757913, 7.60804071
7445, 17.7863775, -18.2782674, 7.5477352
7446, 33.3737907, -17.3905471, 8.92476324
7447, 33.5413205, -17.1033553, 8.92480869
7448, 33.2564343, -17.1106459, 8.92478862
7449, 37.0334317, -2.86149912, 4.07797663
7450, 37.0239485, -3.46313696, 4.94285037
7451, 16.5874536, -23.9847279, 3.2956665
7452, 17.0397983, -24.5328794, 3.2185823
7453, 16.1269006, -24.2778481, 2.23884579
7454, 39.9410318, 3.5743, 0.631100955
7455, 40.1008681, 4.68038302, 0.785394638
7456, 36.1539623, 3.24156432, -4.40479357
7457, 36.1493193, 4.4132493, -3.10249114
7458, 36.0371996, 2.87961267, -2.88680733
7459, 37.2009528, 2.66800913, -4.01018822
7460, 37.3496149, 4.29417135, -4.16420225
7461, 37.9975397, 1.79252729, 3.01540672
7462, 36.8590086, 1.46036346, 2.90333406
7463, 35.7054473, -6.12753808, -4.52125628
7464, 36.8821449, -5.23117891, -4.32541473
7465, 35.6946387, -6.73625919, -5.62360211
7466, 16.7960761, -18.9908786, -3.19424866
7467, 21.8709061, -20.477667, 5.26952214
7468, 23.6704068, -20.5105327, 3.72016917
7469, 22.9009854, -21.3374072, 3.49311445
7470, 21.5297178, -19.2696373, -1.90080422
7471, 22.0342872, -18.7381006, -2.17458505
7472, 21.8354151, -18.6041871, -3.16475937
7473, 39.5794821, 3.93795112, 0.032476098
7474, 18.8208896, -21.852838, -1.09458722
7475, 37.2475295, 1.54331459, -3.3826012
7476, 36.2452891, 2.70091669, -1.00034927
7477, 37.5221681, 1.31955012, -1.53939606
7478, 36.2603256, 1.51060108, -2.32443838
7479, 11.0354679, -18.8442842, 4.53374547
7480, 11.2562499, -19.1093976, 4.74059529
7481, 9.43359914, -18.7654045, 5.00215358
7482, 9.84878875, -19.2819345, 4.23142341
7483, 10.0261384, -19.5518497, 4.47705572
7484, 11.7200507, -19.5993078, 3.90787078
7485, 12.1671084, -16.9926347, 1.48008171
7486, 12.7690481, -17.001429, 1.77989631
7487, 12.0354047, -17.581382, 1.5431961
7488, 18.5650411, -21.7754718, 0.172956136
7489, 18.6791565, -20.6587562, -0.0562313485
7490, 19.0455038, -21.7765304, 0.0320417909
7491, 21.5538905, -17.766534, 0.806836663
7492, 35.6885744, -16.5140596, 0.0346950066
7493, 35.6867097, -15.5747211, 0.836840105
7494, 35.6877995, -16.8620278, 1.01717195
7495, 33.5550082, -19.1970419, -9.05138882
7496, 33.3435866, -19.0413406, -9.05140227
7497, 33.661745, -18.9294357, -9.05123351
7498, 15.6409493, -24.3724224, 2.47698717
7499, 15.7605005, -24.3786816, 2.9569768
7500, 15.473019, -24.3801433, 2.90580148
7501, 33.6336494, -19.6801158, 8.83276429
7502, 20.7565252, -18.9731031, 1.73187572
7503, 19.9215535, -18.2299536, 3.23624403
7504, 19.940722, -19.8253722, 2.26481869
7505, 38.3822661, -5.76344513, 1.77797274
7506, 37.8302617, -5.60063881, 1.7629329
7507, 33.868023, -19.581048, 8.83262306
7508, 35.9285543, -19.3876309, -1.04653861
7509, 38.2822402, -1.68798911, 4.18609852
7510, 38.2814622, -2.31662335, 5.03076831
7511, 37.7987236, -3.41740106, 4.45344398
7512, 19.7670443, -20.0534756, 0.348195921
7513, 20.0015447, -20.0548755, 1.41031293
7514, 19.7516469, -20.967083, 0.757652293
7515, 39.9088275, -4.80874619, 1.6283177
7516, 39.9393792, -3.52940161, 1.42946876
7517, 39.9993147, -4.45940739, 1.22559067
7518, 19.6046842, -17.4995678, 6.96432376
7519, 19.6188799, -17.8071586, 6.69482523
7520, 19.982111, -21.0197388, -0.522796212
7521, 19.8774128, -22.1338098, -0.279438497
7522, 20.1222032, -22.0570734, 0.830084612
7523, 35.3978207, -17.3124432, -0.978926565
7524, 33.5371104, -19.8883739, 8.83279441
7525, 35.0491444, 3.07012801, 4.1691736
7526, 35.0571602, 2.34138644, 3.6192104
7527, 35.028512, 3.51525474, 2.31258818
7528, 35.0592554, 4.20334994, 2.88045386
7529, 32.0133977, -21.0064235, -8.74541837
7530, 38.4368189, -2.95989586, 6.53212393
7531, 38.7292229, -2.93817831, 6.22004279
7532, 38.0226203, -3.54729713, 6.02044658
7533, 38.2198382, -1.79079815, 5.61651344
7534, 37.9255604, -1.79600813, 5.89124984
7535, 26.8109299, -24.0527103, 0.478457419
7536, 26.6555085, -24.1977751, -0.547490681
7537, 39.9627535, -1.52128495, -5.62074904
7538, 22.178447, -17.2998711, -0.887261917
7539, 21.9631091, -18.0245975, -1.19274029
7540, 22.0954366, -17.7137563, -1.40626957
7541, 21.8489981, -17.2691789, -1.69887429
7542, 15.3169689, -24.3776643, -2.74657369
7543, 15.4987523, -24.3781143, -2.96483906
7544, 15.7018458, -24.3758611, -2.74651784
7545, 37.8956078, 4.97186116, -1.5103657
7546, 39.7443121, 3.77215171, 4.1603636
7547, 38.9802035, 5.64627177, 3.08065853
7548, 38.4216903, 4.96573229, 4.33067062
7549, 34.0374398, -19.5723685, -8.85709046
7550, 34.0108037, -19.3232776, -8.85700671
7551, 34.2750949, -19.3501801, -8.85675414
7552, 35.0560725, 3.38860262, -2.08287813
7553, 35.0238601, 2.21893134, -3.40295645
7554, 35.2494437, 2.03146093, -1.5362581
7555, 14.9870752, -24.2487062, 3.40772305
7556, 15.2391498, -24.3214992, 3.43628436
7557, 15.1797791, -24.1236037, 3.6120576
7558, 34.1436465, -7.63216682, 3.33490252
7559, 35.043421, -7.50454746, 2.26709296
7560, 13.6484233, -21.2473292, 1.82305158
7561, 13.3864377, -20.499029, 2.16178704
7562, 14.5392186, -21.681654, 2.22812459
7563, 14.5659834, -20.6696919, 1.62037195
7564, 14.7460753, -21.4208348, 1.23163248
7565, 16.9362893, -18.9906015, 3.35747339
7566, 18.208479, -16.8568423, -4.57985992
7567, 18.0749282, -17.2960868, -4.5060185
7568, 35.161381, -1.50772849, -0.932390921
7569, 35.1599876, -0.736698108, -1.21704583
7570, 35.119618, -0.708866417, 0.358643243
7571, 36.2974292, -1.53053796, 0.086735845
7572, 35.1193205, -1.49258539, 0.661430537
7573, 16.0941365, -24.2090004, -1.39705901
7574, 16.2645287, -24.2099003, -1.92632813
7575, 16.6330878, -24.2075888, -1.50484328
7576, 17.2758197, -24.2058209, -1.60712425
7577, 16.8317318, -24.209231, -2.12322122
7578, 17.5542262, -24.201638, -2.26240424
7579, 35.699063, -16.8314991, -3.36126124
7580, 35.6901263, -15.4088031, -3.08337779
7581, 35.7044413, -16.2121847, -4.38041539
7582, 14.815038, -22.1321312, 0.904340121
7583, 15.5366968, -22.6813746, 0.70041038
7584, 20.6808544, -21.0616016, -3.26324367
7585, 37.2936992, -2.1916335, 3.18002465
7586, 37.981556, -3.23334816, 1.65521277
7587, 37.5449789, -3.44558608, 3.11581184
7588, 15.8417143, -18.9906193, -3.57175893
7589, 15.0444488, -19.9715579, -3.15045056
7590, 14.7763704, -20.4724129, -4.02097168
7591, 15.5638573, -20.4485963, -3.20268642
7592, 14.77578, -21.4499258, -2.77798556
7593, 14.5293707, -17.0464196, -2.44267098
7594, 14.2631775, -17.7462378, -1.99053604
7595, 13.6540571, -17.2742742, -2.52670572
7596, 14.4634719, -17.2674411, -4.01960554
7597, 14.1726908, -17.9762225, -3.57763646
7598, 15.0568526, -17.74302, -3.49057281
7599, 39.9473271, -3.55659737, 0.577671376
7600, 19.3008536, -17.8031873, 7.34773815
7601, 11.4528266, -17.0113824, -1.63052754
7602, 39.9983553, 2.9784475, 6.64098921
7603, 12.9158162, -20.3324813, 4.38228089
7604, 38.0398119, -1.65599046, -3.60628542
7605, 37.4284487, -1.41772638, -2.06185196
7606, 36.9196339, -1.77256587, -2.97682747
7607, 37.9861576, -2.90544551, -4.23769278
7608, 38.487482, -2.61768821, -3.35936574
7609, 15.2233803, -24.247476, -0.0349452563
7610, 14.9165008, -24.2461751, 0.394588268
7611, 15.6095666, -23.5250442, 0.60472104
7612, 17.4226876, -24.318514, -0.734100193
7613, 23.5646123, -17.0276724, -1.64406477
7614, 35.6092464, -16.2069608, -8.84251188
7615, 35.275117, -16.3377802, -8.8423769
7616, 35.2663965, -16.0065145, -8.84254146
7617, 20.0324508, -20.095184, -0.976239159
7618, 32.247137, -18.469326, -8.98453463
7619, 38.8663168, -3.4870269, -1.31421625
7620, 38.0095807, -3.29497574, -0.572349682
7621, 38.4842561, -3.47203673, -2.36272938
7622, 37.9797128, -2.61476281, -1.75544849
7623, 26.6369738, -21.4392326, -3.25391613
7624, 28.7574655, -23.2866689, -3.16815811
7625, 28.3876785, -21.8122233, -1.80009283
7626, 39.7065063, 1.799156, 5.78653097
7627, 38.2308634, 1.80376505, 5.65185368
7628, 38.9903055, 2.39011116, 5.68719586
7629, 39.7213772, 2.3919474, 5.20534974
7630, 38.2730653, 2.35734261, 5.07619702
7631, 38.9714922, 1.80037513, 5.20610419
7632, 37.0295678, 2.49222744, -0.518906507
7633, 13.9303306, -24.6523654, -1.28503057
7634, 13.9531086, -24.65565, -1.56383832
7635, 13.8618644, -24.1844716, -1.91563702
7636, 34.787676, 6.24355439, -4.34537513
7637, 34.7842612, 6.67447135, -4.73469263
7638, 35.918483, 5.85047275, -4.27915011
7639, 21.0545529, -17.0512355, 0.576616321
7640, 35.1607833, 4.35782781, 4.40541068
7641, 16.0027714, -24.2764159, 1.76591714
7642, 14.7352746, -21.4130919, -1.25599608
7643, 15.4772704, -22.4676773, -1.10628969
7644, 19.8589868, -24.5847434, -3.33252187
7645, 18.9366218, -23.5446851, -2.47590869
7646, 14.2037036, -20.4835161, -6.01194401
7647, 14.4224885, -20.4914164, -6.53848829
7648, 14.6437273, -20.498092, -5.95194684
7649, 17.1857938, -22.1479851, -1.91686881
7650, 19.5183448, -17.765474, -5.68379447
7651, 19.5148891, -18.2832237, -5.65340101
7652, 19.2693016, -18.0272968, -5.2669534
7653, 11.7012796, -20.4512279, -4.16325034
7654, 11.4493127, -20.4514871, -4.52981049
7655, 12.0520527, -20.4506019, -4.47707855
7656, 37.7199471, 7.12536268, 3.60736269
7657, 35.9837887, 7.55209477, 4.59049375
7658, 36.9824254, 7.94734868, 3.27526894
7659, 14.5528426, -20.8829699, -8.60013343
7660, 15.0363214, -20.8921791, -8.76043698
7661, 15.430475, -19.8892524, -8.60479479
7662, 16.0286301, -20.4661092, -8.38971465
7663, 15.5089334, -20.4746507, -8.24749115
7664, 39.7406893, 0.316719193, -7.55682651
7665, 40.0843347, 0.136534993, -7.60298932
7666, 20.3902653, -18.8573299, -3.52526499
7667, 20.6765194, -19.3724325, -4.39822561
7668, 34.2800108, 0.796884966, -2.29679232
7669, 35.2850477, 0.873386327, -3.66647999
7670, 35.0418412, 1.64887687, -2.69092269
7671, 35.2420227, 1.45907128, -0.862873814
7672, 35.5162726, 0.663491543, -1.89411914
7673, 32.2265719, -19.5549501, -8.69881405
7674, 32.2719386, -19.307773, -8.69845102
7675, 32.4971393, -19.4758848, -8.69852631
7676, 37.9550866, -1.80677969, 2.95901991
7677, 34.2789423, -5.83520167, 3.88731058
7678, 37.3878909, -1.83448761, 1.76674804
7679, 18.359365, -23.9801905, -1.02401437
7680, 18.6439805, -23.9784078, -1.683819
7681, 17.6372112, -23.1828978, -1.44857252
7682, 20.9624479, -19.5639523, -1.13214519
7683, 20.8169203, -18.9974149, -0.601461168
7684, 19.7157163, -19.5803671, -1.01977436
7685, 34.4521989, -17.5230795, 8.90006184
7686, 14.7406186, -23.1274903, 1.33346076
7687, 14.9021721, -22.9728257, 0.805226122
7688, 14.8272443, -23.5823068, 1.12049423
7689, 16.5315585, -19.0031757, 7.80837617
7690, 16.2470144, -18.7561531, 8.651328
7691, 15.3102713, -19.2804723, 8.38840323
7692, 15.6103076, -19.2680367, 8.44961389
7693, 16.5749999, -18.7506954, 8.68626679
7694, 15.7940624, -24.2116273, -1.68867311
7695, 15.8358883, -23.590841, -2.46181843
7696, 36.8712023, 5.94945756, -3.46607182
7697, 36.1441931, 5.39925381, -3.52752741
7698, 36.8987064, 4.88194692, -3.40332396
7699, 32.8439901, -19.0401593, -9.05158618
7700, 21.4806177, -21.2719161, -3.7596364
7701, 11.6272606, -20.9993527, 2.91979689
7702, 10.7451122, -20.7694741, 3.60197656
7703, 11.349277, -20.2702548, 3.00792685
7704, 16.2156034, -19.5981456, -3.23203617
7705, 14.4801825, -24.5281138, 2.28140277
7706, 35.5458388, -15.8504694, -8.84266906
7707, 14.6895797, -23.9209453, -2.65361284
7708, 14.8238096, -23.7659195, -1.33570363
7709, 15.2482431, -23.6272688, -1.58554061
7710, 36.5545751, 6.99048755, -3.09061287
7711, 35.8061879, 6.44428883, -3.20496324
7712, 14.1768053, -24.5847174, -0.642292158
7713, 14.4187354, -24.5737369, -0.34873785
7714, 14.6511479, -23.837232, -0.230942858
7715, 34.2837282, -7.99512483, 3.00094784
7716, 35.2531252, -7.82257566, 1.81859681
7717, 35.095835, 2.23762171, 2.42520173
7718, 14.6056526, -23.5549197, 0.250544982
7719, 32.4870439, -19.8082746, -8.69897826
7720, 32.802441, -19.8624104, -8.69864455
7721, 32.8333565, -20.1130992, -8.69912285
7722, 17.7911304, -22.5039572, -0.571945198
7723, 17.0301685, -22.8331014, -2.79087787
7724, 16.7074282, -22.737985, -1.1520635
7725, 35.0577856, -3.6643058, -2.33835817
7726, 35.0310826, -2.46976019, -3.66842289
7727, 35.1754157, -2.43287139, -2.3228545
7728, 36.1739102, -1.66499848, -2.84816889
7729, 15.1542764, -24.374849, 2.27368208
7730, 15.2466524, -24.3768758, 2.69484842
7731, 14.9154725, -24.3781474, 2.53313716
7732, 37.7710127, -8.19915044, 3.1232805
7733, 37.7562129, -8.83584738, 0.848434763
7734, 15.2469399, -24.3218228, -3.44494723
7735, 14.9948561, -24.2480586, -3.41521079
7736, 15.1887136, -24.1287209, -3.61833733
7737, 32.4840492, -18.0515727, -8.9843859
7738, 32.5064543, -18.2739998, -8.98442571
7739, 32.2774941, -18.270194, -8.98446973
7740, 10.785951, -20.8877701, -6.00693672
7741, 10.4550157, -20.8852478, -5.60864641
7742, 10.9194479, -20.4727649, -4.61748206
7743, 10.8383313, -19.8646814, -5.26116905
7744, 11.2590572, -20.4647179, -4.99858777
7745, 37.9480428, 2.79767165, -4.14207134
7746, 37.9760199, 3.14098361, -5.1661506
7747, 39.4043881, 3.34217979, -4.91401584
7748, 20.8329184, -20.3768781, -4.62883907
7749, 11.4537127, -19.1017863, 4.97312314
7750, 10.3340128, -19.016033, 3.63479205
7751, 12.2165542, -19.2989897, 3.3128418
7752, 10.9616992, -19.7690129, 3.06450899
7753, 22.2894854, -18.0375591, -1.57397251
7754, 22.1740829, -17.2693701, -2.73902766
7755, 21.2779668, -18.7327897, -1.34537105
7756, 20.975558, -18.2504974, -1.36258215
7757, 36.027209, 0.00298874303, -3.48136204
7758, 35.441394, -0.774310009, -2.38969995
7759, 36.908269, -0.778351835, -2.50716952
7760, 37.0033675, 0.673627993, -1.99623577
7761, 36.4085196, -0.102875361, -0.980208695
7762, 14.049566, -20.903984, -8.32179379
7763, 14.7220986, -19.9156669, -7.77711603
7764, 14.875908, -20.5136922, -7.38042338
7765, 14.3787402, -20.4971443, -7.10097481
7766, 34.2798455, 0.0423753914, -2.15701221
7767, 35.2422847, 0.70920084, -0.691360282
7768, 15.9537278, -23.4610384, -1.15863442
7769, 15.3534149, -22.6014492, -2.40608192
7770, 16.071634, -22.4273899, -1.97376797
7771, 35.0682591, -2.13341275, -8.04341693
7772, 35.2873345, -2.26923405, -7.06575888
7773, 34.2948642, -2.59335396, -7.559433
7774, 34.2730541, -3.65948613, -6.72775886
7775, 35.0122788, -3.38961179, -7.20610238
7776, 13.0424296, -20.3311186, 3.91819534
7777, 12.5381087, -20.3349729, 4.04935132
7778, 12.62082, -19.8228837, 3.23229743
7779, 34.2788506, -0.894983534, -2.69670465
7780, 34.1468592, -1.57739259, -2.88476697
7781, 35.2827907, -1.48101068, -2.55282084
7782, 35.1587881, -1.66503501, -1.79986767
7783, 18.8818318, -19.7803475, -3.25053185
7784, 34.289236, -3.54252407, 6.20771822
7785, 35.2723152, -2.50693757, 5.98338778
7786, 36.2863384, -3.48959349, 5.47724286
7787, 35.5135333, -3.5577851, 4.89883091
7788, 36.9441271, -4.70394709, -3.26583799
7789, 13.9118909, -17.0493114, 0.635869008
7790, 35.2649272, -15.6781554, -8.84267637
7791, 35.2540793, -15.4099532, -8.84274573
7792, 20.6663288, -21.8593734, -3.27494226
7793, 34.2366145, -18.2723675, -9.02891779
7794, 14.4446816, -24.0879288, -1.05446873
7795, 14.1271764, -24.0902248, -0.946216261
7796, 14.5876403, -23.339461, -0.523115701
7797, 14.0469961, -23.6154521, -1.57708592
7798, 18.2359497, -19.605426, -0.686840678
7799, 16.6180323, -19.336952, 0.109106492
7800, 34.1437753, -21.586568, -2.57668923
7801, 32.8940951, -21.1385784, -2.57171531
7802, 34.9346923, -21.1386672, -2.57354738
7803, 39.4544159, -3.44702705, -5.00978744
7804, 37.9895613, -3.2407033, -5.25939091
7805, 16.0262301, -24.213116, -2.31708026
7806, 16.4121228, -24.2097599, -2.31659597
7807, 20.4568839, -23.2529134, 4.54923271
7808, 21.7674422, -22.8859101, 3.37690388
7809, 20.4084298, -23.4269845, 2.91677793
7810, 19.5503216, -22.5324341, 3.33738755
7811, 20.8666312, -22.1065776, 2.18279828
7812, 20.9224135, -21.9872707, 3.82269195
7813, 14.5854858, -24.5247445, -2.24605166
7814, 13.6186191, -17.2998457, -0.49830601
7815, 13.6060269, -17.0183769, -0.219334276
7816, 36.5596523, -15.6773706, -8.84971054
7817, 36.8800267, -15.3379208, -8.84975802
7818, 36.9106856, -15.763822, -8.84951572
7819, 38.7853593, 3.55114581, -1.23433739
7820, 39.2973558, 3.29650935, -1.86089136
7821, 38.971904, 3.06736526, -2.87815003
7822, 38.4760704, 3.37061939, -2.2815581
7823, 19.2857688, -23.9805762, -0.166827477
7824, 19.5062532, -23.9023287, 0.969152857
7825, 19.089073, -23.9776823, -0.958250151
7826, 14.8902601, -21.3132981, 0.176920773
7827, 14.8545454, -20.8029363, -0.187375176
7828, 20.4290612, -22.8980242, 1.55646302
7829, 19.1240618, -23.3062342, 2.73846757
7830, 19.5720621, -22.0246759, 2.0041553
7831, 18.0367514, -16.9429773, -7.44192588
7832, 33.6512096, -18.0250365, -9.04188252
7833, 33.3895841, -17.8730451, -9.04192583
7834, 33.6500318, -17.7129964, -9.04191024
7835, 35.1169108, -1.02847415, 1.52227637
7836, 36.9784543, -13.5168013, 8.12822634
7837, 35.9947752, -11.8379951, 6.44671479
7838, 34.9778754, -11.8310887, 7.82177626
7839, 36.9761876, -12.3574885, 8.53943724
7840, 35.9912505, -10.6928232, 6.85506606
7841, 21.2527464, -23.9252555, -3.81414661
7842, 13.6069952, -24.5340398, 1.51267646
7843, 13.9375303, -24.531798, 1.61200641
7844, 13.9327053, -24.5262867, 1.27520135
7845, 18.0384513, -23.610796, -2.98994572
7846, 14.0722553, -19.2882757, 4.80618298
7847, 13.830828, -24.0626802, 1.9359633
7848, 39.9104715, -5.34918888, 2.31184705
7849, 39.9052822, -5.39194193, 1.57883175
7850, 35.5418865, -14.1229028, 8.40951679
7851, 36.5630058, -14.1229774, 7.03675245
7852, 37.0678383, -14.4024627, 7.41498118
7853, 35.6297002, -15.0130899, 7.6962651
7854, 36.0461642, -14.4057191, 8.7888835
7855, 35.1699095, -3.86060885, -3.66707117
7856, 33.3706681, -18.1659204, 8.8722154
7857, 38.9853194, -5.65318099, 2.99138139
7858, 39.0091385, -4.64512871, 2.50857642
7859, 38.5051403, -4.93566114, 3.97274912
7860, 33.3503436, -18.7421528, -9.05130981
7861, 39.9558357, -2.37145636, -3.25142565
7862, 39.9516914, -2.98110133, -2.44954362
7863, 38.9958043, -3.16418085, -2.96426066
7864, 39.4581083, -3.75814779, -3.48255445
7865, 39.443097, -3.11781844, -4.28150169
7866, 38.7734137, -2.35541931, 3.20238548
7867, 35.552631, -17.1049951, 1.01687075
7868, 35.5534903, -16.7582484, 0.0348860497
7869, 39.068625, -4.75909047, -1.53627523
7870, 39.8190377, -4.62660614, -2.71002203
7871, 34.4044074, -17.6921597, -2.50266477
7872, 37.0232665, -18.3940775, -3.50723723
7873, 34.932839, -19.775341, -2.57091665
7874, 26.3903343, -19.2432841, -1.11265227
7875, 26.4172168, -20.0550614, -0.658211253
7876, 26.1344656, -20.1577025, -1.64750451
7877, 38.000847, 3.29619862, -0.573833522
7878, 15.5354656, -20.524438, 3.93845647
7879, 15.6299159, -21.508753, 3.86626895
7880, 15.2019144, -21.6825012, 2.89880287
7881, 33.1008677, -19.1766652, -9.05151162
7882, 33.1492823, -19.4267018, -9.05159891
7883, 32.8342015, -19.3727075, -9.05173473
7884, 20.4728335, -21.266086, 1.50196284
7885, 19.2034325, -20.8979626, 1.92572581
7886, 36.8715541, -1.3071497, 2.75427364
7887, 31.5342876, -24.5151184, -2.69813386
7888, 32.7115378, -22.7690552, -4.52370394
7889, 30.7712309, -23.3149243, -3.14013205
7890, 31.7471947, -22.8891324, -0.689152869
7891, 33.6867435, -22.3832136, -2.0884021
7892, 12.9247558, -17.7246544, -1.43290665
7893, 13.0598414, -18.0175251, -1.19839913
7894, 13.1760058, -17.2816094, -1.6989878
7895, 35.8353064, -18.3081779, -6.27694641
7896, 35.8359409, -18.3064299, -8.52498068
7897, 36.0691417, -17.9922198, -6.27575799
7898, 30.2954889, -20.6964771, 8.25565343
7899, 39.7522573, 4.69494536, -2.62333802
7900, 39.1473488, 4.82129699, -1.46491379
7901, 15.1849466, -24.3811512, 3.10987265
7902, 33.3408517, -19.3162206, -9.05149313
7903, 18.8553306, -16.8537245, -5.30597201
7904, 19.0414939, -17.0244629, -5.63327083
7905, 36.0701769, -17.991269, -8.52534279
7906, 39.3552482, -3.22489213, -1.94414893
7907, 38.8703288, -2.76368556, -2.42216135
7908, 35.1980066, -22.1501759, -0.0689045718
7909, 35.0172037, -22.3158633, -0.068414162
7910, 36.1681172, -23.3578032, 2.12955122
7911, 36.348651, -23.1931402, 2.12963696
7912, 36.8981444, 3.38676568, -4.53183112
7913, 18.8476328, -24.5648933, -3.2939416
7914, 32.8991454, -17.7162976, -9.04196525
7915, 33.1023427, -17.4963104, -9.04194989
7916, 33.1516798, -17.756806, -9.04194363
7917, 14.2333777, -18.968178, 1.73755339
7918, 14.5438856, -19.9617064, 2.71139257
7919, 13.686634, -20.4845151, 2.53424308
7920, 14.8255545, -21.6838327, 2.60424097
7921, 15.4220318, -20.1583959, 1.78814971
7922, 35.5528571, -17.0823571, -0.977159942
7923, 22.1957915, -18.8248583, 1.19863707
7924, 21.9505857, -19.0950059, 0.89101589
7925, 21.1301683, -18.4863422, 1.13937628
7926, 39.9578066, 2.36971022, -3.24873941
7927, 39.9515412, 2.98028792, -2.44646334
7928, 39.3992538, 3.02379812, -4.19343499
7929, 39.4210595, 3.66952634, -3.39649085
7930, 36.2434017, -17.7016943, -6.27582069
7931, 34.0170745, -15.9842292, -9.00865268
7932, 34.2837225, -15.9569724, -9.00872688
7933, 34.150392, -16.2282055, -9.00863093
7934, 40.0967194, 5.31876391, 1.47812852
7935, 39.5109852, 5.47037446, 1.54641932
7936, 19.2540064, -18.7297428, 4.21099411
7937, 19.2980196, -20.3561991, 3.18953096
7938, 36.3722456, -0.0811056974, 0.607429651
7939, 15.5033593, -24.2501276, -0.51226346
7940, 15.7193085, -19.0279379, 2.97587125
7941, 15.1725593, -20.4967677, 3.64378893
7942, 32.3902824, -20.9592614, 8.88297273
7943, 35.1371894, 3.7467211, -3.60561838
7944, 13.7464162, -20.4945431, -1.73795822
7945, 12.9417574, -20.5130793, -2.47879619
7946, 14.7301961, -20.4694369, -1.24589576
7947, 14.129883, -20.4461862, -2.17493962
7948, 14.5248109, -21.4205562, -2.41633443
7949, 37.0767967, -12.2727944, -8.53871832
7950, 37.0775978, -13.4301947, -8.12867202
7951, 36.8099668, -12.3676616, -7.52461937
7952, 36.812853, -13.5187772, -7.11238885
7953, 35.894994, -13.4345328, -8.48741853
7954, 26.0577239, -24.196517, -1.92385943
7955, 19.500071, -17.0071269, 7.19354686
7956, 20.1947761, -16.9732739, 6.66900176
7957, 39.9966918, -2.00815339, 7.18971707
7958, 40.0261804, -2.69995737, 6.66574982
7959, 20.0872459, -17.2849353, -5.09361812
7960, 34.7848326, 6.9302215, -4.29433399
7961, 14.6537407, -22.2830868, 1.43016287
7962, 34.2772538, 3.16479396, -4.05879576
7963, 34.2801439, 2.41284634, -3.47949228
7964, 35.2824238, 1.85090671, -4.30476727
7965, 35.0236704, 2.98107082, -3.99731488
7966, 24.6585178, -22.4813103, -3.37501003
7967, 23.6450591, -22.3868361, -3.71638441
7968, 24.6897745, -21.4012535, -3.39827704
7969, 22.1373605, -23.9286166, -3.69729017
7970, 22.6775848, -23.0370042, -3.78124731
7971, 33.2535645, -24.4994715, 2.02649704
7972, 33.4968921, -24.484223, 2.02075801
7973, 33.4297399, -22.8854176, -0.0704377326
7974, 33.6753319, -22.8720338, -0.0688767506
7975, 32.4280519, -20.1415151, -6.59956916
7976, 33.2094954, -19.5975388, -6.83396086
7977, 33.2215094, -20.9535845, -6.77637542
7978, 32.4690281, -20.6997103, -7.22183993
7979, 33.2413151, -20.1604067, -7.45273789
7980, 32.4488241, -19.3428557, -7.27751526
7981, 15.1406239, -17.0389529, -3.25604317
7982, 15.1132856, -17.2832229, -4.81136012
7983, 35.0253283, -9.46612904, 1.74595852
7984, 35.9942065, -11.3935122, 2.37263012
7985, 35.0152617, -9.12016952, 2.35584443
7986, 14.1343968, -24.301305, 0.919477132
7987, 15.1950193, -24.3801781, -3.11820099
7988, 36.0069032, -4.57668956, 7.64141247
7989, 37.0317006, -3.59743794, 7.40186702
7990, 36.9968494, -3.2219677, 8.01309979
7991, 16.7006081, -23.5270405, -1.15750865
7992, 36.2253351, -1.89932529, -8.533774
7993, 36.9399884, -2.18553669, -8.11344755
7994, 36.9789124, -1.43004619, -8.8375474
7995, 19.455542, -19.5131069, 0.284875249
7996, 15.5074477, -19.306291, 1.03515353
7997, 34.4420773, -17.8297806, 8.89990054
7998, 36.6482825, -15.294021, 8.78802313
7999, 36.2970987, -15.2075921, 8.78821399
8000, 39.7014853, -3.89318496, -0.533155577
8001, 40.037561, -3.99484411, -0.74317902
8002, 39.0769381, -4.41998421, -1.16164963
8003, 39.4146035, -4.55426629, -1.36071674
8004, 39.8243764, -3.50620229, -1.31995905
8005, 33.1330943, -18.0422012, -9.04194059
8006, 32.8532008, -18.1763549, -9.0420208
8007, 32.9215596, -17.9387565, -9.04198143
8008, 20.255994, -24.1727602, -0.439308138
8009, 20.5045447, -24.3967806, -1.29477409
8010, 19.8822733, -23.144013, -0.352543131
8011, 33.2575289, -24.4969349, -2.02063416
8012, 14.9705054, -22.9664915, 2.02320868
8013, 13.9412332, -23.3759776, 1.78248582
8014, 39.4787849, 0.0152758802, 7.61950746
8015, 38.5352396, -0.275681809, 7.55142075
8016, 38.0170935, 0.00457299836, 7.61213445
8017, 20.635294, -18.9908561, 0.739599296
8018, 19.0978237, -19.508004, 1.53429255
8019, 36.6176842, -14.8685946, 8.78841561
8020, 15.5206227, -24.075112, -3.52711816
8021, 15.4845972, -23.6544152, 2.17762394
8022, 35.1301326, 4.54381769, -4.17003179
8023, 35.4162641, 3.43870236, -4.46753496
8024, 34.2795278, -3.29711592, 8.55834079
8025, 35.0211489, -3.10370882, 8.62766274
8026, 33.7364944, -24.4512834, 2.02115473
8027, 33.9184685, -22.8353663, -0.068261214
8028, 34.8818193, -17.0413979, 4.87682719
8029, 35.5679442, -17.1004862, 3.40010016
8030, 37.344998, -18.0026091, 3.54518235
8031, 37.1202742, -18.3175761, 3.53961821
8032, 34.6473564, -17.3561457, 4.87510421
8033, 16.2442084, -24.3195441, -0.515057112
8034, 16.7821892, -24.3188944, -0.630709609
8035, 35.0554965, -2.23115691, 3.50907475
8036, 35.032973, -3.41651302, 2.18583415
8037, 35.267877, -3.49954357, 3.46598437
8038, 15.6992028, -17.2897394, 5.73479844
8039, 15.7053468, -18.7598312, 5.60222262
8040, 15.1053575, -18.0146319, 5.69285117
8041, 15.1393002, -17.2767741, 5.13406626
8042, 15.1496469, -18.7422166, 4.99132561
8043, 15.7381095, -18.0361895, 5.08730254
8044, 35.2869052, -8.22772402, 1.12790103
8045, 34.283432, -9.27897064, 2.28628793
8046, 33.9754483, -24.3982338, 2.01951922
8047, 34.156651, -22.7758584, -0.0684922172
8048, 16.6674248, -24.5413169, -3.37299649
8049, 35.4714539, -16.0819293, 8.26079763
8050, 33.9313538, -16.3291632, 8.27323993
8051, 34.1800763, -16.3432876, 8.27333118
8052, 34.1087371, -16.0671866, 8.27344397
8053, 14.7053005, -18.2450828, -2.48244706
8054, 15.5985447, -18.2427982, -3.86611761
8055, 21.7274949, -19.0959434, -0.165198527
8056, 20.9678825, -18.4836292, 0.111875477
8057, 19.4126177, -17.3200139, 7.27749327
8058, 35.0234852, 4.15939495, -2.67354962
8059, 19.904119, -18.7576328, -5.04294406
8060, 15.9477257, -23.3692277, 3.2518534
8061, 36.8911871, 3.62526373, -5.5728806
8062, 21.2619082, -17.5202044, 2.68926794
8063, 35.6878608, -15.419521, -0.70387453
8064, 35.6884586, -16.8390506, -0.978544613
8065, 21.644486, -18.0125762, 1.85473568
8066, 22.1588681, -17.293993, 1.52167223
8067, 21.0398932, -17.0626153, 1.42155465
8068, 15.4036708, -22.8143507, 2.27040623
8069, 14.6790154, -23.9103627, 2.6358275
8070, 30.4848545, -20.1863961, 7.18062325
8071, 30.8582337, -20.6978881, 7.29540327
8072, 37.8872793, 4.1722008, -0.134045318
8073, 37.8805425, 4.32456619, -0.668061815
8074, 38.2376085, 4.22028517, -0.477564585
8075, 11.8253021, -20.8181329, 5.36475307
8076, 11.9489852, -20.8159697, 4.8201204
8077, 11.1369913, -20.102211, 4.66234598
8078, 19.2951005, -19.013603, 2.97931305
8079, 34.646698, -17.3557963, -4.87611384
8080, 34.8817571, -17.0409709, -4.87745571
8081, 35.567077, -17.0765784, -3.35869038
8082, 37.3439987, -17.9800524, -3.50579493
8083, 37.1203094, -18.2941432, -3.50103684
8084, 34.596761, -17.4917414, -8.95598622
8085, 34.8448785, -17.670549, -8.95592541
8086, 20.1155158, -23.0681075, 0.771802315
8087, 38.9961085, -4.13239439, 1.86264848
8088, 14.0313823, -23.830319, 1.57807858
8089, 34.5613911, -17.4616652, -2.50528761
8090, 36.7291688, -14.917717, 5.529285
8091, 36.7497969, -14.5277179, 6.76286203
8092, 36.7304764, -14.9180234, 6.83173398
8093, 13.4859429, -20.8876003, -8.08804612
8094, 13.0445837, -20.8842366, -7.81125258
8095, 13.0883656, -20.8041854, -6.89421705
8096, 12.6504093, -20.8053796, -6.61518724
8097, 12.8970604, -20.1922847, -7.30435967
8098, 36.0200543, -7.59264499, 5.95003392
8099, 35.9937466, -6.9642125, 4.97049835
8100, 37.2242596, -6.41096924, 4.6234885
8101, 35.7805361, -3.65200807, -6.73075351
8102, 37.7779866, -3.5710425, -7.44286655
8103, 36.982216, -3.35626615, -7.89227152
8104, 36.0057612, -4.81260139, -7.57090077
8105, 15.5058272, -24.2490533, 0.279734737
8106, 29.3928649, -21.955108, -0.624861999
8107, 29.6619216, -21.8890723, -0.62323335
8108, 28.9828935, -20.4998304, 0.741552807
8109, 29.254366, -20.4337248, 0.742004353
8110, 9.46588383, -20.4049916, 2.62924058
8111, 9.0568948, -19.8722484, 2.28564961
8112, 9.46924246, -20.1652887, 3.37351704
8113, 9.95671498, -19.7737401, 2.65650891
8114, 10.4201928, -20.2978185, 2.9542465
8115, 17.9843854, -19.5306528, 0.615674465
8116, 35.4378, -18.8670192, 8.64975923
8117, 35.4364431, -18.8738024, 6.41444517
8118, 35.6068957, -18.6809004, 6.40274015
8119, 33.4074113, -17.543176, -9.04192781
8120, 35.0498196, -3.00653382, 4.14425713
8121, 35.2647353, -4.25165339, 4.12670424
8122, 35.0275748, -3.61564201, -6.19038672
8123, 35.0639024, -3.24630672, -5.11169118
8124, 35.1775123, -4.22689156, -4.52464939
8125, 36.2046036, -3.42578613, -4.86575132
8126, 35.1103012, -2.00659709, 2.13727534
8127, 9.25576059, -20.8876035, -3.50728683
8128, 9.79524915, -20.893884, -3.99115184
8129, 9.71707735, -19.8770007, -3.21073375
8130, 10.5244206, -20.4958546, -3.00363923
8131, 9.98389995, -20.4968464, -2.55297043
8132, 12.7254696, -18.0446278, -1.59865807
8133, 37.2853085, -3.56914591, 6.54846587
8134, 36.2621981, -4.58827688, 6.76869594
8135, 37.5068764, -4.64886828, 5.43576212
8136, 36.298046, -5.87522652, 6.83008671
8137, 39.4778218, -3.7531107, 2.69169974
8138, 39.4782522, -3.23424553, 2.01529918
8139, 36.1867283, -2.53570058, -0.495128359
8140, 36.878245, -2.57356271, 0.589240464
8141, 36.1328096, -2.58540255, 1.15687481
8142, 34.278619, 4.56138844, -3.05414799
8143, 35.2524611, 4.45750958, -1.97575076
8144, 35.4080819, 4.80818091, -3.50166954
8145, 15.9780574, -24.6299733, 3.45913257
8146, 16.0452335, -24.6344082, 3.85086148
8147, 15.6989128, -24.6423329, 3.66929117
8148, 36.8559238, -16.7535032, -6.60059045
8149, 37.0254962, -16.3974653, -8.84947246
8150, 37.0244073, -16.3989677, -6.55995089
8151, 34.2873963, -3.33266101, -5.68752283
8152, 35.3011899, -2.50726762, -6.02687439
8153, 10.0115539, -18.5463033, 1.32583427
8154, 9.95805548, -18.008795, 1.2260456
8155, 10.1689546, -18.2310098, 1.595089
8156, 19.622659, -18.0145675, -4.53693735
8157, 36.1439914, 3.59624647, -5.03059062
8158, 14.2496449, -17.5219733, 2.19646337
8159, 13.2209408, -19.3041495, 2.86577783
8160, 13.1314823, -17.8319367, 3.34986345
8161, 14.0738737, -18.7840867, 2.99489898
8162, 39.9125953, 1.2540713, -5.18956391
8163, 35.7016942, -18.5761908, 8.65058285
8164, 40.0931662, -1.5623115, -4.81965186
8165, 39.4809231, -1.81685929, -3.63204812
8166, 39.1303731, -1.07717588, -3.92024028
8167, 38.5443462, -0.964659178, -3.86225199
8168, 39.5153742, -1.45742994, -4.75092852
8169, 37.0348794, -8.77464219, -0.798311058
8170, 36.2667367, -9.12044606, -0.315005203
8171, 35.2580554, -8.26460763, -1.07152138
8172, 35.0289114, -9.40387076, -2.01018997
8173, 34.2810929, -9.70725356, -1.53297597
8174, 36.0092522, -10.2289213, -1.2668816
8175, 21.9096289, -21.9588301, 3.48589559
8176, 35.9719246, -14.9290868, 8.78852423
8177, 35.2439309, 0.403598186, 0.471689149
8178, 35.142023, -19.141547, 6.51631799
8179, 10.52212, -20.8942308, 5.46731018
8180, 10.1444749, -20.8943147, 4.97450894
8181, 9.99472572, -20.2716071, 5.75928374
8182, 11.1065026, -20.2138614, 5.94471475
8183, 10.7253726, -20.2191492, 5.45410495
8184, 11.2619662, -20.8236033, 5.15207216
8185, 37.9020294, -1.70260985, 5.34759013
8186, 37.890463, -1.6563531, -6.72799765
8187, 10.6823218, -20.8906294, 5.97908501
8188, 11.4211338, -20.8220946, 5.663633
8189, 36.8577038, -16.7522978, -8.8492332
8190, 20.4250111, -24.1450887, 0.356731836
8191, 16.2616693, -24.6298575, 3.49105251
8192, 15.6130633, -24.0177085, 3.42517677
8193, 35.3119041, -15.1362185, 7.04196213
8194, 35.8157393, -15.4203578, 7.42259823
8195, 35.193822, -2.05942478, -8.98921723
8196, 36.2164869, 0.129585367, 1.81419712
8197, 35.1028908, 0.622875375, 1.67478728
8198, 36.3361294, 1.54568996, 0.774413758
8199, 22.4638298, -19.097765, -1.53805256
8200, 37.9100599, 1.67517407, 5.36564702
8201, 37.9092991, 1.80681906, 5.89524797
8202, 14.515387, -17.9588558, 6.62768167
8203, 37.9100075, -0.51958156, 4.2852131
8204, 37.9221399, -1.03018263, 4.53846654
8205, 38.228455, -0.802494594, 4.36265984
8206, 13.2911009, -20.4064549, -4.88932229
8207, 13.7443211, -20.4032871, -4.832746
8208, 13.4285464, -20.405108, -4.39467004
8209, 15.6061132, -24.423605, -4.23384803
8210, 25.5260091, -18.6199036, -0.397039942
8211, 25.3079747, -19.0166938, -0.578625693
8212, 25.3540814, -19.0695694, -0.13475203
8213, 21.0125597, -18.9975285, 6.0266999
8214, 23.0310551, -19.0265971, 4.53928802
8215, 21.040033, -18.2248534, 5.59491007
8216, 35.7004529, -16.8557109, 3.40466606
8217, 39.7209247, 2.81984016, 4.49638716
8218, 12.4400382, -20.802366, -5.87148342
8219, 12.6359107, -20.8000628, -5.40645202
8220, 12.044199, -20.8077536, -5.45861047
8221, 37.9229277, -15.2789747, 3.12041018
8222, 37.9806837, -14.8919614, 2.98529317
8223, 20.7326865, -17.5285163, 2.01349285
8224, 33.4721936, -18.8923423, 8.20549728
8225, 14.709338, -22.3049571, -1.34785062
8226, 36.1841571, -5.23350861, -3.38544367
8227, 36.7194369, -6.00575688, -3.40065736
8228, 15.859999, -22.6385251, 3.26750648
8229, 9.18150132, -18.7977864, 0.761545391
8230, 9.14209441, -18.7975179, 0.449751874
8231, 9.93937757, -19.0510567, 0.87031694
8232, 8.76583036, -19.2504793, 1.09078183
8233, 8.84152744, -19.263861, 1.40419902
8234, 27.3643351, -20.2771051, -3.37143828
8235, 27.9398656, -20.2596038, -4.88088325
8236, 27.9619757, -20.2647, -2.51637918
8237, 37.6070743, -20.3118357, -2.13157473
8238, 37.6072104, -19.3120496, -3.11838858
8239, 35.5369056, -20.6931893, -2.20100135
8240, 21.9783247, -17.0017719, 1.22080715
8241, 13.5737294, -18.7679577, -7.77000478
8242, 13.2998163, -18.7690871, -7.59782398
8243, 13.3087459, -18.7621084, 7.66091955
8244, 13.6003751, -18.7672624, 7.76732829
8245, 13.1386992, -20.7992175, -6.31730383
8246, 14.8378817, -20.6073224, 0.519182556
8247, 13.5472612, -20.4046183, -3.93956336
8248, 14.3613983, -19.3723763, -4.42924778
8249, 14.6263447, -18.875808, -3.56712322
8250, 38.2202136, 0.806274737, 4.36429273
8251, 37.9142204, 1.04121814, 4.53321627
8252, 37.9085731, 0.522819155, 4.30287242
8253, 35.0592574, -4.14921415, 2.85278847
8254, 39.2263475, 0.944793025, 3.8593774
8255, 38.5341506, 1.23964659, 3.38865301
8256, 38.9706473, 1.47761742, 4.77501325
8257, 38.219573, 1.76399675, 4.21871013
8258, 39.2615215, 1.88324912, 3.65586754
8259, 13.6901588, -17.5196894, -6.33282316
8260, 13.6249231, -24.6579025, -1.486223
8261, 15.8398251, -23.9229665, -3.33087804
8262, 34.2893534, 3.74796097, -2.55961957
8263, 15.7611033, -24.5707166, 4.00039282
8264, 34.5348366, -17.3517134, 8.37269966
8265, 31.1686125, -19.3740354, -6.93992832
8266, 31.188285, -20.7323403, -6.876559
8267, 31.2011365, -19.9347998, -7.55889353
8268, 31.7334291, -19.4486015, 8.54017805
8269, 37.3905372, -0.789387817, 0.850435536
8270, 37.3652873, 0.892438984, 1.0216876
8271, 37.5121447, 0.692928267, -0.2300346
8272, 36.2529706, 1.52933027, -8.86374468
8273, 35.264855, 0.58443823, -8.43715763
8274, 37.0284583, 0.945288499, -8.90452243
8275, 36.9967548, 1.90280119, -8.44259262
8276, 35.2858113, 1.54705036, -7.97273211
8277, 13.714192, -21.4394087, -1.75872078
8278, 10.0299254, -20.1785709, 4.47670763
8279, 35.335206, -16.7195978, 8.97313889
8280, 35.0014185, -16.8501356, 8.97301145
8281, 13.6505896, -22.3312266, -1.81581776
8282, 13.8216513, -22.7707106, -2.59384189
8283, 14.9329237, -22.7479037, -2.1635451
8284, 18.5838893, -16.978874, 4.53674156
8285, 18.0977752, -16.9974092, 4.30307885
8286, 18.3701799, -17.3009122, 4.35952846
8287, 40.0849222, -1.51444758, -6.10257567
8288, 10.2151574, -18.9807519, -4.5511786
8289, 10.5110437, -18.9196261, -3.4504239
8290, 11.9219383, -18.9415802, -5.44173976
8291, 15.9648534, -17.0015132, -5.65131948
8292, 15.7372847, -16.996901, -5.17696952
8293, 16.0398575, -24.2740942, 0.753976396
8294, 37.2701017, -21.448246, 2.01656372
8295, 37.33671, -21.2117098, 2.01654239
8296, 35.8219672, -21.1104758, -0.0693741226
8297, 35.8817149, -20.8723959, -0.0699353311
8298, 35.1700298, -1.81450292, -0.2971679
8299, 35.0721776, -2.81972652, 0.746377625
8300, 35.1177126, -1.80684717, 1.29934272
8301, 14.0292571, -18.4905107, 0.115084894
8302, 13.2718097, -19.0905141, -0.155827357
8303, 21.7231166, -18.7744257, -0.482274955
8304, 21.8193047, -19.0835191, -0.707818651
8305, 34.2697931, -15.4630905, -9.00880321
8306, 34.5358274, -15.5410961, -9.00886703
8307, 34.3647532, -15.6807235, -9.00880998
8308, 14.7545611, -24.1338182, 3.32512885
8309, 14.8977603, -24.3469198, 3.1480816
8310, 29.6066963, -23.5728867, 1.49311685
8311, 30.9257609, -23.5514277, 0.757089513
8312, 14.6315887, -24.245745, 3.11332446
8313, 19.8806107, -18.0312276, 5.69180384
8314, 19.2996713, -18.7759178, 5.63736954
8315, 19.3003893, -17.3065373, 5.78712201
8316, 19.8761951, -17.2757244, 5.17496986
8317, 19.3076583, -18.0277199, 5.1670542
8318, 15.794695, -24.2492212, -0.119425134
8319, 22.6940755, -24.0919469, -4.54222268
8320, 22.6987207, -24.074019, 4.5498327
8321, 34.4904836, -16.5236851, 8.97299218
8322, 34.6860154, -16.720378, 8.97298548
8323, 37.2423946, 0.000984458643, 3.17490794
8324, 36.113116, 0.902852792, 2.75047983
8325, 37.3752942, 0.929325872, 2.48884809
8326, 37.3951812, -0.775000857, 2.3290048
8327, 36.1382796, -0.773622561, 2.60379045
8328, 32.5303491, -19.6142488, 8.54012069
8329, 32.2794608, -19.4735469, 8.54012539
8330, 32.2850774, -19.7621993, 8.54041369
8331, 33.9594176, -18.4260632, -9.02890555
8332, 28.3106448, -23.5365672, 0.991129651
8333, 36.2901574, -6.18608637, -6.72043145
8334, 36.2707375, -4.80842762, -6.69485499
8335, 37.4370277, -4.63963794, -5.38770708
8336, 33.4840527, -20.6049391, -5.0873715
8337, 33.4798533, -21.0051538, -5.119935
8338, 34.4608474, -20.6245857, -2.68594955
8339, 34.4687179, -20.2279032, -2.68658705
8340, 9.02063976, -20.8914853, 2.2535017
8341, 9.28472201, -20.4051577, 2.04194296
8342, 8.36347325, -20.2700517, 2.44981598
8343, 8.87580135, -20.8843336, 1.64960612
8344, 37.7358863, 7.49763038, -3.70796189
8345, 37.1075365, 6.36205949, -4.96491483
8346, 36.7803485, 7.39292501, -4.60062264
8347, 34.1405544, -15.7136789, -9.00873589
8348, 38.5154803, -1.24363092, 3.37582657
8349, 39.237179, -0.932676698, 3.84864166
8350, 39.0053283, -1.42748294, 4.72858037
8351, 39.2778586, -1.81210325, 3.60790097
8352, 15.7120852, -16.9939437, 6.06127191
8353, 38.029833, -0.00626804483, -1.867422
8354, 37.4352959, -0.800258862, -0.776217155
8355, 40.0129908, -0.583425644, 4.29508137
8356, 39.7148553, -0.864983937, 4.35277098
8357, 40.0433344, -1.09107571, 4.55115168
8358, 12.6531556, -20.8119785, 5.45968596
8359, 12.2626374, -20.8161167, 5.711836
8360, 12.3204425, -20.813723, 5.15532787
8361, 12.8390089, -18.8423548, 5.33191466
8362, 11.3518742, -18.822619, 3.38673917
8363, 35.2871839, -0.884528036, -3.66524247
8364, 34.9521742, 4.88163491, -6.48526015
8365, 34.9506162, 4.50880445, -6.94604485
8366, 34.9543261, 4.16229658, -6.28934684
8367, 34.2797971, 2.51435024, -0.932028844
8368, 35.0329802, 2.82211333, -1.40522689
8369, 35.2527564, 3.73184103, -1.06679179
8370, 35.5002116, 2.36626616, -0.526780381
8371, 10.675806, -19.0092787, 2.5170153
8372, 11.8516527, -18.029938, 3.09451555
8373, 11.0307789, -17.5030228, 3.14506089
8374, 12.6161085, -17.8577617, 3.92150967
8375, 26.4602822, -24.157497, 1.23166305
8376, 26.9726649, -22.7278089, 1.7354994
8377, 40.0915051, -1.34241023, -5.2914026
8378, 26.6469617, -22.5102493, -3.29182267
8379, 14.8839308, -24.3798417, 2.86150592
8380, 37.1898741, -21.6796435, 2.01714026
8381, 35.7398462, -21.3414276, -0.0693762259
8382, 35.0392075, -2.91006449, -1.8402068
8383, 9.21070381, -20.886221, 2.97486007
8384, 10.1457383, -20.9842136, 2.56432125
8385, 10.1686548, -20.7688982, 3.30889549
8386, 15.8271045, -19.0882796, 5.36631871
8387, 15.6926558, -19.0667375, 5.91608488
8388, 16.3486206, -23.3593113, -2.99997079
8389, 15.6400212, -23.5206107, -3.43891471
8390, 15.8401433, -22.3727996, -2.91715662
8391, 35.2765934, -7.54306685, -1.9784423
8392, 35.0267632, -8.31796908, -2.74885817
8393, 34.2835494, -8.74515391, -2.34314023
8394, 23.6664952, -18.0386453, 2.24309924
8395, 23.1916425, -18.0461236, 2.2473431
8396, 37.8993999, -4.97701323, -1.50704593
8397, 35.2568271, 7.54931878, -1.97059694
8398, 34.2891597, 7.64108674, -2.57959746
8399, 35.0423642, 8.03904716, -2.18686563
8400, 35.7970112, 7.45975485, -2.80337955
8401, 34.7925087, 7.54182041, -3.3275999
8402, 35.0718985, 7.02400707, -3.15619201
8403, 37.466158, -2.32440673, -1.14165142
8404, 12.8180967, -19.3846566, -3.28524348
8405, 14.3151975, -18.9713823, -2.5363198
8406, 12.9600418, -18.7379736, -2.12331785
8407, 13.2198541, -18.6378624, -3.24398635
8408, 20.4474427, -18.2841652, 6.20727775
8409, 36.9539672, -22.1097381, 2.01548626
8410, 37.0802493, -21.8992788, 2.01522543
8411, 35.6343937, -21.5628437, -0.0704759501
8412, 35.5089313, -21.7725753, -0.0690977385
8413, 9.72415601, -19.0750366, -0.12230601
8414, 8.54211945, -19.2568698, 0.0490027461
8415, 12.9637908, -20.4048071, -4.51609229
8416, 34.2818755, 1.40589425, -2.8566645
8417, 40.0481975, -4.78170508, -1.07239321
8418, 15.6648968, -17.7298255, -5.43146228
8419, 15.6917723, -18.0184655, -5.72632184
8420, 14.8105456, -17.2800697, -5.5572048
8421, 14.2170659, -24.5781402, -0.118700436
8422, 14.5272195, -24.5713896, 0.0158323929
8423, 39.4031186, 3.79220377, -4.27261531
8424, 8.91757718, -19.892018, 1.69469995
8425, 12.8571305, -17.2794052, -2.75282735
8426, 39.4828233, 3.81318753, -6.35860203
8427, 17.5043843, -18.5165489, -3.9522306
8428, 17.0659674, -17.7740259, -4.07488752
8429, 17.5075787, -17.0617868, -3.9216241
8430, 15.1170114, -18.2380915, 3.18600994
8431, 14.0675707, -18.5485494, 4.31213812
8432, 14.2370108, -17.2812707, 3.51041807
8433, 34.2440725, -18.8428826, -8.38524069
8434, 19.5454994, -17.2764784, -5.99551466
8435, 19.882302, -17.2854922, -5.6120202
8436, 31.5527895, -19.8000742, 2.49882109
8437, 31.3099324, -19.9371864, 2.49935935
8438, 32.2751677, -19.5667865, -0.06988897
8439, 32.5173626, -19.4296978, -0.0697956382
8440, 35.99463, -12.0797007, -6.54641464
8441, 35.9899561, -10.9293741, -6.96110883
8442, 34.8125446, -12.0797867, -6.90715131
8443, 34.2819633, 5.07287646, 3.33026887
8444, 35.275315, 5.11841934, 2.34614102
8445, 39.092413, 3.95380572, -0.639190134
8446, 38.741691, 3.90358559, -0.544357428
8447, 39.3706694, 4.55437323, -1.18983453
8448, 39.0243694, 4.50024473, -1.10794607
8449, 35.0254825, -15.8444486, -8.84253465
8450, 16.1058969, -23.5694058, -0.277797482
8451, 38.6785887, 4.63773211, -1.26746716
8452, 36.3651096, -13.9839091, -8.48700883
8453, 36.0448189, -14.321898, -8.48656109
8454, 35.6111213, -13.9765, -8.48667385
8455, 39.0084213, -1.80796482, 7.38257627
8456, 37.7453577, 1.44706266, -8.75572947
8457, 38.0004203, 0.69408151, -3.21086099
8458, 35.9922639, -10.8735859, 5.65962077
8459, 35.9973009, -13.5318944, 2.00151604
8460, 35.9961171, -14.5105833, 0.83337544
8461, 35.9998736, -12.9052116, 0.923928879
8462, 16.6633209, -24.209211, -2.52584221
8463, 19.3242895, -17.5299154, -3.63730465
8464, 18.4645286, -18.2687914, -3.85676225
8465, 18.5103683, -20.0499046, 2.51919763
8466, 19.1228079, -22.012093, 3.08931407
8467, 33.7887393, -18.7165628, -8.57974021
8468, 14.6445927, -19.2953086, 3.93744841
8469, 13.4873221, -20.3285361, 3.81363324
8470, 16.91257, -18.7422109, 8.69523476
8471, 39.862179, 4.99221805, -1.24088245
8472, 34.1380107, -0.731062223, 8.95106976
8473, 35.3232224, -1.66003978, 8.94028206
8474, 34.1349713, -2.95549795, 8.8776547
8475, 37.424918, -2.23675014, 0.496825568
8476, 8.7614276, -20.2729627, 3.6216698
8477, 9.45342862, -20.8909297, 3.53966353
8478, 9.71991673, -20.1667985, 3.93858314
8479, 34.2872211, 0.319945633, 2.43898302
8480, 35.2955359, 0.580122595, 3.55904557
8481, 35.0457292, -0.27338299, 2.43279454
8482, 35.3494719, 1.46677204, 2.80250367
8483, 16.5374169, -24.3184413, -0.127354299
8484, 39.7069232, -1.79415638, 5.74704741
8485, 39.9742042, -1.80288936, 6.0736533
8486, 9.45678386, -20.8907357, 4.0396979
8487, 10.1861271, -20.7805968, 3.79349858
8488, 13.607068, -17.8384118, 4.25255112
8489, 14.7223785, -17.2765583, 4.41638864
8490, 37.0484273, -14.7932335, 7.48345591
8491, 35.9971634, -8.05664943, 4.53833739
8492, 39.4442965, -3.89124304, -4.36594043
8493, 37.9274743, -1.5625176, 6.95009671
8494, 38.043235, -3.36061398, 7.11245396
8495, 40.0080003, 1.78856618, 6.06170033
8496, 9.76503549, -20.8928272, 4.57938006
8497, 35.69964, -18.5791836, 6.40134158
8498, 17.0275133, -24.2079316, -2.79411647
8499, 39.494795, 1.8142176, -3.62841532
8500, 14.2209747, -24.5778938, 0.447613392
8501, 14.9057529, -24.3468467, -3.15540821
8502, 14.7621805, -24.1336982, -3.33231165
8503, 31.2253045, -18.7140325, 8.42614097
8504, 31.3564952, -18.9375183, 8.42632573
8505, 14.6384905, -24.2465851, -3.12017245
8506, 38.427773, 3.8823368, -0.207988282
8507, 39.4716688, -2.77926459, 3.05137917
8508, 39.752796, -3.71484141, 4.02053284
8509, 39.7402352, -2.7130998, 4.39345392
8510, 37.2350446, 2.91547731, 1.24461133
8511, 37.986326, 2.98030394, 0.771528489
8512, 32.8324713, -19.4677923, -8.24990935
8513, 36.1448071, -14.8793843, -7.83580985
8514, 33.1664717, -20.8201171, 5.35664121
8515, 33.1763287, -20.8071598, -5.35897986
8516, 16.2594318, -24.545343, -3.71976384
8517, 37.7225717, 6.97489298, 3.88689359
8518, 35.9828914, 7.38455266, 4.84833122
8519, 13.8068816, -19.7705939, -6.34786162
8520, 12.96397, -20.7969837, -5.79045222
8521, 14.9070478, -22.6244701, 3.51353727
8522, 23.5304346, -21.2979764, -3.71076353
8523, 24.2322801, -20.4967712, -3.65534888
8524, 38.0135704, 1.66556523, -3.55514934
8525, 38.3495642, 1.10084665, -3.90298072
8526, 38.9323084, 0.966104452, -3.85260363
8527, 37.7298041, -7.19412957, 3.6117505
8528, 19.0422303, -21.3767956, 3.07460484
8529, 35.8018717, -15.1541827, -3.08529574
8530, 35.812626, -15.9564771, -4.38263275
8531, 37.2368802, -2.93068289, 1.25438829
8532, 37.9487903, -3.0265326, 0.805222647
8533, 27.05604, -21.8083069, 1.64051832
8534, 36.8119615, -16.6794811, 8.66595048
8535, 36.6441337, -17.034051, 8.66558291
8536, 36.6422779, -17.0357007, 6.41611802
8537, 13.8599056, -20.3137715, 4.12169355
8538, 35.0533108, -9.3996832, 0.421405125
8539, 37.0267272, -8.9803625, 0.27925544
8540, 36.0150887, -9.94199893, 0.148091942
8541, 34.2852631, -9.49057086, -0.157552623
8542, 35.2596289, -8.50786552, -0.0121762863
8543, 34.0570217, -16.5712264, 8.27305407
8544, 35.1039794, 1.76360408, 1.48275881
8545, 35.2476328, 1.54508194, 0.262905032
8546, 36.2636774, 2.47087516, 0.0415669562
8547, 37.5203387, 1.80896733, 0.658928524
8548, 37.5308074, -14.3650674, -8.19503731
8549, 37.0606598, -13.8197553, -8.19639641
8550, 36.7945919, -13.9101499, -7.18175648
8551, 33.7264293, -18.1592807, 8.27125679
8552, 38.9588306, -5.70757473, -3.99694931
8553, 37.481934, -5.45823902, -3.31220791
8554, 37.8992509, -6.03086864, -2.82759469
8555, 22.5967119, -17.5011537, 5.055269
8556, 39.6305566, -1.90707077, 7.25268918
8557, 34.9926018, -10.5256596, 7.82890324
8558, 36.9914691, -11.0529953, 8.54173917
8559, 15.6111238, -24.2790678, 1.98603972
8560, 37.8853939, -6.5325693, -1.72431576
8561, 37.4790464, -6.56875957, -3.33524598
8562, 29.7880814, -19.3667553, -8.36003551
8563, 29.5174905, -19.4312184, -8.36001192
8564, 29.7886898, -19.366879, -5.98332651
8565, 29.5169315, -19.4304723, -5.98277501
8566, 12.7333337, -20.8015972, -6.1713423
8567, 38.0094404, -5.43439005, -5.43596451
8568, 13.6052528, -18.270066, -0.489888024
8569, 13.5677528, -18.5619736, -0.205329845
8570, 30.739619, -18.7323339, 8.42609276
8571, 12.7350454, -20.4007667, -3.71626148
8572, 12.6188869, -20.4022411, -4.19358393
8573, 13.0939015, -20.4029039, -4.04408723
8574, 33.6357231, -19.1584729, -8.40833452
8575, 33.5980807, -23.6236089, -4.51436801
8576, 33.9659542, -23.2005412, -4.52442163
8577, 32.5321862, -19.9059166, 8.54032266
8578, 16.9637223, -19.0947935, 4.26485773
8579, 16.6969598, -18.7798523, 4.36643533
8580, 16.4577954, -19.0859744, 4.53386997
8581, 38.2679989, -8.04633361, 3.62978025
8582, 38.015775, -7.74868646, 1.96270941
8583, 38.2415278, -8.70940301, 1.34585008
8584, 19.2981143, -17.0076047, 6.09613895
8585, 35.30399, -18.1104187, -8.52508044
8586, 35.6518469, -17.9614809, -8.52529319
8587, 35.5295938, -18.3002523, -8.52495392
8588, 37.9180789, -4.32476057, -0.666178819
8589, 37.9065092, -4.16603159, -0.112532244
8590, 38.2205647, -4.20367987, -0.443610812
8591, 35.9898234, -11.1531085, -5.76123137
8592, 35.9916305, -10.175314, -4.57596988
8593, 35.9881367, -11.2723903, -3.85144155
8594, 35.9942589, -11.2856595, -2.40397476
8595, 35.9934831, -12.1920819, -3.25416261
8596, 38.6714394, 1.68371777, 4.950114
8597, 33.5918678, -23.6233432, 4.51349093
8598, 37.5614767, -14.7901391, -8.19479812
8599, 37.3102635, -15.2602548, -7.54431397
8600, 14.0853016, -19.3772461, -5.45637373
8601, 23.6540311, -21.8995297, 3.70509671
8602, 24.4439168, -22.4414649, 3.50330727
8603, 24.5359855, -21.5132456, 3.44117218
8604, 37.0133471, -8.03521332, 3.25292873
8605, 37.563644, 2.14999279, -0.594309161
8606, 37.0318303, -7.15686497, -3.60988102
8607, 35.9944351, -7.27554361, -4.74720031
8608, 36.0095851, -8.47876014, -4.36072445
8609, 36.4422542, -17.3706392, 8.66541881
8610, 36.6149377, -17.0821977, 6.41591612
8611, 40.0704399, 4.71508863, -0.972946819
8612, 34.2786703, -4.10806352, 5.28170452
8613, 36.7320481, 3.34053572, -6.73246205
8614, 36.0929253, 4.52414393, -5.72644005
8615, 35.9736608, 3.34091033, -6.16335468
8616, 34.2818899, -2.58517864, -1.36427877
8617, 35.2830836, -3.7335911, -1.07169967
8618, 35.4219935, -2.48648948, -1.06407805
8619, 38.0319841, -0.677121764, -3.25211832
8620, 12.4241811, -19.6526225, 4.87051383
8621, 15.6653947, -18.3222714, -5.41206121
8622, 36.0058633, -9.57011111, -3.65161884
8623, 34.7167881, -17.3462291, 8.97273558
8624, 34.7269816, -17.0395015, 8.97288451
8625, 37.9955988, 0.559869672, 3.3659
8626, 21.4008496, -18.2771705, -0.528755647
8627, 21.4264213, -18.557538, -0.217022712
8628, 34.8295418, -15.0564144, 8.40812551
8629, 34.5770097, -15.1761677, 8.40782781
8630, 34.8634853, -15.3124429, 8.40803269
8631, 34.2813457, 3.00984093, -1.60673284
8632, 9.47907129, -19.8645699, -2.66652039
8633, 9.01054809, -20.8893033, -2.94550525
8634, 9.74292145, -20.4756652, -2.13496602
8635, 8.84132404, -20.8897133, -2.49581403
8636, 15.455305, -19.2592731, -8.59094045
8637, 15.7624669, -19.2767487, -8.6724831
8638, 38.4687376, 2.99613656, 6.55733118
8639, 37.9300352, 1.56557185, 6.92793178
8640, 37.9996478, 3.32803357, 7.07575488
8641, 38.045959, 3.53883092, 6.03976741
8642, 15.6828263, -17.5234407, -3.62189473
8643, 20.8973637, -17.8953506, -4.4292972
8644, 21.194013, -18.6289556, -4.92575705
8645, 40.0761997, -5.15613127, -1.32823647
8646, 40.0580897, -5.94676217, -1.63576638
8647, 16.5661241, -18.7497749, -8.68389138
8648, 16.8919608, -18.7441474, -8.69209679
8649, 9.57868935, -19.5388743, 3.67120083
8650, 9.45007681, -19.522978, 3.38190355
8651, 19.9360621, -17.5223638, -2.87484497
8652, 20.4742281, -17.0648405, -2.43761606
8653, 20.9286274, -18.3794953, -3.11876581
8654, 21.5245608, -17.879601, -3.64171587
8655, 34.2806646, 3.38497469, 4.65186386
8656, 35.298236, 2.26916532, 4.93515589
8657, 35.4244521, 3.57981559, 5.15029228
8658, 34.6060644, -17.1834512, -8.95608082
8659, 14.9214606, -22.6284747, -3.5179387
8660, 15.4236128, -22.393121, -4.06001957
8661, 15.1417687, -21.4565564, -3.04835569
8662, 33.6252382, -16.5916403, -8.7913741
8663, 33.7585513, -16.8356715, -8.79133397
8664, 33.4782965, -16.8377691, -8.79130486
8665, 26.4595555, -22.4717349, 3.43409954
8666, 26.5404864, -21.5352454, 3.37260423
8667, 36.4410986, -17.372783, 6.41571426
8668, 35.290072, -2.26573011, 4.92602779
8669, 35.1168582, -15.0939798, 8.40839288
8670, 21.3586157, -17.2819625, -2.48947227
8671, 20.7581708, -17.7542801, -1.95968248
8672, 33.3785254, -20.8347967, -6.10435646
8673, 33.4144668, -19.4477796, -6.20557849
8674, 32.0851056, -19.8319133, -8.69915097
8675, 11.8286146, -20.4360258, -3.69997188
8676, 10.9410611, -20.4667024, -4.03248498
8677, 34.2927238, 9.04036392, -0.313401009
8678, 36.274545, 9.03727072, -0.600248244
8679, 36.9966883, 8.93945398, -0.0419872108
8680, 35.2613437, 8.51742099, -0.0193545905
8681, 35.0785747, 8.96761557, 0.266212322
8682, 33.3740232, -18.1787365, -9.04184586
8683, 35.2932771, 2.24850102, -4.89704565
8684, 36.1056552, 2.69758256, 1.29045994
8685, 10.068207, -20.8935585, -5.12331162
8686, 10.1147055, -20.8913211, -4.52740999
8687, 10.4542584, -19.8729783, -4.76890588
8688, 14.8971828, -20.4884509, 4.79419322
8689, 35.1318361, 4.44084249, -5.13133548
8690, 29.0653718, -24.5212367, -3.30269246
8691, 34.1767662, -18.5621413, -7.56599785
8692, 34.328024, -18.1194608, -7.73933146
8693, 33.720315, -18.4342087, -7.76231618
8694, 15.0601089, -19.9763628, -1.30342076
8695, 15.1868619, -19.3022516, -0.203307379
8696, 35.9894349, 8.14283315, 3.7213318
8697, 37.0096107, 8.08840719, 2.98738933
8698, 35.0321846, 8.23286706, 2.73070871
8699, 14.8928858, -24.3811086, -2.87033999
8700, 35.9888025, 3.91956127, 7.96781515
8701, 36.9919593, 3.29310781, 7.5323589
8702, 35.9936089, -13.5191773, -5.75675299
8703, 34.8126959, -13.5161275, -6.11272887
8704, 33.2890276, -19.5941403, -8.05566307
8705, 33.7724353, -16.5780292, 8.27300141
8706, 14.4543456, -19.2823202, -7.68713426
8707, 14.7088118, -19.2727813, -7.83446678
8708, 26.5083917, -19.0290332, -0.270982395
8709, 25.6719671, -18.9641468, -1.51717681
8710, 25.6601131, -18.961903, 0.934450251
8711, 36.8098025, -16.6804892, 6.37920931
8712, 36.0044534, -9.40843989, 3.84496898
8713, 35.9929437, -11.301818, 1.07386533
8714, 15.6969004, -24.3533977, 4.15434279
8715, 36.9772493, 8.91627094, 0.58656523
8716, 35.0956536, 8.91746573, 0.90844098
8717, 28.4370236, -20.5638258, 3.11743529
8718, 28.4340369, -20.562061, 0.742663866
8719, 27.8493593, -20.5571304, 1.61851056
8720, 16.5625423, -17.7950352, 3.85657948
8721, 16.2622088, -18.5003159, 3.37317932
8722, 16.0562217, -18.0241045, 4.71133337
8723, 15.7982945, -18.7282804, 4.1512545
8724, 15.652659, -17.7574475, 3.58437289
8725, 35.9955473, -13.5222666, 5.75825202
8726, 35.9948591, -12.5566315, 4.97274118
8727, 37.6825084, -7.12670973, -4.60131409
8728, 28.358078, -21.8188605, 3.25413826
8729, 34.2821564, -3.25236018, -1.8904519
8730, 14.0191742, -24.5348102, 1.96148806
8731, 14.1995627, -24.5343796, 2.31037303
8732, 13.8806939, -24.4664038, 2.25464675
8733, 33.3752675, -18.8693869, -7.4095164
8734, 14.3303009, -19.7686413, 6.10697516
8735, 13.6305963, -20.7787407, 6.45240867
8736, 13.5159121, -20.7750145, 6.01349463
8737, 11.9082595, -19.7601601, -5.18780943
8738, 36.0044477, -13.5341764, -1.99772146
8739, 35.9921022, -12.6154502, -1.14205851
8740, 35.9951515, -14.3549773, -0.700023231
8741, 34.2882914, -5.53212058, -3.58798342
8742, 35.2763526, -5.43171284, -2.44176294
8743, 35.4384776, -4.64180718, -3.33106262
8744, 34.2804074, -3.22615141, 2.11263214
8745, 35.2786096, -4.15638486, 1.69674644
8746, 34.2931562, -3.93777124, 2.78125095
8747, 39.48096, 1.14471271, -3.5101263
8748, 39.9043017, 0.746310215, -4.58337073
8749, 34.8689545, -15.8404759, -8.35121925
8750, 38.2263246, 0.915544512, -9.44648896
8751, 38.2276801, 0.915535162, 9.44652731
8752, 38.2447519, 3.9181939, 8.64733824
8753, 38.233984, 3.92457396, -8.64146675
8754, 38.2286373, 5.51709638, -7.72237018
8755, 38.2374114, 7.71887967, 5.52410108
8756, 38.2460622, 5.52954595, 7.71708879
8757, 38.232758, 7.72277674, -5.51541724
8758, 38.2316306, 9.44549597, 0.928976916
8759, 38.2296747, 9.44558704, -0.920324556
8760, 26.0176896, -20.2388683, 1.76119773
8761, 25.4640902, -20.2343536, 3.39490419
8762, 26.1208311, -19.2718525, 1.63774137
8763, 25.6357348, -19.1818938, 3.2913729
8764, 34.133515, -19.1334038, -6.9551021
8765, 34.0479941, -19.8519496, -7.60557598
8766, 22.677629, -22.5555915, 3.77105716
8767, 34.2777591, 3.32390513, 2.24279857
8768, 34.2813395, 4.00377775, 2.80920221
8769, 35.2807928, 4.15558061, 1.69609684
8770, 38.2542502, -8.03837265, -3.56565666
8771, 38.2328071, -8.72867454, -1.35638192
8772, 38.0211617, -7.97293638, -1.53789276
8773, 37.7188129, -8.92488932, -0.294624052
8774, 37.792337, -8.52137146, -2.69779904
8775, 35.6681553, -14.3589036, -8.48633115
8776, 35.4934555, -14.6836308, -7.82859873
8777, 23.8185449, -23.6814543, -3.76619956
8778, 24.7932555, -23.7633225, -3.32862852
8779, 35.9491791, -17.0018286, 8.6656087
8780, 36.0238911, -17.341114, 8.66538424
8781, 36.2522038, -17.0129186, 8.66563744
8782, 20.2860792, -17.5223896, 3.05368094
8783, 9.58208043, -19.2318053, -2.9132467
8784, 9.70967889, -19.2304533, -3.18570114
8785, 35.9912886, -13.5102305, 4.38432974
8786, 35.9787259, -13.9055905, 4.51294056
8787, 35.9798217, -13.910117, -4.51175068
8788, 35.9982517, -13.5139978, -4.3808071
8789, 34.5290601, -22.2059809, -2.20042281
8790, 34.8101526, -23.0245532, -4.63990338
8791, 35.0120036, -21.8090202, -2.20292871
8792, 35.3028156, -22.6303477, -4.64078491
8793, 35.6732345, -23.2669635, -4.27813319
8794, 35.9828805, -16.3288188, 8.66607663
8795, 36.0463779, -16.6849445, 8.66581398
8796, 36.2573133, -16.4659389, 8.66594692
8797, 35.8076142, -15.310257, 3.21954441
8798, 35.7970763, -15.3196986, 0.835510697
8799, 13.1308912, -20.7776276, 6.26454828
8800, 34.2814342, 2.74210924, 4.07649635
8801, 39.4701437, -0.969329411, -3.45156528
8802, 40.0881926, -0.700041929, -4.57065315
8803, 34.2789251, -2.66272931, -3.73441556
8804, 35.2758132, -1.84660608, -4.30291701
8805, 35.4510897, -3.26504329, -4.29487361
8806, 12.7991382, -20.9968625, 2.56760419
8807, 13.1793571, -20.3291065, 3.44152416
8808, 23.0689422, -19.9924543, 5.81007305
8809, 35.0327436, 3.28884205, -5.56850474
8810, 34.2826927, 3.11470889, -5.00802004
8811, 15.6995191, -18.7513545, -6.55966656
8812, 15.6955988, -19.060422, -6.1723842
8813, 15.0869113, -18.7205966, -5.84135263
8814, 34.9512505, 5.00770851, -7.20378292
8815, 21.3899948, -17.3100382, -0.542176499
8816, 35.1297415, 5.47584669, -4.09731952
8817, 35.0598236, 6.07068933, -3.08528056
8818, 34.793758, 6.54012765, -3.76175158
8819, 39.8183889, -3.82415135, -2.47077216
8820, 35.7437095, -18.4102089, -6.27766562
8821, 32.7880087, -18.8037967, -8.53591759
8822, 19.5245128, -24.4258891, 3.2271114
8823, 20.8765017, -24.014108, 2.01257574
8824, 20.9286273, -23.9043405, 3.7377017
8825, 38.2659113, -6.61054749, 5.7846444
8826, 34.2787858, 3.38219338, 5.65901915
8827, 35.2966848, 2.50737474, 5.97500119
8828, 35.0319439, 8.36261822, -2.61304699
8829, 34.7842115, 7.84048103, -3.78902181
8830, 18.1159512, -21.0842765, 8.82907472
8831, 20.1883087, -21.0880263, 8.8248103
8832, 13.5124122, -17.2652401, -3.42391587
8833, 39.401932, 4.47894041, -3.63037001
8834, 34.24455, -16.8894948, -8.95612774
8835, 34.367256, -17.1076911, -8.9560768
8836, 34.0791476, -17.1697966, -8.95603595
8837, 34.5652087, -16.8604641, -8.95616869
8838, 20.2626383, -17.2698647, 4.41662955
8839, 9.2508365, -19.868661, -2.10268898
8840, 8.64897848, -19.8870966, -1.20361799
8841, 8.66180832, -20.8818218, -1.88587728
8842, 9.06331068, -20.4907573, -1.27045585
8843, 35.0251297, 3.04488099, 7.66440914
8844, 25.7794028, -19.2171037, -2.08391779
8845, 25.1418033, -19.2397779, -3.5728624
8846, 25.5544616, -20.1405311, -3.28082902
8847, 17.4970227, -17.9841639, 3.89957623
8848, 18.0835908, -17.5412141, 3.46599295
8849, 17.7716894, -18.2876126, 3.94547829
8850, 32.0053883, -19.6963173, 8.54049449
8851, 32.0398872, -19.3334556, 8.54003861
8852, 32.441049, -19.239352, -8.18302845
8853, 32.4055778, -18.6791304, -7.5628801
8854, 32.7975848, -18.9076792, -7.62976554
8855, 35.9910562, -12.5870119, -4.9669199
8856, 36.4325241, -16.7100844, 8.66586063
8857, 36.5353592, -16.3415042, 8.66600172
8858, 33.0444699, -21.2290701, -8.12413359
8859, 34.2871403, -4.99666688, 3.35244494
8860, 35.2768287, -5.11250938, 2.34341895
8861, 39.5049621, 6.47536644, -3.0158847
8862, 38.0289916, 6.28360571, -2.37835649
8863, 38.4343511, 5.76467489, -3.20914816
8864, 39.4539465, -4.57989923, -3.72587987
8865, 34.5377067, -15.8410524, -9.00882174
8866, 38.7296936, -3.90509732, -0.507336916
8867, 38.4654715, -3.88657828, -0.191157446
8868, 31.7953245, -18.4363725, -8.07842195
8869, 31.552223, -18.5726651, -8.07851166
8870, 31.3233852, -18.6070237, -8.92706981
8871, 31.0802277, -18.7433676, -8.92712007
8872, 31.9422252, -18.9529395, -7.50583919
8873, 35.2745163, 5.43386858, -2.44247982
8874, 34.7771034, -15.674775, -9.00891272
8875, 18.575273, -18.7117268, -3.90332698
8876, 38.6826442, -1.61282334, 4.90820493
8877, 38.7382179, -0.271492594, 3.96691853
8878, 39.040971, 0.00178801624, 3.90029338
8879, 39.4772405, -0.572878413, 3.42929768
8880, 35.9962968, -14.3466039, -3.08582324
8881, 14.1673587, -18.9837646, -0.590259383
8882, 14.854919, -19.8471815, -0.1639187
8883, 34.942553, -18.220003, -8.05314646
8884, 17.9029725, -18.7054665, 7.49196242
8885, 34.4001119, -17.6875297, -4.87514083
8886, 34.5568526, -17.4572898, -4.87167305
8887, 17.0276345, -17.0433687, -3.66054997
8888, 16.3453901, -17.5257413, -3.50082769
8889, 16.5903582, -17.2918737, -4.67347954
8890, 16.3948356, -18.2619877, -3.95909206
8891, 34.2796919, -3.31394566, 4.63321969
8892, 35.3390105, -17.7741776, -8.5253137
8893, 14.0269836, -24.5324197, -1.96403576
8894, 14.2080413, -24.5306276, -2.31219269
8895, 37.7428753, -3.31089319, 7.9497795
8896, 34.2970053, 5.48367916, -3.05489971
8897, 35.9916959, 5.67311382, 6.90310928
8898, 35.994181, 5.90880918, 6.70322614
8899, 37.1498364, 5.41439507, 6.03676027
8900, 37.1557688, 5.17734728, 6.22964953
8901, 21.6859537, -23.9169871, 3.34550738
8902, 24.3708578, -24.5841373, -3.78767815
8903, 25.3938483, -24.4793935, -3.83573512
8904, 27.2810433, -23.3190473, -3.69325088
8905, 36.2190401, -0.914369577, -9.00270537
8906, 35.0966469, -0.0124984159, -8.98825859
8907, 37.0046719, -0.0211817807, -8.96890831
8908, 21.0051535, -17.5302406, 6.20130572
8909, 26.4221446, -20.0952671, 1.08056011
8910, 23.8051775, -18.9813299, -2.39381389
8911, 24.8477536, -18.9889614, -2.24402705
8912, 23.2858696, -19.3846079, -3.33938587
8913, 23.6256452, -18.8903401, -3.48142022
8914, 33.1565762, -18.8948692, -0.0701081599
8915, 33.1573049, -18.8941536, -2.44412683
8916, 33.3345921, -18.6796274, -2.44393589
8917, 36.979313, 8.94635906, 0.275990184
8918, 37.0074572, -11.0397597, -8.54084303
8919, 35.9900024, -9.37691456, -7.2237819
8920, 35.0064122, -9.18210376, -8.189621
8921, 35.0064802, -10.7516711, -7.92315476
8922, 31.0550965, -20.0420157, -4.87196672
8923, 30.7956647, -20.1429663, -2.50225268
8924, 30.7921373, -20.1315187, -4.87167502
8925, 31.0570252, -20.0514334, -2.50215198
8926, 22.0977867, -18.3325902, -1.40105504
8927, 36.9803653, 8.90187588, 0.905996946
8928, 35.6833504, -23.758466, -2.13345919
8929, 36.1683598, -23.3588641, -2.13259534
8930, 36.0004453, -7.86477897, -5.81393939
8931, 35.2656218, -4.45049292, -1.96982816
8932, 34.2828805, -4.06034971, -2.7652163
8933, 35.9822416, 6.13168919, 6.49033384
8934, 37.1280705, 5.63540252, 5.82161697
8935, 21.0445194, -17.2698854, -1.34281205
8936, 16.5547518, -23.7593111, -2.89446624
8937, 35.0269996, -3.23938296, -8.50978497
8938, 20.8344726, -20.4662583, -6.80924006
8939, 20.973302, -19.345435, -5.43666908
8940, 21.8481664, -20.3731482, -5.63315963
8941, 32.6366005, -20.9110039, -8.7446566
8942, 33.5909859, -20.6410097, -8.87564261
8943, 33.2420496, -20.4310261, -8.07637914
8944, 32.2852724, -20.7004208, -7.94631094
8945, 11.9649679, -20.8867355, 7.03657976
8946, 11.7409283, -20.2704058, 7.50509517
8947, 12.4530497, -20.8866246, 7.41369844
8948, 12.2619813, -20.8175492, 6.28221805
8949, 12.0322964, -20.2022302, 6.75610339
8950, 11.5435738, -20.2073121, 6.38084797
8951, 39.7572903, 3.89309918, -2.38038538
8952, 13.1655431, -19.1078214, -0.698812124
8953, 13.2817632, -18.7781833, -0.440546993
8954, 39.9526743, -1.25216581, 3.32521529
8955, 39.7416434, -1.73331723, 4.19688008
8956, 8.78234573, -19.8962903, 1.10152623
8957, 8.57358497, -20.4668102, 0.507301862
8958, 8.53346451, -19.8557038, 0.515594804
8959, 35.2733162, 3.49236052, -0.00982555845
8960, 33.742998, -17.8709153, -7.75313157
8961, 33.8121425, -18.1531093, -8.5706701
8962, 33.2031098, -18.4689814, -8.59309797
8963, 13.8863899, -24.4618052, -2.25549776
8964, 10.9067494, -19.6023036, 5.7203287
8965, 34.0065596, -18.5690578, 8.23122661
8966, 32.2106103, -20.2083284, -8.69971647
8967, 36.0008901, -12.030758, 3.46707932
8968, 35.9880858, -11.0794159, 4.0537018
8969, 11.8597947, -20.8089595, -5.93668067
8970, 11.4448727, -20.1981308, -6.18996186
8971, 38.7664451, -4.57383344, -1.36918811
8972, 40.0163989, 0.953176634, 4.61279558
8973, 39.7071555, 0.729498027, 4.4240443
8974, 39.2841712, 1.69557303, 4.96081148
8975, 39.7177163, 1.66613674, 4.32156276
8976, 15.9088434, -17.2867905, -4.85566582
8977, 38.7724864, -3.48235443, 5.55500519
8978, 39.4928444, -5.08365692, 5.03274347
8979, 34.7838262, 7.21495294, -4.8472098
8980, 35.0022873, -6.82860672, 8.29794281
8981, 34.9903201, -8.47537488, 7.82574335
8982, 40.0165115, 1.68878211, 5.51974433
8983, 31.3108055, -19.9321213, 4.86935895
8984, 31.5534199, -19.7951805, 4.87026572
8985, 39.4002391, -6.0701718, -1.67882813
8986, 39.8730419, -6.35839405, -1.59914784
8987, 38.3968863, -6.87486346, -1.81264842
8988, 38.8972953, -7.13020487, -1.73036219
8989, 39.4866472, -6.90314308, -2.25937845
8990, 9.25382905, -19.2129815, -2.08860659
8991, 8.65294657, -19.2510883, -1.19754978
8992, 15.323937, -18.7481646, -4.77284323
8993, 14.0625735, -18.6271574, -4.72721958
8994, 36.9877799, 8.84723057, 1.22339259
8995, 35.0406773, 8.79478634, 1.54100498
8996, 35.0178249, 8.41047851, 2.13054584
8997, 37.0170103, 8.4992472, 1.82845321
8998, 40.0522424, 3.94441945, -0.657291902
8999, 39.496674, 5.05847941, 5.12214756
9000, 38.7812218, 3.54097821, 5.60348463
9001, 37.429518, 4.65054103, 5.69056487
9002, 18.8768263, -20.3392226, 8.80523362
9003, 14.4524713, -24.531427, 2.61209484
9004, 14.2042115, -24.3928185, 2.86370944
9005, 14.1661455, -24.4947785, 2.59587478
9006, 34.2876419, -9.31747406, 1.0360132
9007, 38.0072615, -0.565478826, 3.36463954
9008, 35.4879514, -1.99027873, 8.62297381
9009, 36.2295026, -1.77388834, 8.64385477
9010, 29.9840302, -19.5691141, -8.3603333
9011, 30.3383772, -20.0204746, -8.36077858
9012, 29.4144618, -19.6895673, -8.36058213
9013, 38.7281064, 0.272724526, 3.97035724
9014, 19.581064, -23.8965858, 1.83491284
9015, 37.0142894, 0.299988377, -8.95180806
9016, 37.7665223, 0.29499573, 8.95055741
9017, 36.0094084, 0.0144197249, 8.50939436
9018, 36.2824794, 0.290030921, 9.04390515
9019, 36.9916515, 1.16629594, 8.70531437
9020, 35.297868, 0.87883811, 8.33224637
9021, 35.0317269, 2.37533072, -7.8268133
9022, 35.0391734, 2.80469627, -8.16615586
9023, 34.9594791, 3.48351212, -7.47768773
9024, 34.9512322, 3.94388672, -7.82371028
9025, 35.9742157, 3.09428967, -7.20801421
9026, 35.3663033, 2.85598614, 1.84454362
9027, 18.28172, -18.7949461, 4.37076586
9028, 18.5454999, -19.1026813, 4.50193565
9029, 18.0222967, -19.1161092, 4.2617101
9030, 32.1579151, -20.1371548, -5.82391518
9031, 30.9174319, -20.731294, -6.1079473
9032, 39.9516453, 1.12483289, 3.39982457
9033, 18.4404274, -17.7894845, 3.85576291
9034, 18.7484025, -18.4950251, 3.38024225
9035, 19.3705164, -17.7429774, 3.63803991
9036, 18.9873263, -18.029426, 4.76176342
9037, 13.9887878, -18.2365274, -1.36978224
9038, 32.8854586, -17.7731569, 8.92480185
9039, 32.8566187, -17.5508258, 8.924724
9040, 32.6582599, -17.7675078, 8.92483016
9041, 35.9503101, -14.7773178, 3.21653438
9042, 35.9457379, -14.7848773, 0.835632389
9043, 33.9534659, -13.7763549, 2.37560313
9044, 33.9534775, -13.7762676, 2.07899675e-05
9045, 33.2649373, -21.2087767, -6.39992462
9046, 33.103265, -17.6076141, 8.92473966
9047, 33.0972365, -17.8793766, 8.92479775
9048, 33.3538246, -17.7101457, 8.92469951
9049, 18.0646884, -18.9907935, 3.35868135
9050, 12.5239145, -19.0975934, -1.52932338
9051, 19.3055363, -20.7458276, -8.46047211
9052, 19.5867069, -19.7534794, -8.15021069
9053, 18.803831, -19.7241532, -8.82805059
9054, 13.5025807, -22.1049313, 2.00078119
9055, 15.808724, -16.9860609, 5.51986487
9056, 34.2764846, 1.46058553, 2.30032189
9057, 37.717579, 7.29003969, 3.3610719
9058, 35.7974962, -15.1643412, -0.703371356
9059, 11.503307, -20.8882716, 6.70756976
9060, 11.8038181, -20.8197144, 5.95331195
9061, 18.7548836, -17.0598532, 3.33046427
9062, 19.2948189, -17.2678255, 4.23396749
9063, 37.9824449, -5.50174106, 4.56088262
9064, 14.1727711, -18.9886277, 7.09350445
9065, 13.9597436, -18.9602351, 6.03815034
9066, 14.508648, -18.5161535, 6.57870048
9067, 15.9493731, -19.0392562, 6.96519622
9068, 35.0301594, 2.20480559, -8.36290329
9069, 34.276372, 1.80124978, -8.7652936
9070, 35.9947498, -11.0532214, -0.984446442
9071, 34.2785024, 3.21107472, 6.41962944
9072, 31.668725, -24.575603, 3.32850138
9073, 32.9906233, -24.5694339, 4.47313301
9074, 33.2673312, -24.4950214, 4.04196973
9075, 33.2577969, -24.0230563, 4.53374535
9076, 31.885316, -24.5102806, 2.80582985
9077, 35.997923, -12.9003773, 3.29321885
9078, 14.3729124, -17.2769317, -4.91711451
9079, 24.6993688, -20.2487577, -5.04074297
9080, 33.269025, -24.4960149, -4.0434725
9081, 36.9874238, -9.88911032, -1.91852702
9082, 35.9835783, -8.29451657, -8.20107026
9083, 35.0456354, 0.640713291, -8.94795474
9084, 34.2960719, -2.94657305, 1.33528272
9085, 35.2859413, -3.74544644, 1.09748551
9086, 35.3944573, -2.72236882, 1.69428448
9087, 18.4738417, -17.5283451, -3.44971546
9088, 35.8898595, -15.0461915, 3.2162813
9089, 35.8833216, -15.0556436, 0.8358772
9090, 33.5007051, -24.4894733, -2.02016539
9091, 34.0939172, -18.1598373, 7.72783228
9092, 34.3757862, -18.5695078, 7.68631641
9093, 34.6269618, -17.8350119, 7.7570575
9094, 21.675539, -17.910344, -4.5260147
9095, 35.5723849, -18.6014868, -6.29159051
9096, 35.5715266, -18.5969716, -8.52430188
9097, 34.2832421, 8.61020149, 2.06318059
9098, 35.2904049, 7.85275371, 1.68732679
9099, 35.2708744, 8.24596778, 1.11623095
9100, 39.5057674, -0.583161198, -4.50966636
9101, 20.8931522, -20.4902723, 6.21202901
9102, 19.9338819, -21.3531225, 3.79112566
9103, 32.9322855, -20.9493336, 6.00760343
9104, 33.0047233, -21.2033718, 5.62422007
9105, 16.5456946, -16.9826106, 4.61273465
9106, 17.052915, -16.9984403, 4.36952276
9107, 16.7651292, -17.2884716, 4.42594095
9108, 37.603938, -20.3154395, -4.16124611
9109, 37.6087947, -19.3342356, 3.16489859
9110, 37.6063844, -20.3129335, 4.16688417
9111, 37.607135, -20.3123022, 2.13370906
9112, 19.1662056, -17.7073226, 4.94262079
9113, 33.9835211, -17.219907, 8.39726806
9114, 35.9997984, -9.45347994, -5.5542045
9115, 39.330996, -1.62286388, 4.90680455
9116, 10.1254394, -19.2707097, 3.11580099
9117, 22.3666914, -17.9074484, -3.90217881
9118, 22.8713421, -20.386869, -4.65450879
9119, 23.8336501, -19.1767791, -4.71313062
9120, 35.0554865, 2.64794399, 0.772396938
9121, 23.9753239, -17.5030496, -3.03241906
9122, 24.3984948, -18.5703177, -1.80834727
9123, 24.3964213, -17.5060764, -2.25555414
9124, 40.0125597, 0.447735359, 4.36960533
9125, 31.7193467, -19.1651565, -8.92726818
9126, 31.5780317, -19.4421318, -8.92744718
9127, 31.3879967, -19.1825293, -8.92734256
9128, 36.3448235, -23.1888915, -2.12772882
9129, 35.2940442, -0.581598288, 3.56083969
9130, 34.2839016, -0.847604118, 2.49212903
9131, 36.9341346, 3.4849408, 5.20169167
9132, 39.8187605, -4.30802522, -1.6852791
9133, 15.8284613, -19.0800092, -6.72163914
9134, 10.6303508, -18.5678698, -1.81296038
9135, 10.6018737, -17.5020433, -2.25602721
9136, 11.0069703, -17.5080428, -3.04414678
9137, 34.4754308, -16.4981987, -8.46480566
9138, 34.2099645, -24.3160402, -2.01933132
9139, 33.9772934, -24.3914302, -2.02021608
9140, 34.3881034, -22.6948398, -0.0687861721
9141, 34.9939624, -7.14801803, -8.20182896
9142, 35.0002713, -5.78452032, -8.20218441
9143, 36.9864816, -5.75280432, -8.86257783
9144, 36.0356428, -6.17214716, -7.59447854
9145, 35.5773952, -17.6220138, -8.52550882
9146, 35.6750162, -17.3049429, -8.52571479
9147, 35.8803265, -17.6333477, -8.5255627
9148, 35.3629083, -21.9686854, -0.0683631766
9149, 36.5095181, -23.0071289, -2.12740485
9150, 33.0648173, -17.3357573, 8.92474117
9151, 38.977584, -1.72727427, 5.11599082
9152, 14.5404707, -22.6238243, 3.20689214
9153, 14.53765, -23.8915603, 3.21149975
9154, 14.1115309, -22.7744336, 2.95798803
9155, 14.1041971, -24.0399665, 2.96210889
9156, 35.1600461, -14.3836923, -8.48603255
9157, 34.8939942, -14.3053293, -8.48587815
9158, 35.0492199, -14.0390987, -8.48621017
9159, 8.56450618, -19.8987584, 0.0286778989
9160, 15.6025432, -19.9004995, 8.42754693
9161, 16.1075702, -19.7844461, 8.80987075
9162, 16.1190064, -20.3967323, 8.78340019
9163, 38.4169793, 6.86992847, -1.80575244
9164, 39.4911184, 6.9016718, -2.24831285
9165, 33.742163, -24.4485281, -2.01960663
9166, 32.6877699, -20.1865907, 8.54043496
9167, 32.9026792, -19.5990506, 7.87350302
9168, 34.2789523, -1.82097013, 3.09644465
9169, 35.262017, -1.54944643, 4.02759061
9170, 35.3835482, -1.34635264, 2.64073256
9171, 37.8162024, -17.8484547, 3.51077805
9172, 34.2923127, 2.52390723, 0.182801106
9173, 28.034232, -19.4799003, -7.37160241
9174, 28.9647804, -19.484418, -5.98415045
9175, 28.9654961, -19.4843563, -8.35923839
9176, 38.9639265, -5.01622386, -4.60091761
9177, 37.9459437, -4.96231994, -4.16929532
9178, 35.2900993, -2.25541971, -4.90493466
9179, 35.2935322, 1.54568977, 4.0272489
9180, 34.2820436, 1.92637194, 3.20859711
9181, 15.8433254, -18.3284557, 4.86627211
9182, 36.0002198, -4.64175052, 8.8722126
9183, 32.9531431, -20.9520489, 7.04537679
9184, 33.0080284, -21.2052713, 6.66999645
9185, 26.6624818, -24.2099768, 2.98853303
9186, 28.5923075, -23.5955317, 2.80529883
9187, 11.4112152, -18.0264678, -1.28334288
9188, 33.3358994, -18.3123012, -6.78774995
9189, 34.8204205, -22.4616582, -0.0675250851
9190, 35.4884138, -23.904768, -2.13094543
9191, 10.6386644, -19.2487122, -5.00965928
9192, 10.8255413, -19.234631, -5.27414774
9193, 32.6224575, -19.1891855, 7.91247508
9194, 10.9900633, -20.4541035, -3.32568661
9195, 20.0982804, -18.6919287, -6.16579402
9196, 34.6093311, -22.5866479, -0.0685638199
9197, 35.2766047, -24.0276984, -2.13261999
9198, 34.9216333, -18.2020531, 8.65064277
9199, 35.1696476, -18.3806425, 8.65048889
9200, 35.2046849, -18.044535, 8.65075801
9201, 28.8216319, -20.8843193, 8.25616336
9202, 34.4833075, -17.7800589, -8.48468723
9203, 39.4868582, -3.51963045, 6.1616458
9204, 34.9526653, 3.99433613, -7.20916048
9205, 34.9506419, 5.47123871, -6.79573347
9206, 34.2757007, -4.41632845, -3.5925392
9207, 15.3335621, -17.2856519, -5.32663855
9208, 18.2008214, -19.0250708, -3.23083923
9209, 37.7652532, -7.70866165, -3.43063861
9210, 37.9886105, 5.46495587, 4.54119084
9211, 37.0056576, 0.612502623, -8.93645798
9212, 12.4671083, -20.4745733, -2.66643211
9213, 12.8033399, -20.4904721, -2.99311948
9214, 17.2283554, -18.2862901, 3.94849533
9215, 19.2113811, -16.9751158, 5.53190354
9216, 32.0214416, -19.6805649, -0.0710252111
9217, 32.2756137, -19.5667651, -2.44346756
9218, 30.8037188, -19.8631679, -8.36078642
9219, 30.9289027, -20.2404539, -8.36061185
9220, 17.0492395, -17.5331814, 3.5252895
9221, 16.3754002, -17.0682695, 3.39748432
9222, 15.860085, -17.279981, 4.24949485
9223, 12.4386625, -17.5096978, 5.12598896
9224, 39.4620131, 0.449683821, 3.52692289
9225, 35.9970538, -4.64552972, -8.87054959
9226, 13.3180397, -19.6010935, 5.42189031
9227, 9.43338964, -18.767753, -5.00180543
9228, 10.4342718, -19.2485346, -4.77143638
9229, 37.3733323, -20.9685293, -2.01862153
9230, 37.3333901, -21.2096252, -2.02018453
9231, 35.9166104, -20.6285201, -0.0708154958
9232, 35.3098505, -21.1032515, -2.08791017
9233, 35.6984619, -23.7633388, -4.15939593
9234, 36.1696461, -23.361739, -4.1642994
9235, 15.7461396, -20.8885033, 8.5584257
9236, 29.2424611, -19.4705566, -8.35963889
9237, 29.2417825, -19.4702155, -5.98307804
9238, 33.5931815, -17.1159751, -8.79124127
9239, 34.2721761, 7.39038515, -3.04570625
9240, 34.7845161, 7.27497693, -3.83281532
9241, 35.9341233, -18.2634175, 6.40136991
9242, 22.6025433, -24.0192566, 3.00717892
9243, 18.8733093, -24.5166326, 2.88346733
9244, 34.8982308, -24.2231203, -4.17219885
9245, 34.6774892, -24.3085977, -2.13672896
9246, 34.6859527, -24.3281393, -4.15667529
9247, 34.6513403, -14.8770677, 8.40801806
9248, 35.2735272, -3.49387051, -0.0127552425
9249, 28.4536578, -19.2059555, 7.12612313
9250, 28.8472572, -20.2502671, 5.8777617
9251, 29.1232252, -20.2365871, 5.87780697
9252, 28.7312917, -19.1930598, 7.12551036
9253, 34.9017403, -24.2228191, 4.17194304
9254, 34.6843997, -24.324883, 4.15686715
9255, 34.677274, -24.3145975, 2.13363945
9256, 15.8514673, -17.7250367, 4.88887464
9257, 30.6139234, -19.6035653, -8.36046925
9258, 14.2107245, -24.3885158, -2.86550016
9259, 14.4600551, -24.5278262, -2.61412226
9260, 14.1688843, -24.4909383, -2.59203597
9261, 36.8535893, -18.6020696, 3.5529442
9262, 37.0226189, -18.4170389, 3.54537536
9263, 36.4538657, -19.8987842, 4.65362749
9264, 36.6151494, -19.6864809, 4.65009564
9265, 34.8143007, -13.5119716, -8.48650256
9266, 35.8249378, -12.1921117, -8.48868642
9267, 39.4916852, -3.96335034, 5.38373901
9268, 36.0044897, -9.19269454, 5.43757253
9269, 40.0503736, 6.19765871, -1.60509335
9270, 34.2856985, -3.04433388, -4.56270147
9271, 12.1971296, -19.3420279, -4.33288032
9272, 15.3016245, -23.892186, 3.72181333
9273, 15.2967423, -22.62167, 3.7093756
9274, 35.2785126, 3.74627281, 1.09760357
9275, 34.290286, 2.78447881, 1.36378472
9276, 33.5652195, -18.5496078, -4.98609165
9277, 33.7624157, -18.3517038, -4.98842773
9278, 32.9611217, -19.092107, -2.44400601
9279, 34.3229332, -17.6515899, -8.95595787
9280, 34.321772, -17.3395791, -8.95602117
9281, 34.9916081, -14.5080403, 8.4085784
9282, 35.1921939, -14.8136082, 8.40868267
9283, 35.4676247, -14.6457482, 8.40908535
9284, 35.2803692, 2.50608078, -6.02474668
9285, 34.289429, 3.33920548, -6.14810577
9286, 35.2279014, 3.42397256, -6.72376602
9287, 38.2568394, -4.8267715, 7.37119605
9288, 17.7851626, -17.0471987, -3.59959626
9289, 17.7808234, -17.7887459, -3.96283185
9290, 14.5483515, -22.6275511, -3.216369
9291, 24.0656364, -19.1087677, -1.74288424
9292, 34.9368904, -14.8343987, 8.40836101
9293, 11.0667194, -20.8898772, 6.27031382
9294, 40.0444548, -1.68797222, 5.51546624
9295, 33.3847911, -19.343501, 7.01555169
9296, 32.3174146, -19.8804713, 6.00669007
9297, 33.0249389, -20.1546456, 7.29069606
9298, 31.9761293, -20.6962876, 6.2915154
9299, 32.3937774, -19.0804371, 7.30032386
9300, 36.9898856, -7.62797729, -7.20957807
9301, 21.497543, -18.5657029, -0.758721908
9302, 36.4708834, -16.1838216, -8.8495149
9303, 36.1969436, -16.0462978, -8.84963407
9304, 36.4318249, -15.9363964, -8.84963653
9305, 11.2223614, -20.8860495, -6.44468219
9306, 10.8104063, -20.270825, -6.68963089
9307, 11.8818104, -20.1938886, -6.6240259
9308, 36.6720785, -15.3054956, 5.65138011
9309, 31.8147, -18.5442708, -8.92702165
9310, 31.7843204, -18.7434163, -8.92709334
9311, 31.5829039, -18.7258615, -8.92711337
9312, 35.9872264, -9.6072634, 7.82873823
9313, 39.4952214, 6.48186357, 3.14763676
9314, 34.8394137, -18.9967325, 8.64984425
9315, 35.064242, -18.7476241, 8.65017585
9316, 34.6818991, -18.7025856, 8.65009155
9317, 14.9100568, -20.4938757, -4.89601201
9318, 16.432226, -19.7937828, 8.85730029
9319, 28.2416865, -20.2402771, -2.51420199
9320, 28.2198034, -20.2353183, -4.87733053
9321, 28.4931367, -20.2011928, -4.87448426
9322, 37.885739, 6.54135896, -1.74571055
9323, 38.0038264, 7.30287803, -2.27070622
9324, 13.990403, -24.2797494, 2.74044489
9325, 34.2778258, -2.45708792, -0.490048184
9326, 30.4755316, -18.8214584, 8.42611253
9327, 34.4981262, -19.134186, 7.09650819
9328, 33.8645448, -18.0546254, 7.11671388
9329, 33.878085, -19.8609541, 7.58274023
9330, 33.244435, -18.7840833, 7.594351
9331, 13.5018258, -23.3568054, 1.99995972
9332, 13.7989278, -24.0419904, 2.58750913
9333, 13.8080424, -22.7754835, 2.58563487
9334, 37.2691999, -21.445568, -2.01780045
9335, 28.0260338, -20.2512764, -7.2164068
9336, 28.6631175, -20.7932376, -8.20889419
9337, 26.7852513, -19.5457739, -8.51799338
9338, 28.6717465, -20.0268388, -8.36103384
9339, 29.918263, -20.7336278, -7.06758295
9340, 35.8837814, -14.9002387, -0.703173386
9341, 35.8909168, -14.8913348, -3.08841996
9342, 15.5309843, -21.4584287, -3.22308199
9343, 38.4258408, 0.00168340292, 3.87679945
9344, 35.9847675, 6.79900486, -5.90936521
9345, 32.9631511, -18.3736268, 7.63324689
9346, 12.8154405, -19.7030898, -5.22736734
9347, 12.6589371, -17.8998233, -3.93659309
9348, 11.6337929, -17.9307631, -3.98796784
9349, 11.9221155, -19.4007987, -3.28051501
9350, 15.157183, -20.4949189, 7.82049892
9351, 15.1857545, -20.8908627, 8.70159605
9352, 24.6052949, -23.6977246, 3.49942004
9353, 35.9942596, 5.02660657, 7.49241322
9354, 8.67758267, -20.8903174, -1.29463827
9355, 38.234998, -6.61920222, -5.83495804
9356, 22.7185372, -17.3038854, 1.46175144
9357, 26.8022121, -23.7682559, 3.52641501
9358, 38.2561173, -4.81746605, -7.36236049
9359, 17.0493182, -18.7867258, -4.35180047
9360, 17.4968487, -18.511916, -3.42558289
9361, 38.438548, -4.01193701, -0.727729371
9362, 9.46102485, -19.2081986, -2.6483032
9363, 14.6727199, -19.8783569, 0.913939181
9364, 39.5173101, 5.0714767, -5.04294641
9365, 38.4578232, 4.26992764, -5.14288063
9366, 38.4065037, 4.00416793, -0.724092873
9367, 13.9071289, -24.3950487, 2.50784121
9368, 13.7051698, -24.2770614, 2.31455497
9369, 9.38116686, -19.2375209, -2.36645463
9370, 36.6096446, -21.0652185, 4.63930561
9371, 14.5452229, -23.8929126, -3.22029032
9372, 14.110552, -24.035238, -2.96459957
9373, 14.1215796, -22.7730138, -2.9649953
9374, 32.9601679, -19.0922231, -0.0700410512
9375, 37.903288, 7.0531096, -1.45933081
9376, 37.7501231, 7.66841692, -3.45103993
9377, 36.7684278, 7.56461231, -4.33939567
9378, 33.9534758, -13.7762792, -2.37495193
9379, 35.9460904, -14.6294691, -0.702387864
9380, 13.4584848, -24.4749763, 1.79707784
9381, 35.0221721, 2.25507613, 8.00461868
9382, 35.0295925, 2.09630413, 8.48097504
9383, 35.0190168, 2.6637665, 8.2738987
9384, 39.7591369, 3.56343871, -1.23356085
9385, 39.7508043, 4.36330626, -1.56765255
9386, 13.9528361, -17.5248411, 6.24771645
9387, 23.9829251, -17.503603, 3.03289026
9388, 24.3347877, -19.0153962, 2.47030719
9389, 37.9232274, -7.66293207, 0.867074442
9390, 27.3872135, -20.2854637, 3.37438815
9391, 35.6203089, -15.4859214, 4.74132055
9392, 35.7175914, -15.2231375, 4.75721804
9393, 37.8296524, -15.6599896, 3.2358468
9394, 19.1675598, -18.3455966, 4.94004337
9395, 9.87572525, -19.5694492, 4.19658917
9396, 35.9490726, -14.620412, -3.08350791
9397, 33.9534366, -13.7764248, -4.74997059
9398, 20.8332824, -17.2879266, -5.17096554
9399, 11.0947243, -19.5770943, 5.9560723
9400, 32.8116869, -18.2404256, -8.5263227
9401, 13.625308, -23.6032454, -1.84892949
9402, 13.8118402, -24.0411978, -2.59500934
9403, 11.3804161, -20.4823954, -2.79307313
9404, 10.8219136, -19.4287706, -3.27138025
9405, 35.0265892, -18.7788424, -9.02844977
9406, 35.5172081, -18.2316343, 8.65067169
9407, 38.0050952, 6.82098751, 2.53308507
9408, 35.989981, 6.79012412, 5.89794466
9409, 37.1896477, -21.6771729, -2.01918112
9410, 37.9277376, 1.01899505, -7.46071684
9411, 25.1808011, -19.1253112, 0.838492075
9412, 24.8150571, -24.5131753, 3.42693487
9413, 13.7912915, -17.5238102, -1.02195518
9414, 37.9205692, -7.70970539, -0.628495232
9415, 39.9666452, -2.25897048, 3.49087775
9416, 33.2881728, -17.0689524, -8.79123429
9417, 12.3677873, -19.5547347, -7.00089465
9418, 12.6224434, -19.5577131, -7.16975702
9419, 12.3675789, -20.1911715, -6.99701809
9420, 22.031945, -20.000324, 6.74943478
9421, 31.0558789, -20.0455431, 4.87166447
9422, 30.7918653, -20.1343477, 4.86998294
9423, 29.2557882, -20.4340346, 3.11578829
9424, 29.5192241, -20.3471893, 3.1141914
9425, 20.6118408, -20.5012354, 7.272811
9426, 36.9823515, 8.60830288, -1.7013384
9427, 35.065153, 8.55807805, -2.01539653
9428, 35.0431184, 8.69947378, -1.40699851
9429, 13.9975411, -24.2773235, -2.74201175
9430, 37.9909158, 7.19096363, 3.66205172
9431, 37.7252585, 6.79665187, 4.12448039
9432, 38.2343434, 8.06886563, 4.99823481
9433, 20.533577, -20.4915523, 8.50395704
9434, 37.0811446, -21.8976492, -2.01689468
9435, 11.6168659, -20.8848807, -6.81488132
9436, 12.2488063, -20.8065714, -6.30397681
9437, 37.9806597, -14.7440357, -2.84991159
9438, 37.9229508, -15.1313492, -2.97846212
9439, 39.4974312, -6.4767303, 3.0334802
9440, 37.9933579, -6.83037037, 2.47002325
9441, 31.552529, -19.7953468, -4.87085071
9442, 31.3092986, -19.9292845, -4.87169646
9443, 32.5186359, -19.4296615, -2.44258449
9444, 8.01310821, -18.7669507, 0.302093997
9445, 9.04116609, -18.5615175, 0.135614161
9446, 39.1134927, -0.394738074, 7.47610839
9447, 35.2796249, 6.56857943, -2.44243972
9448, 24.0129904, -18.7219661, 5.92370186
9449, 13.3563828, -17.9093911, -4.58524943
9450, 33.3045421, -21.2290917, 8.25868161
9451, 36.646199, -16.4280708, -8.84939067
9452, 36.4658588, -16.7310167, -8.84929995
9453, 36.2604423, -16.4025848, -8.84941398
9454, 8.12202856, -20.2739165, 1.23666524
9455, 8.63656378, -20.4727698, 1.14018187
9456, 39.03801, 2.98276455, 6.62891584
9457, 39.4751179, 3.54273686, 6.24603109
9458, 17.2070257, -20.8774125, 8.93492174
9459, 17.7706394, -20.480649, 8.8411625
9460, 17.2060296, -19.8964944, 8.93880399
9461, 37.5505918, -13.9734951, 8.12657704
9462, 13.4880161, -18.5711768, -0.739497285
9463, 12.9129897, -18.3399591, -1.41644836
9464, 24.904897, -18.5552218, -1.52403471
9465, 25.0060547, -18.2186236, -1.31008331
9466, 34.2955776, 8.98220043, -0.906196154
9467, 33.3507091, -18.7289316, -4.98600474
9468, 32.7476516, -19.2711526, -2.44389261
9469, 22.5655089, -17.5070318, -5.03709584
9470, 22.1310233, -18.9151979, -5.3891611
9471, 33.0415653, -20.9582523, -7.50270719
9472, 13.7103202, -24.2681508, -2.31904776
9473, 13.9144703, -24.3922027, -2.50939483
9474, 37.9807797, -7.23994073, 3.66590018
9475, 10.711385, -21.0030538, 2.87920896
9476, 34.2757835, 2.45230968, 7.94215886
9477, 34.2787184, 2.30923057, 8.42089873
9478, 35.2978941, 1.86188053, 7.68256287
9479, 34.2923008, 7.97332559, 2.48199054
9480, 24.583816, -19.0956557, -1.44057358
9481, 23.5825525, -18.0070277, -1.2844127
9482, 36.9798934, 8.67578993, -1.40297979
9483, 23.5699663, -23.6619075, 3.21736314
9484, 22.0022712, -19.9960102, -6.75264486
9485, 21.0152844, -18.9529176, -6.57245964
9486, 37.940506, 7.67115332, -0.64188901
9487, 36.3491403, -23.1944426, -4.14052819
9488, 29.443001, -24.5362404, 3.44203668
9489, 29.5182912, -20.3451513, 0.74301531
9490, 32.0247734, -18.2781522, -8.07827384
9491, 31.552844, -18.4487086, -8.92699503
9492, 37.7462296, -2.91900573, -8.37982109
9493, 37.1829052, -3.31355273, -8.84147016
9494, 38.0060619, -7.77739151, -0.130384511
9495, 39.4810618, 4.27370457, -5.65643106
9496, 36.3504798, -23.1945847, 4.13995452
9497, 36.1681681, -23.3593297, 4.13768428
9498, 17.8990983, -19.2372975, 7.73740787
9499, 18.7861571, -19.2164745, 7.25401693
9500, 34.3579836, -19.0072545, -6.3270412
9501, 11.1879916, -18.9565128, -2.39477619
9502, 17.4999015, -18.5829701, 3.88818556
9503, 36.9737826, 8.54201585, -2.00987974
9504, 37.1843308, -3.30358421, 8.84324412
9505, 36.9836393, -1.91669041, 8.54390954
9506, 34.3000549, -2.68447626, 0.144169231
9507, 37.9552948, 7.78899377, -0.100873333
9508, 30.7378646, -18.732543, 6.05140681
9509, 30.4738763, -18.8216725, 6.0515778
9510, 37.9121687, 1.67187075, -6.72321035
9511, 37.9276797, -1.09012906, -7.56011804
9512, 35.0143864, -17.7242101, 8.12323141
9513, 19.7606309, -17.0474243, 3.49227111
9514, 12.1049247, -20.8868174, -7.1911665
9515, 12.5119766, -20.8839887, -7.50121321
9516, 37.9064049, -7.04654696, -1.46051958
9517, 23.5520345, -24.0959588, -3.29622721
9518, 13.0229194, -19.3865482, -7.49200906
9519, 12.7522554, -18.7530067, -7.35606826
9520, 13.0285281, -18.7610486, -7.48459008
9521, 34.9516275, 4.49558074, -7.5485437
9522, 36.949903, 4.76252599, -7.38984236
9523, 23.8310692, -23.1946713, 3.74553265
9524, 15.837643, -18.0283034, -5.10263138
9525, 36.9399223, 4.50072984, -7.5464061
9526, 24.0158227, -18.7184824, -5.90634873
9527, 9.70761637, -19.5299393, 3.94487438
9528, 39.9287834, -0.29353106, -3.57955774
9529, 36.6723648, -22.8206114, -4.14974345
9530, 36.4632845, -22.150291, -4.15481546
9531, 36.9615949, -22.110705, -4.02807032
9532, 36.9551848, -22.4876284, -4.25232632
9533, 36.7460967, -21.8082054, -4.26877961
9534, 36.4470979, -22.5141177, -4.38060971
9535, 37.2737267, 3.58578512, 6.53501534
9536, 24.6054326, -19.2933828, 3.74780839
9537, 24.7088269, -20.2622713, 5.04039561
9538, 39.7344684, -2.31848664, 5.14189493
9539, 37.9059756, -0.576152656, -7.73697663
9540, 38.0237822, 3.48086091, -6.58724909
9541, 37.7670068, -0.0270307191, 8.9407844
9542, 36.2774448, -0.0155287955, 9.04163355
9543, 36.9504998, -0.919664627, 9.00233794
9544, 35.4885297, -0.930667607, 9.1143551
9545, 20.4828844, -24.1606271, 1.26147167
9546, 21.4438406, -17.5009839, 5.40355702
9547, 31.0031846, -20.732277, -7.60424186
9548, 35.4935208, -23.906395, -4.15641112
9549, 36.9413722, 4.22616876, -7.69459097
9550, 13.4748395, -24.6023397, -1.77013674
9551, 35.4868784, -23.9037196, 2.1338722
9552, 35.7013439, -23.7673072, 4.16351262
9553, 35.4933951, -23.9075699, 4.15356379
9554, 34.7251253, -17.6723519, 8.89998333
9555, 37.7476066, 1.1454908, -8.7918527
9556, 37.8973171, 0.515312293, -7.69947575
9557, 33.5818635, -19.20052, 6.38606738
9558, 32.7465939, -19.271229, -0.0700501272
9559, 34.4861079, -18.9415277, 7.97978492
9560, 35.2886017, 2.27054565, -7.06286896
9561, 38.0165498, 3.59337208, 0.510169503
9562, 38.0251223, -3.60881865, 0.511474253
9563, 9.8293678, -19.0721827, -0.643479964
9564, 35.4601107, -1.49302835, -8.93617089
9565, 34.3084034, -1.68637825, -8.42923236
9566, 34.2791185, -0.604935835, -8.98198142
9567, 34.9036142, -18.498985, 8.65038353
9568, 34.2772178, 2.86691615, 7.55161236
9569, 35.3018529, 2.24239804, 7.11417029
9570, 14.3728529, -18.9864892, 0.746532806
9571, 8.96991383, -19.2534935, 1.97823245
9572, 9.04187956, -19.2465554, 2.29554873
9573, 14.0102021, -17.0255549, -1.63833633
9574, 34.2827535, -2.65842681, 3.93618095
9575, 36.997267, 1.77675759, 8.56100385
9576, 35.0486417, 1.51552749, 8.64048964
9577, 39.4957482, 3.98211104, 5.46976175
9578, 31.9822767, -20.6964883, 7.33301361
9579, 36.0080505, -16.0397323, -8.19207829
9580, 35.8652383, -16.1703059, 7.3004003
9581, 37.0964001, -15.5442038, 7.36090607
9582, 36.1831012, -16.0470961, 7.95383339
9583, 36.9876326, -5.75594442, 8.86180555
9584, 36.9875465, -7.63160772, 7.19635242
9585, 36.9290074, -3.46164818, -5.4179457
9586, 38.4999889, -4.36611107, -5.24350465
9587, 37.6002903, -20.5529453, 4.1538423
9588, 12.7132644, -20.0911568, 6.18504676
9589, 37.6015594, -20.5528289, -4.14947441
9590, 36.7488147, -16.0593506, -8.84952801
9591, 37.0455695, -19.3804941, -4.51545451
9592, 36.6251583, -19.6816829, -4.64144911
9593, 35.5205096, -16.8339871, 8.13853796
9594, 37.5973549, -20.5549306, 2.13196823
9595, 25.9561921, -20.25719, -8.52216742
9596, 27.6396868, -20.797176, -7.25333986
9597, 27.0117062, -20.2602948, -6.26760392
9598, 37.5944244, -20.5559207, -2.13350887
9599, 16.6610907, -19.8910925, -8.83219718
9600, 17.0879363, -20.8866857, -8.93717436
9601, 17.7323408, -19.9134309, -8.89889146
9602, 34.2677079, 3.1406093, -7.05244802
9603, 40.0087539, 1.34392665, 5.09949698
9604, 39.7205063, 2.05327625, 4.79562389
9605, 36.6618689, -22.8148647, 4.13816169
9606, 36.9608926, -22.1124184, 4.02541627
9607, 36.7462816, -21.8111109, 4.26521029
9608, 36.954295, -22.4890032, 4.25184266
9609, 36.465219, -22.5304506, 4.38936807
9610, 36.5154921, -23.0123941, 4.13987599
9611, 36.5133423, -23.012554, 2.1300189
9612, 16.107107, -18.7819684, -4.84882741
9613, 36.5147895, -23.0126006, -4.13982375
9614, 14.9080038, -23.8941748, 3.51664089
9615, 33.8759034, -19.8597274, 8.83274604
9616, 26.7137856, -20.2571021, 4.99933107
9617, 10.2996815, -19.2612855, -4.49269776
9618, 35.2824825, -18.8722671, -6.39105783
9619, 34.2825056, -0.0164626925, 9.04913231
9620, 32.3972567, -17.8412166, 5.88663055
9621, 32.5937935, -17.6431779, 5.88655268
9622, 31.6792157, -18.1456694, 6.05172862
9623, 31.8757454, -17.9471965, 6.0515146
9624, 32.0162037, -18.5698692, 7.18626273
9625, 16.2678389, -20.8622052, -9.00495385
9626, 36.7819072, 7.71276275, -4.06258826
9627, 34.790656, 7.56386571, -4.33957494
9628, 13.3035363, -24.2632962, 1.85745337
9629, 37.9771731, 7.52379277, 0.899765778
9630, 12.9891046, -20.8871348, 7.71139278
9631, 33.7093442, -17.7031974, 8.32433157
9632, 37.005647, 2.06297291, 8.47541718
9633, 34.0453385, -19.8510306, -8.85738711
9634, 37.8325327, 0.421755432, -4.28337457
9635, 38.4169404, 0.286660069, -4.24484239
9636, 40.0891377, -6.52681741, 1.50644048
9637, 19.5309038, -17.9978915, -6.01361391
9638, 33.9723917, -24.4031771, -4.05932893
9639, 26.5048997, -19.2721617, 0.593328302
9640, 26.7155338, -20.2539559, -5.00616999
9641, 34.2754077, 1.95667279, 8.18294007
9642, 34.2780125, 0.916343866, 8.76070535
9643, 35.0325137, 1.75379707, 8.24676811
9644, 35.2888204, -24.0393214, 4.16671471
9645, 35.2752928, -24.0275395, 2.13257579
9646, 36.976848, 8.43788009, -2.30829512
9647, 34.9675401, -15.797051, 7.88070537
9648, 40.1028967, -7.27213652, 1.6292773
9649, 20.4016073, -17.2899267, -5.83426441
9650, 35.2879365, -24.0410523, -4.16673052
9651, 31.5467764, -18.962579, -8.92719889
9652, 31.764484, -18.9179096, -8.92716929
9653, 39.9592422, 2.303068, 3.55460333
9654, 36.9799069, 1.48483059, 8.627623
9655, 35.2650964, -0.894463543, 8.34320335
9656, 36.9408645, 5.00408599, -7.2081923
9657, 37.0403315, -19.3825938, 4.51609898
9658, 36.9836031, 2.49896857, -8.2537218
9659, 15.1970182, -17.0597452, 3.55267683
9660, 30.29852, -19.4936756, -8.36026963
9661, 35.0055817, -14.6792421, -7.99450074
9662, 34.2817449, 0.621297804, 9.06435812
9663, 16.4877945, -19.0665167, -7.45935557
9664, 36.9775541, 2.20598984, -8.3584699
9665, 31.7640686, -20.6964255, 8.88276033
9666, 32.1112969, -20.157983, 8.54079285
9667, 32.327672, -20.6978869, 7.92546255
9668, 34.2753319, 1.19108388, -8.88476373
9669, 15.425956, -23.6473306, -4.05799735
9670, 14.92015, -23.892384, -3.52355886
9671, 21.8941811, -20.2596587, 8.89552908
9672, 36.9910722, -15.1778047, 8.78798559
9673, 19.1465426, -19.0861838, -6.70069879
9674, 37.001472, 8.42595925, 2.12257998
9675, 21.7786586, -17.5094207, -5.65219064
9676, 13.3241803, -24.378671, -1.83472272
9677, 12.9153176, -18.8787232, -5.4242528
9678, 12.4032893, -17.5198579, -5.04511137
9679, 36.9929508, 8.23120238, 2.70854351
9680, 39.9072343, 0.477152505, -3.65663042
9681, 17.200039, -17.2973741, -7.57743014
9682, 17.4991339, -16.974697, -7.63730445
9683, 11.7691468, -19.5698339, 6.59822817
9684, 35.2735723, -0.582822779, -8.43802492
9685, 36.7735596, 7.84560434, -3.7844793
9686, 37.3917459, 4.78008641, -5.54665456
9687, 36.9998905, 2.36160011, 8.3880227
9688, 37.0135545, 8.33390385, 2.41601087
9689, 15.4984808, -21.0673581, -3.98118205
9690, 21.0015375, -19.2228607, -7.4671998
9691, 20.847674, -20.2632804, -7.87398853
9692, 21.9537288, -20.2533085, -7.66451921
9693, 36.965251, 2.78770654, -8.14925536
9694, 20.8590769, -19.0099468, 7.0826533
9695, 34.2731074, 1.96976144, -8.28512584
9696, 34.2901161, 2.70151438, -7.35079363
9697, 13.134339, -20.7811195, 6.83517228
9698, 19.3113565, -19.0605972, -6.12661467
9699, 18.8379142, -16.9932647, 5.10575891
9700, 19.5389425, -17.2755884, 4.77680973
9701, 36.9485172, 5.24297479, -7.00574775
9702, 27.0630691, -19.638623, 8.51326049
9703, 25.9622302, -20.258175, 8.52406024
9704, 27.0142164, -20.2599305, 6.26336394
9705, 27.9168339, -20.8824023, 7.25128745
9706, 17.791908, -17.2951419, -7.54454565
9707, 10.945531, -17.5154421, 2.24236824
9708, 11.7399763, -18.0227633, 2.20367254
9709, 35.5883197, -18.2063306, 6.10790411
9710, 35.4954371, -18.3074264, 6.1097307
9711, 35.1043209, -18.2095294, 7.50683257
9712, 35.2615776, 8.27593291, -1.07789325
9713, 34.2952396, 8.50339428, -1.76838718
9714, 40.0365463, -1.34500369, 5.09973636
9715, 39.7373672, -1.98199064, 4.73967031
9716, 13.3898375, -24.0391493, 2.14613945
9717, 18.0461155, -19.0897929, -7.73706591
9718, 18.5042152, -19.060637, -7.48165122
9719, 34.2989764, 6.69368259, -3.04416826
9720, 34.6164663, -19.4991596, 7.39655745
9721, 31.4242074, -20.695935, 8.2868873
9722, 33.989549, -16.4440108, -8.29993954
9723, 15.8960991, -19.2654077, 8.53391001
9724, 34.7183516, -14.6624313, 8.4081693
9725, 35.3904077, -14.2496626, -8.48628002
9726, 39.8119425, -5.09327682, -2.04741937
9727, 28.7051416, -23.073897, 3.2551752
9728, 38.2260064, 3.91941261, -7.75409773
9729, 38.2355219, 4.21171136, -7.61580863
9730, 38.2331299, 3.89580367, 7.76173205
9731, 38.2383417, 4.18837049, 7.65549044
9732, 38.2763897, 5.94665345, -6.41549703
9733, 38.2753668, 6.12462395, -6.19349949
9734, 28.985739, -20.4980126, 3.11689069
9735, 23.8296649, -18.4963616, 1.75216697
9736, 23.9763057, -19.1225251, 1.6647555
9737, 10.4475023, -19.1105128, -1.46154471
9738, 35.0771301, -15.8087976, -7.07751735
9739, 34.0080678, -14.8738979, -5.94934975
9740, 34.9742318, -14.9929586, -5.87881088
9741, 35.8379999, -14.7233667, -7.23905941
9742, 34.7666059, -13.7912863, -6.11184634
9743, 34.869835, -14.6080174, -7.30988555
9744, 35.2860747, -1.56598396, -7.95772126
9745, 34.3604343, -23.7597694, 4.6380693
9746, 34.1485416, -23.9860501, 4.65839218
9747, 34.3295919, -23.930634, 4.66166285
9748, 13.2309874, -20.3977856, -3.55845548
9749, 35.8793764, -14.5703753, 4.64565414
9750, 35.9337312, -14.1821399, 4.5130901
9751, 34.7024928, -14.8027451, 5.76135717
9752, 17.9062267, -19.2371767, -4.29619563
9753, 23.069131, -19.9998299, -5.81515978
9754, 34.3289994, -23.9301636, -4.66145077
9755, 34.1472823, -23.9859425, -4.65815342
9756, 34.3601199, -23.7591167, -4.63829591
9757, 32.0155512, -18.1745598, -8.98450672
9758, 31.9335043, -18.8492921, -8.41178921
9759, 16.7356578, -20.3960565, 8.8676286
9760, 37.5313831, -14.3649485, 8.19513777
9761, 19.1575546, -19.1070011, 5.37913847
9762, 10.9587562, -19.1032653, -1.75401201
9763, 10.1999765, -18.9896036, -2.26513327
9764, 15.1407886, -20.4914373, -4.32755123
9765, 13.9146747, -20.4013685, -4.2369977
9766, 13.9621843, -17.277887, -1.38947586
9767, 15.9321997, -19.0817067, -5.15000941
9768, 31.9523727, -18.1782246, 5.88577331
9769, 31.6092673, -18.9931651, 6.16251377
9770, 14.1466426, -20.7813425, 7.42177412
9771, 13.6628339, -20.7801333, 7.13760005
9772, 14.3085031, -20.7848571, 6.49214029
9773, 33.0081144, -21.2084698, -5.61738985
9774, 16.1547142, -16.9922081, 5.09961666
9775, 15.4793868, -17.2791802, 4.7254522
9776, 38.4797194, 7.46244702, 1.30542424
9777, 38.9460797, 7.16547627, 1.72919608
9778, 38.9350215, 7.55443098, 1.21131033
9779, 16.982033, -19.0818598, -7.70111966
9780, 33.7436085, -24.4642458, -4.05069876
9781, 35.0025026, -5.56323821, 8.27219656
9782, 38.284397, 5.2390984, -7.00085248
9783, 38.2736357, 5.52136023, -6.85486052
9784, 38.2699573, 5.51929349, 6.8543626
9785, 38.2649517, 5.27519038, 7.04401538
9786, 33.9710662, -24.4019629, 4.05735476
9787, 33.7428087, -24.4641674, 4.04995088
9788, 27.0173553, -20.0780294, 0.204936263
9789, 36.3526985, -16.0782269, -7.60249947
9790, 37.0038606, -15.1045009, -6.94908413
9791, 24.3956364, -17.0005821, -1.84362941
9792, 24.6939278, -17.2825783, -1.76884459
9793, 24.9045608, -16.993852, -1.5262499
9794, 34.7398322, -18.2077617, 8.04983905
9795, 34.2902037, 8.79243381, 1.50474051
9796, 13.8783219, -20.2709153, 8.73984507
9797, 14.5863093, -20.8897215, 8.54612789
9798, 14.0088661, -20.8891971, 8.30573754
9799, 33.4974347, -18.0517671, 7.65887743
9800, 34.7292219, -19.0092368, 6.47652366
9801, 34.816339, -19.4108559, 6.76577935
9802, 39.499357, -4.29175537, -5.65570598
9803, 13.9776534, -18.2309006, 5.55185047
9804, 34.7662492, -15.4064425, -9.0089566
9805, 31.9772068, -19.5132661, -8.12607916
9806, 28.7064422, -20.5414095, 0.742515675
9807, 32.8062516, -19.1284437, -5.24520536
9808, 31.7926823, -18.4369129, -5.69961946
9809, 37.748324, 8.61040279, 1.70050793
9810, 33.5050357, -24.4916863, -4.04297057
9811, 17.5042167, -17.0196775, 3.89258693
9812, 28.712045, -20.5395145, 3.12095333
9813, 40.0119517, -0.000987104129, 3.91420684
9814, 33.5037526, -24.4929812, 4.04280527
9815, 37.3398223, -21.2144828, -4.05311991
9816, 13.2209339, -17.5130155, -5.65013123
9817, 34.0984279, -19.7265328, 8.8324627
9818, 37.7371855, 2.78560416, -7.843698
9819, 37.7405694, 2.0319795, -8.6044167
9820, 24.3446248, -24.2196877, 3.07439347
9821, 24.9691798, -19.0815, 1.10180698
9822, 34.2676244, -19.7181576, -8.85657446
9823, 17.9216173, -16.8325979, 7.49053029
9824, 24.816843, -20.2316474, 6.30862226
9825, 23.0589627, -20.2327969, 7.94987733
9826, 22.2490428, -18.7504206, 7.39277723
9827, 23.1596793, -19.9538468, 7.06278362
9828, 34.9631977, -16.5016221, -8.29846431
9829, 35.3283178, -18.5032401, 6.1214689
9830, 35.0287262, -17.5996663, -7.98085063
9831, 33.1749059, -18.0267106, 8.29694191
9832, 14.5671267, -19.7826995, 7.15831022
9833, 31.4880962, -18.600155, 8.4260358
9834, 40.1179172, -0.417316075, 7.47721585
9835, 34.4991004, -16.6879484, 7.74595258
9836, 37.9300917, 1.30565804, 7.21493235
9837, 8.58488702, -19.8886847, -0.587798263
9838, 8.04077226, -20.2756821, -0.00347497695
9839, 8.56283432, -20.470128, -0.116960475
9840, 33.8982035, -17.5325079, -8.49771799
9841, 38.2507291, 0.933700753, -8.68450399
9842, 38.2569525, 0.608158511, -8.69222835
9843, 25.1247425, -20.2741838, -7.51957882
9844, 25.0804826, -20.2746442, 7.56965721
9845, 37.7716399, 7.81170136, -3.18569387
9846, 24.4781458, -17.5209403, 2.21895045
9847, 32.1824342, -18.0200128, 5.8859832
9848, 31.4654052, -18.3246966, 6.05085492
9849, 23.0985349, -20.2326465, -7.9004618
9850, 24.861832, -20.2326354, -6.25983358
9851, 23.1953237, -19.9529631, -7.01867701
9852, 22.2416278, -18.7511841, -7.39327508
9853, 37.2152499, 4.48853035, -6.67405374
9854, 11.6524933, -19.571713, -6.4229126
9855, 38.4545722, -7.36409371, -1.5288247
9856, 38.7852699, -7.46718338, -1.32724468
9857, 20.7565101, -19.2587803, 7.96238047
9858, 21.9663557, -20.2433207, 7.64765905
9859, 13.5092969, -17.511201, 5.46270838
9860, 37.0871582, -21.9000506, -4.02956293
9861, 35.3953629, -18.5703767, 8.65034426
9862, 38.4265761, 6.31313855, 1.77169115
9863, 37.8300837, 6.4283656, 1.72631705
9864, 11.5356024, -19.573615, 6.39364621
9865, 38.0317708, -7.2828015, 1.26854176
9866, 13.6768441, -18.7336661, -1.33128152
9867, 32.8088871, -19.128552, 5.24668922
9868, 9.18023801, -19.3591352, 2.78413715
9869, 9.17851274, -18.7270031, 2.76256703
9870, 37.0866164, -21.9016343, 4.0267572
9871, 27.9417266, -20.2586098, 4.87948505
9872, 16.1133439, -18.6990471, 7.3222056
9873, 19.2708763, -19.721437, 8.53029788
9874, 18.2814324, -19.758289, 8.99799252
9875, 12.9086449, -20.1663195, 7.31008185
9876, 8.57401204, -21.0593756, 0.826545157
9877, 39.4772306, -6.96722368, 2.22409966
9878, 16.8804807, -19.2473745, 8.94904331
9879, 17.2036866, -19.222205, 8.9278226
9880, 32.9892294, -24.5691973, -4.46759619
9881, 12.9088964, -19.5333378, 7.31642789
9882, 12.652909, -19.530322, 7.14226695
9883, 38.9770741, 5.76937435, 2.20001535
9884, 39.4825872, 6.57261282, 2.22068734
9885, 35.8372762, -22.7861778, 4.62408264
9886, 36.1201498, -22.1876233, 4.63273545
9887, 38.2507058, 0.929804592, 8.69354049
9888, 38.2580379, 0.595213983, 8.70600595
9889, 36.0930164, -22.1751168, -4.63690538
9890, 35.8407416, -22.7727769, -4.62807152
9891, 34.5627155, -14.1127558, 8.4081902
9892, 8.61428956, -19.2582839, -0.883193112
9893, 37.1504548, -19.2883761, -4.50895167
9894, 16.4174224, -20.994003, 8.84875468
9895, 37.1063704, 5.97803307, -5.45053462
9896, 37.0954748, 6.17376372, -5.21447885
9897, 31.6628664, -18.8222903, 8.42621974
9898, 16.964819, -19.2193581, -8.83405723
9899, 18.0643879, -19.2287421, -8.85996689
9900, 38.3411686, 7.25250905, 1.67366339
9901, 21.0760394, -17.263434, 5.61728553
9902, 37.9872949, -7.35339686, -2.32500841
9903, 37.9875756, -6.88486854, -3.49211684
9904, 37.2734186, -21.4467401, -4.03029341
9905, 37.3423039, -21.2106621, 4.04346726
9906, 37.273462, -21.4484611, 4.02871537
9907, 37.8151869, 7.34989609, 1.23859002
9908, 8.56935887, -19.2679776, -0.282273212
9909, 13.5241966, -20.8886965, 8.02346522
9910, 35.0415784, -18.7707847, 6.22642332
9911, 37.1484347, -19.2919929, 4.50784946
9912, 37.1340819, -20.4822247, 4.64656925
9913, 37.1361496, -20.2757125, 4.64159803
9914, 37.1913598, -21.6777172, -4.03049215
9915, 8.53532234, -21.063922, 0.190891961
9916, 37.1340725, -20.4822465, -4.63720064
9917, 37.1356111, -20.277759, -4.63274307
9918, 10.1653239, -17.2970866, 1.59272885
9919, 38.46266, -7.51621069, 1.25909112
9920, 38.5634018, -7.15447135, 1.71705271
9921, 38.9658219, -7.5352074, 1.27501878
9922, 29.8988193, -20.7335342, -8.36171145
9923, 37.1913059, -21.6795353, 4.02823752
9924, 23.0899782, -18.8035996, 1.74226817
9925, 15.3153775, -24.2001713, -4.15998084
9926, 38.4330641, -0.791658038, -7.77673866
9927, 38.4126296, -0.534266935, -7.46040492
9928, 38.0011954, -0.531811265, -8.12933165
9929, 31.3198769, -18.8856729, -8.927192
9930, 31.0721001, -19.072592, -8.92729852
9931, 33.6736282, -17.0387729, 7.69719228
9932, 31.6928433, -18.622341, 8.42601504
9933, 30.6962939, -19.5444997, -7.787345
9934, 16.6663625, -19.2317928, -8.80633605
9935, 34.18397, -16.7659486, -7.03607842
9936, 35.1520647, -16.8801737, -6.96565294
9937, 34.8075638, -16.8403901, -7.5542921
9938, 35.701304, -15.8831594, -7.59558994
9939, 34.7328906, -15.7693888, -7.66693765
9940, 38.5716475, 0.0145041878, -3.41927329
9941, 24.650089, -16.9929188, 1.72984412
9942, 37.7725055, 7.93326961, -2.90547725
9943, 33.900513, -18.9809866, 6.1172626
9944, 19.858939, -18.7672532, 8.39049245
9945, 23.9060361, -16.9981286, 1.56194235
9946, 24.6929869, -18.0012438, 1.69412627
9947, 9.13191847, -18.7640118, 4.47946678
9948, 12.6473931, -19.2911628, -6.29917716
9949, 8.87725928, -19.247587, 1.6988685
9950, 34.6171562, -23.6014273, 4.6407388
9951, 34.5146553, -23.858287, 4.64621521
9952, 11.3050263, -19.5801908, 6.18518118
9953, 34.5140777, -23.8579157, -4.64662292
9954, 34.6163418, -23.6007926, -4.64050229
9955, 34.339503, -16.4270931, -7.78025423
9956, 34.2453436, -15.7654064, -7.83301145
9957, 18.0671592, -20.508248, -8.87817827
9958, 11.8688105, -19.552356, -6.63753858
9959, 13.1858451, -19.2726849, 6.62011224
9960, 9.70437622, -18.9936455, 2.03485658
9961, 34.4139452, -17.4985905, -7.66714778
9962, 39.1037826, -7.31181577, 1.63499699
9963, 33.9534267, -13.7764689, 4.7499671
9964, 33.4123609, -17.4783885, -8.33294012
9965, 21.2628595, -18.2207188, -6.11401291
9966, 38.0289599, 7.80875415, 2.02440317
9967, 37.7449526, 8.85215521, -1.205955
9968, 37.7764598, 8.26097123, -2.09256767
9969, 23.9531839, -18.9254086, -4.60734283
9970, 13.0246686, -18.7548488, 8.37207507
9971, 13.0327963, -18.7586443, 7.51063526
9972, 13.0186578, -18.7670711, -8.36709342
9973, 21.9076808, -20.2642714, -8.90412267
9974, 38.2610307, 7.93093851, -3.57073939
9975, 38.228232, 7.76182903, -3.85368224
9976, 37.9944172, -0.271019453, -4.25123218
9977, 37.7527467, 8.73314593, 1.102952
9978, 38.2377938, 8.35017154, 0.470318057
9979, 37.7480765, 8.95604665, 0.0513137905
9980, 37.9829699, 5.75193893, 1.7667128
9981, 37.0842549, -20.6814236, 4.67047598
9982, 36.6326127, -21.0642238, -4.63215308
9983, 37.0893523, -20.681085, -4.66033737
9984, 28.4979704, -20.2010099, 4.87430013
9985, 28.2218446, -20.2381964, 4.87578526
9986, 37.2911314, 7.69172304, 2.2218606
9987, 15.4051329, -24.1392246, 4.0712682
9988, 34.0561076, -16.9844417, 5.98265463
9989, 35.822159, -17.8911913, 6.10818466
9990, 17.5084098, -18.7415963, 8.72641631
9991, 12.1169298, -19.5572558, -6.82194943
9992, 31.5510627, -18.57357, -5.70320084
9993, 31.2358142, -18.4828693, 6.05086324
9994, 35.4018069, -23.3611541, -4.65411406
9995, 35.6089454, -23.636412, -4.50310164
9996, 35.4185291, -23.5786476, -4.61064784
9997, 35.8056719, -14.8433096, -4.63242979
9998, 35.8740751, -14.5754153, -4.64415564
9999, 36.9442487, -15.4930693, -5.77337853
10000, 34.912872, -15.2636309, -5.87885324
10001, 13.9079372, -18.2132983, -5.85191022
10002, 34.2304134, -17.8789111, 4.88951959
10003, 33.9402774, -18.1391711, 4.99176445
10004, 33.9001248, -17.2147798, 5.98291099
10005, 37.2533688, -15.6476878, -8.84957078
10006, 35.7067616, -15.2281482, -4.7615258
10007, 36.850469, -15.8737622, -5.88256455
10008, 35.40277, -23.3630622, 4.65401796
10009, 35.4149934, -23.5825186, 4.60872295
10010, 35.6087848, -23.6356561, 4.50041184
10011, 35.2252447, -16.4610631, -4.87701337
10012, 35.1954118, -16.5072978, -4.87488769
10013, 34.715107, -15.7849743, -5.87862821
10014, 36.5217122, -16.6441117, -6.00380578
10015, 36.5478936, -16.5956329, -6.00635015
10016, 16.9777743, -18.9882725, -8.01847806
10017, 16.3635941, -19.2450725, -8.78258261
10018, 16.049967, -19.2457769, -8.75258535
10019, 32.9464133, -17.9184552, 7.68485414
10020, 34.5550937, -17.4569551, 4.87217018
10021, 24.2886896, -20.2639458, -8.49359033
10022, 31.3653421, -19.1283071, 6.16207218
10023, 34.2929089, 8.91554747, -1.54347206
10024, 35.3529063, -23.1807529, 4.63363736
10025, 34.9924332, -23.4255477, 4.62782171
10026, 35.5767054, -15.6018052, -4.83982304
10027, 35.4955797, -15.8563232, -4.84009416
10028, 34.8252892, -15.5286981, -5.87905939
10029, 36.718695, -16.2429681, -5.96454625
10030, 39.8809392, -7.16649427, -1.73510661
10031, 40.0640529, -7.46823238, -1.39885551
10032, 34.9917199, -23.4257061, -4.62985097
10033, 35.3488043, -23.1779003, -4.63276225
10034, 21.4103449, -20.2683085, -8.28523139
10035, 31.7287587, -18.4198285, 8.42582952
10036, 37.8009796, -1.00669985, 8.60553943
10037, 37.7378882, 8.94156277, -0.275633263
10038, 37.7438297, 8.91538018, -0.587305599
10039, 24.241489, -20.2641809, 8.54406606
10040, 32.2384722, -18.0993184, -8.07808898
10041, 32.2292726, -17.9956686, -8.98442464
10042, 32.9668056, -20.98753, 8.882102
10043, 10.1068765, -19.5401809, 2.45073617
10044, 40.0957716, 7.02164862, -1.8010724
10045, 40.0621144, 7.42480772, -1.49201403
10046, 35.4535773, -17.894463, -5.96229237
10047, 33.6887644, -16.9837414, -5.83672622
10048, 35.2199493, -18.2103211, -5.96221236
10049, 35.7667867, -16.9804731, -7.27873473
10050, 34.8713648, -17.9419737, -7.23519465
10051, 35.4226633, -16.9415082, -7.86783269
10052, 36.3478851, -16.934721, -6.00360642
10053, 37.1182476, 5.54144297, -5.88085528
10054, 9.13027786, -18.7669719, -4.47639059
10055, 10.1314649, -19.2473919, -4.21793957
10056, 37.9207145, 0.427224922, 7.73002234
10057, 35.1946594, -16.5078649, 4.87304039
10058, 35.2250303, -16.4618043, 4.87524521
10059, 34.4417688, -15.595504, 5.76096088
10060, 36.2734016, -16.4085029, 5.88795779
10061, 36.2471123, -16.4565209, 5.88708116
10062, 34.6765636, -18.7682455, -6.08233404
10063, 34.9595558, -18.5028997, -5.976157
10064, 33.9464048, -15.1457135, -5.94937623
10065, 35.4873537, -15.8610352, 4.8408006
10066, 36.5754502, -15.6869493, 5.76027363
10067, 36.442475, -16.054706, 5.84667552
10068, 34.5523307, -15.3379596, 5.76011612
10069, 21.3003044, -17.2897742, -6.12717495
10070, 35.1282095, -18.3120313, -5.96211464
10071, 34.8278689, -23.851249, 4.30153487
10072, 34.4353919, -23.2117353, 4.64390877
10073, 34.639473, -15.0738153, 5.75942264
10074, 30.9942955, -18.6190934, 8.42603329
10075, 34.0837783, -17.1054807, -8.24720437
10076, 34.4347708, -23.2115113, -4.64357985
10077, 34.8266358, -23.8513611, -4.30187364
10078, 38.2420959, 4.4656537, 7.50813425
10079, 38.2459487, 4.74531479, 7.35101681
10080, 37.7295965, 1.73538054, -8.68734198
10081, 34.2315647, -17.8778209, -4.89141409
10082, 33.5322446, -17.2137864, -5.83648669
10083, 35.2462239, -16.6881867, 6.99253865
10084, 35.9953827, -17.6006811, 6.10910299
10085, 35.6128048, -17.3168175, 7.52347943
10086, 33.2586792, -24.0221438, -4.53391338
10087, 34.3090365, 9.06761712, 0.331750037
10088, 33.6722912, -23.9880326, -4.53182006
10089, 33.7117959, -24.3261571, -4.39455708
10090, 33.5867304, -24.1838502, -4.49167295
10091, 9.40877206, -18.733403, -3.32718412
10092, 37.4001866, -18.9831496, -4.51376673
10093, 33.6711197, -23.9872797, 4.53087325
10094, 33.5814624, -24.1845602, 4.49142187
10095, 33.7109701, -24.3257906, 4.39341654
10096, 38.2597888, 5.00434126, 7.18587286
10097, 37.1588881, 4.92289167, 6.39889223
10098, 34.054669, -14.5974572, -5.94930846
10099, 13.1653555, -19.5376496, 7.49116082
10100, 37.7770281, 0.540864966, -8.8526606
10101, 37.7831302, -0.576044209, -8.88064098
10102, 9.29915547, -18.7219664, 3.03875326
10103, 33.0063929, -17.9178589, -7.36865275
10104, 33.9283257, -17.4443531, -7.50253884
10105, 32.8209282, -18.3446, -7.61977281
10106, 13.9824033, -18.9818066, -6.55501155
10107, 37.7609152, 0.843356361, -8.81636524
10108, 37.7614388, 8.14176777, -2.36922185
10109, 37.7650068, 8.04415259, -2.64267142
10110, 37.3990631, -18.9842184, 4.51310417
10111, 37.8067433, -1.00562594, 8.60493314
10112, 24.8388465, -18.5815327, 1.56319321
10113, 37.7457605, 8.52894698, 1.98524149
10114, 35.2419331, -23.4935676, 4.6439817
10115, 35.2422761, -23.4924177, -4.64477875
10116, 34.5912014, -17.1715981, 7.1310158
10117, 33.4613265, -17.3869902, 7.03236646
10118, 34.2243417, -17.171521, 7.6724077
10119, 36.0736072, -17.13697, -7.87490517
10120, 32.8405163, -17.4623936, -9.04196986
10121, 18.445388, -19.003825, 7.79114373
10122, 17.5277494, -19.0288664, 8.15679777
10123, 33.7890595, -16.0718771, 8.27333141
10124, 35.7249857, -17.6887288, 7.81609284
10125, 33.303394, -20.9576452, 7.63591345
10126, 17.1859074, -18.766177, -9.48609997
10127, 17.1825603, -18.7686913, 9.48614489
10128, 12.4927214, -18.7638987, -8.06332577
10129, 12.4870548, -18.7537327, 8.06142035
10130, 8.01373642, -18.7680223, -0.319543807
10131, 33.8597065, -15.4104845, -5.94916999
10132, 33.7489915, -15.6661309, -5.9492082
10133, 37.7403199, 8.66530998, 1.40918988
10134, 38.2356323, 8.31794523, 0.783220864
10135, 34.2795265, -24.1389482, 4.62139065
10136, 9.29087575, -18.7113592, -3.036625
10137, 37.7585887, 8.4609465, 2.30033457
10138, 34.2841101, -24.1369346, -4.61997795
10139, 33.6546463, -16.31743, 5.89732157
10140, 33.4986632, -16.5481471, 5.8973539
10141, 38.4593934, 7.34689498, -1.5527199
10142, 38.0096453, 8.06369365, -1.52908455
10143, 8.58955629, -19.2496477, -0.584337259
10144, 37.7889068, -0.57666096, -8.87959635
10145, 37.8086139, -15.0509001, 5.83085686
10146, 34.2782453, 0.589052205, -9.00342155
10147, 32.425453, -17.7977342, -8.98433548
10148, 9.4119275, -18.7389121, 3.3401042
10149, 26.0899173, -18.7158151, -2.17819619
10150, 34.6350036, -24.1882415, -4.50665956
10151, 34.4807758, -24.0662299, -4.6017151
10152, 38.723963, 0.284132044, -7.54783426
10153, 38.4400429, 0.548396524, -7.45430025
10154, 38.4503352, -0.00193296155, -7.59714894
10155, 37.7716862, -0.0279570738, 8.93922898
10156, 37.558798, -19.9971069, 4.49856352
10157, 37.5595929, -19.9990431, -4.49867683
10158, 24.9508576, -18.2792026, 1.42946189
10159, 17.5039339, -19.2471817, 8.94476778
10160, 34.843112, -16.0254078, 6.90736938
10161, 35.1533817, -16.205533, 7.60725021
10162, 34.9021844, -17.3516668, 7.83050207
10163, 34.4775454, -24.0680773, 4.60155165
10164, 34.635532, -24.1893209, 4.50601067
10165, 33.8001475, -24.1514033, 4.51686398
10166, 33.8067413, -24.1510168, -4.51928882
10167, 37.738806, 8.89425483, -0.891770154
10168, 38.2785881, 5.74758496, -6.64191525
10169, 37.1055771, 5.76726304, -5.6736166
10170, 10.0989632, -17.0126063, -1.51691614
10171, 34.4186776, -24.2654647, 4.50758348
10172, 34.0825135, -15.2166006, -9.00876528
10173, 34.7066455, -14.058821, -8.48584848
10174, 34.2028026, -24.319898, 4.50616707
10175, 34.3358512, -24.4141571, 4.35656863
10176, 34.8272781, -24.0924607, 4.50531078
10177, 34.7873353, -24.2522993, 4.34720492
10178, 34.3368595, -24.4126947, -4.35737672
10179, 34.2010019, -24.3197872, -4.50619203
10180, 34.4177014, -24.2647248, -4.50758481
10181, 34.7877305, -24.2510953, -4.34829357
10182, 34.8264629, -24.0919622, -4.50543708
10183, 34.6752766, -23.9938933, 4.62746685
10184, 17.5049777, -18.5527856, -7.61728494
10185, 17.2106835, -18.2659695, -7.5648274
10186, 16.9599429, -18.5336281, -7.40789919
10187, 8.99160801, -18.7179665, -2.19925905
10188, 9.43929292, -18.9877409, -1.52354615
10189, 34.6803805, -23.9914411, -4.62930077
10190, 38.2715603, 8.07927166, -3.32451631
10191, 33.4774182, -24.0084127, 4.5296332
10192, 33.4747235, -24.3527447, 4.3895918
10193, 30.0518295, -19.2777539, -8.36003631
10194, 18.0292652, -18.5515857, -7.42141692
10195, 17.7753169, -18.2792836, -7.55613841
10196, 12.5032532, -18.7354158, -7.17625026
10197, 37.738987, 1.88891361, 8.44349263
10198, 37.7402863, 1.60903126, 8.49791985
10199, 33.4751862, -24.3522059, -4.39068194
10200, 33.4783308, -24.0081954, -4.5303535
10201, 10.158295, -18.5572662, -1.5467569
10202, 33.8538793, -16.3724289, -7.61520823
10203, 38.2732965, 5.76362589, 6.670136
10204, 37.720732, 2.17233217, 8.33773557
10205, 34.0442837, -14.5973473, -5.94928681
10206, 38.4771512, 8.45838759, 0.154085641
10207, 38.2344504, 9.48696366, 0.300837236
10208, 38.2356464, 8.05966627, -5.01387642
10209, 17.5033153, -19.2413328, 8.94608223
10210, 33.3620916, -24.2089976, 4.50721863
10211, 33.6551088, -16.3161049, 8.27316764
10212, 33.364219, -24.2085178, -4.50769454
10213, 16.9479904, -18.9903765, 7.41759878
10214, 33.8909968, -23.7577956, 4.52209727
10215, 11.0235775, -18.7674344, 1.68538549
10216, 10.6238451, -18.9995505, 1.89050252
10217, 33.8944132, -23.7583671, -4.52219983
10218, 36.3967933, -21.4778769, -4.52348534
10219, 36.377708, -21.8496586, -4.74703407
10220, 10.5924782, -17.5278689, 1.84228425
10221, 36.6436677, -22.0173908, -4.75516392
10222, 36.9403268, -22.1932667, -4.60530363
10223, 36.7530932, -22.2015934, -4.72064738
10224, 15.6546619, -20.880503, -8.90756205
10225, 10.1685394, -19.0039999, 1.63365164
10226, 9.1558577, -18.717309, -2.77810641
10227, 38.2655775, -0.0275982131, 8.73582374
10228, 37.9942396, -0.956282899, 7.78458279
10229, 37.9737911, -0.0193069551, 8.18880679
10230, 33.6092541, -24.4392519, 4.23559986
10231, 38.0059679, 0.499860875, -8.01662214
10232, 11.9870126, -18.7236662, -6.83884702
10233, 11.7397261, -18.7214708, -6.65742281
10234, 33.3593648, -16.5888347, -8.79135407
10235, 33.9959349, -15.4814604, -9.00871505
10236, 33.6119004, -24.4389471, -4.2371241
10237, 36.3807746, -21.8570989, 4.75039493
10238, 33.6613784, -20.717153, 8.87530326
10239, 36.9412658, -22.1929041, 4.60401833
10240, 36.6451039, -22.016915, 4.75400482
10241, 36.7531065, -22.2036075, 4.7206441
10242, 36.1569995, -20.5348964, 4.72858037
10243, 36.9963488, -21.0460793, 4.19045575
10244, 39.1043239, 7.00989, -1.79580345
10245, 33.9708655, -24.0187496, 4.16964417
10246, 9.05504657, -18.7127871, -2.49481822
10247, 33.8851716, -15.7371689, -9.0086508
10248, 11.9721746, -18.7305534, 6.85539387
10249, 11.7246584, -18.727761, 6.67043006
10250, 12.2832874, -19.3063919, 6.08637987
10251, 36.8260811, -22.3904617, 4.6040171
10252, 36.5683649, -22.1996134, 4.77031776
10253, 33.9720495, -24.0179686, -4.17084157
10254, 37.0969557, -22.150916, 4.44328771
10255, 37.0413547, -21.9852498, 4.60356694
10256, 35.0725379, -23.5920055, 4.65686476
10257, 34.9092263, -23.6849998, 4.65811105
10258, 37.0411827, -21.984634, -4.60452335
10259, 37.0975762, -22.1484778, -4.44479184
10260, 36.8518614, -22.0235755, 4.72880537
10261, 17.4925377, -17.9551686, -7.63030085
10262, 25.2689116, -18.9831912, 1.94972627
10263, 36.8530734, -22.0188106, -4.7296909
10264, 35.0723837, -23.5919001, -4.65788899
10265, 34.9074329, -23.6844551, -4.65933635
10266, 17.2079734, -18.7533773, 8.7189942
10267, 34.3664369, -14.9300654, 6.03358314
10268, 36.8217427, -22.3949547, -4.60361987
10269, 36.5445012, -22.1918269, -4.75379882
10270, 34.3681484, -14.925543, 8.40774799
10271, 12.7545285, -18.7522547, 7.36509704
10272, 13.4428206, -19.5425993, 7.63219113
10273, 35.1464538, -19.1303784, 8.64926158
10274, 38.032288, 0.959218198, 7.75917434
10275, 36.828193, -21.2852144, -4.53806902
10276, 37.1413283, -21.4008691, -4.38231311
10277, 36.960274, -21.4465776, -4.50428586
10278, 38.2451286, 4.47520526, 8.37202346
10279, 38.2332485, 4.48285345, -8.36634174
10280, 38.2319121, 4.46861504, -7.48914841
10281, 33.7511529, -15.9814794, -9.00857787
10282, 36.8198977, -21.290162, 4.5408322
10283, 36.9585844, -21.4553241, 4.49092966
10284, 37.1404632, -21.4026535, 4.38110378
10285, 36.1513077, -22.6835742, 4.63841756
10286, 36.1511057, -22.6824508, -4.63806897
10287, 36.9445435, -16.3102229, 8.66591398
10288, 36.0290082, -22.8327292, 4.64661096
10289, 36.026749, -22.8361465, -4.64670413
10290, 24.6546068, -18.2833091, -1.71124969
10291, 24.8688768, -17.9510109, -1.53385377
10292, 34.5816763, -19.4846722, -8.85573428
10293, 9.05739747, -18.7312065, 2.48666099
10294, 10.1376996, -17.9743224, -1.52515573
10295, 10.3438624, -18.2542723, -1.72367574
10296, 10.3028564, -17.2763047, -1.76283175
10297, 29.3969482, -20.1972749, 5.87799228
10298, 36.0838415, -23.0422882, 4.60413433
10299, 35.8878201, -22.970188, 4.65739494
10300, 35.8735544, -22.9649236, -4.63876171
10301, 36.0756995, -23.0396748, -4.61696242
10302, 38.0047243, -0.487498455, 7.41596925
10303, 37.0822412, -22.2760344, -4.2527604
10304, 37.1578052, -16.0281476, -8.84953619
10305, 38.2555884, 4.74231442, -7.31177512
10306, 34.6569377, -15.6176182, 7.18165379
10307, 36.6538696, -22.396314, 4.74577132
10308, 37.0821424, -22.2769061, 4.25148555
10309, 12.2215753, -18.7339739, 7.03920353
10310, 12.491305, -18.7422717, 7.19797997
10311, 35.067563, -23.8100103, 4.63282286
10312, 35.0712582, -23.8070414, -4.63283468
10313, 17.1994151, -18.7476416, -8.72569777
10314, 36.7541845, -21.4747043, 4.52754595
10315, 37.0643844, -21.6222142, 4.38020705
10316, 37.0646241, -21.6205515, -4.38207675
10317, 36.7484408, -21.468475, -4.52460262
10318, 36.2520963, -23.090041, 4.48942801
10319, 36.219807, -22.8919715, 4.612377
10320, 37.0287738, -21.2473518, 4.52429074
10321, 18.0648943, -19.2235679, -8.85842107
10322, 36.2508317, -23.256746, 4.3323821
10323, 36.0764499, -23.2445358, 4.48628155
10324, 36.5657823, -22.9022959, 4.32957133
10325, 36.5500368, -22.7307539, 4.49424041
10326, 36.408167, -22.9180345, 4.48956125
10327, 35.4257764, -23.7776872, -4.49532743
10328, 35.2512035, -23.6988884, -4.60492493
10329, 37.0359437, -21.2377374, -4.52293117
10330, 33.2032989, -16.8196245, -8.79128647
10331, 36.2517074, -23.2550649, -4.3343996
10332, 36.0759117, -23.2436908, -4.48784692
10333, 36.2521744, -23.0891643, -4.49009641
10334, 36.5661136, -22.9007453, -4.32842405
10335, 36.4080732, -22.9167478, -4.48956402
10336, 36.5450236, -22.7286883, -4.48842876
10337, 36.8789001, -21.6482783, 4.49790116
10338, 36.6666039, -21.6504706, 4.52469874
10339, 36.3517504, -22.7290607, 4.61188523
10340, 36.6731271, -21.6519067, -4.52913463
10341, 36.8807466, -21.6424816, -4.50012668
10342, 38.2806199, 8.50472371, -2.19965957
10343, 36.356358, -22.723932, -4.61658463
10344, 35.247437, -23.7015292, 4.60409472
10345, 35.4250895, -23.7763798, 4.49473183
10346, 36.2226386, -22.8875718, -4.61244987
10347, 32.9829008, -17.0798682, 8.92476017
10348, 34.2573839, -15.181453, 8.40763691
10349, 20.0572973, -24.8862923, -3.56105813
10350, 38.2625173, 5.00108652, -7.18543622
10351, 35.2317045, -23.9031731, 4.50769976
10352, 35.5761282, -23.8097366, 4.34250714
10353, 35.5785549, -23.80729, -4.34241381
10354, 34.008455, -14.8729596, -8.32432272
10355, 33.9468152, -15.1448059, -8.32429697
10356, 34.7680467, -13.7876309, -8.48614486
10357, 35.2309656, -23.9035139, -4.5088163
10358, 37.2132822, -21.5561027, 4.22321184
10359, 37.2141243, -21.5525247, -4.22521772
10360, 12.2576033, -18.7177109, -6.99844371
10361, 38.2871885, 8.20724597, -3.03770765
10362, 17.7843023, -17.2766061, 7.5387722
10363, 37.3778249, -20.977009, 4.51096459
10364, 37.5252517, -20.9010939, 4.35518143
10365, 37.4332518, -20.7602438, 4.51349478
10366, 37.3774937, -20.9782849, -4.50740719
10367, 37.4312967, -20.7574063, -4.50817319
10368, 37.5255593, -20.900292, -4.35956223
10369, 32.2452969, -18.678014, 7.79827613
10370, 37.2519335, -20.8273368, 4.63600961
10371, 37.257026, -20.8184832, -4.62371111
10372, 37.4776049, -20.3005693, 4.50431009
10373, 37.4739011, -20.3035514, -4.49971134
10374, 19.7487657, -24.8838363, 3.47658468
10375, 33.8540667, -24.4159348, 4.24325608
10376, 33.8570355, -24.4159275, -4.24511045
10377, 34.5598732, -24.3240237, 4.34490831
10378, 38.2359495, 8.36889411, -4.47821655
10379, 34.560954, -24.3213471, -4.34562636
10380, 31.2374178, -18.4827172, 8.42594147
10381, 33.8602468, -15.4096829, -8.32421752
10382, 33.7494806, -15.665368, -8.32413852
10383, 37.0490097, -20.8588173, 4.6531045
10384, 37.0572487, -20.8590149, -4.64820686
10385, 37.28904, -20.6165362, 4.61248736
10386, 37.2872194, -20.6107706, -4.60338003
10387, 38.2802658, 8.34228486, -2.77561145
10388, 38.2302363, 0.3183054, 9.4861119
10389, 38.2336094, 0.315487013, -9.48617461
10390, 38.2344888, 5.00650063, -8.06377817
10391, 38.2372879, 8.37165712, 4.47273436
10392, 38.2461963, 5.01287783, 8.06149735
10393, 38.2341614, 9.48636792, -0.318105594
10394, 32.2286703, -18.2226275, 7.85032012
10395, 37.3173188, -20.3971407, -4.61279336
10396, 38.2847128, 8.44418073, -2.49491455
10397, 36.9861705, -22.3571763, 4.44118174
10398, 36.9860375, -22.3557974, -4.44321561
10399, 37.3211346, -20.4001976, 4.6200973
10400, 37.4653372, -20.5255672, -4.50107601
10401, 37.4712689, -20.5255093, 4.50669856
10402, 38.2853267, 8.19217763, 3.04442266
10403, 38.2603567, 8.07848933, 3.33805939
10404, 32.8060902, -17.2950881, 8.92473567
10405, 38.2514863, 0.306399708, -8.72241879
10406, 31.4668318, -18.3244003, 8.42579808
10407, 38.2542183, 0.271214132, 8.71847434
10408, 36.4159306, -23.0852721, 4.33073371
10409, 36.4166515, -23.0833515, -4.33128858
10410, 38.2715142, 8.44988777, 2.4844346
10411, 38.2779217, 8.3255253, 2.77819112
10412, 35.3803399, -23.9371202, 4.34454411
10413, 35.3812609, -23.9372857, -4.34514382
10414, 37.5883019, -20.4274637, 4.35095757
10415, 37.5854889, -20.4260967, -4.3480359
10416, 17.2175204, -19.0052404, 9.48352967
10417, 35.1797383, -24.074007, 4.36220685
10418, 35.1804164, -24.0728797, -4.36235948
10419, 37.5526532, -20.660474, 4.34725967
10420, 37.5500805, -20.6572368, -4.34401572
10421, 37.1220649, -21.7761168, 4.22196577
10422, 37.1231411, -21.7726818, -4.22448272
10423, 37.2806241, -21.327003, 4.22415209
10424, 36.8633987, -22.5575032, 4.44593408
10425, 36.8630956, -22.5564809, -4.44483557
10426, 37.3053094, -21.3187263, -4.23781119
10427, 36.9960046, -21.044112, -4.16725276
10428, 33.3704987, -24.4896097, 4.2410818
10429, 33.3705954, -24.4892939, -4.24333215
10430, 34.4549643, -24.4069761, 4.1654639
10431, 34.4544683, -24.4057094, -4.1671379
10432, 37.5798586, -20.7932846, 4.16568402
10433, 37.5792989, -20.7954146, -4.16828156
10434, 31.6805638, -18.145552, 8.42568009
10435, 17.5051534, -18.7480725, -8.73353982
10436, 17.2046519, -19.0051859, -9.48320006
10437, 37.6269857, -17.0259476, 4.50581315
10438, 37.6300996, -17.0214054, -4.50674753
10439, 37.9950434, 0.282987143, 9.48280571
10440, 37.1856326, -22.0536925, 4.25099897
10441, 37.185528, -22.0528691, -4.25196812
10442, 38.2797945, -0.0247889603, -8.76508114
10443, 37.9952564, 0.296075575, -9.48301831
10444, 38.7317062, 2.96237922, 6.7050551
10445, 14.83058, -18.2607076, -7.06424451
10446, 14.6363018, -18.5314395, -6.83108582
10447, 16.2763663, -18.7452885, -8.64012442
10448, 25.0690794, -16.8849383, -0.992256143
10449, 25.0391724, -17.9337266, -1.03324133
10450, 9.98129027, -18.5448484, -1.04755322
10451, 10.0156907, -18.2728207, -1.3130885
10452, 9.97733846, -18.0239222, -1.02114249
10453, 25.0669583, -17.9216902, 1.2103632
10454, 25.0853187, -18.211559, 1.05769621
10455, 38.2434922, 1.26159407, 8.65156028
10456, 40.054983, 7.58091139, -0.977562034
10457, 38.9397035, 7.51591465, -1.03265946
10458, 40.0354661, -7.55262585, -0.995298496
10459, 38.9672914, -7.51218505, -1.01468994
10460, 38.6930064, 7.53847463, 1.05678161
10461, 38.7154853, 7.46818417, -1.25560399
10462, 38.4798675, 7.55377776, -1.02531792
10463, 38.2554514, 1.21947214, -8.64128803
10464, 38.7494647, 2.65773503, -7.00615831
10465, 38.5173846, 2.83939986, -6.78283309
10466, 38.0505399, -2.9980111, -7.58436363
10467, 38.0377092, -8.07640437, 0.981417927
10468, 32.0232938, -18.2795533, -5.70494056
10469, 32.2373193, -18.1000907, -5.70450185
10470, 32.4338972, -17.9018039, -5.70390842
10471, 32.4346515, -17.9015147, -8.07791631
10472, 32.6115939, -17.6863686, -8.07770925
10473, 32.6110363, -17.6865773, -5.7038745
10474, 31.2974979, -18.6859055, -8.0785441
10475, 33.6151539, -15.9103894, -5.94910461
10476, 33.6155011, -15.9096508, -8.32404084
10477, 34.0446323, -14.5964777, -8.3243166
10478, 33.4991452, -16.5467952, 8.27297087
10479, 33.7884574, -16.0732221, 5.89755236
10480, 30.9925676, -18.6192205, 6.05085472
10481, 39.9415263, 0.00145260187, -3.94606826
10482, 37.0393759, -8.11797065, -3.12268776
10483, 8.85990666, -18.7729793, 3.92605519
10484, 13.8900112, -18.7695886, 7.88165318
10485, 38.7474075, 7.14683507, -1.73478012
10486, 39.0554845, 7.37731667, -1.4741289
10487, 8.85932505, -18.772591, -3.9253448
10488, 34.759905, -19.9619912, 2.4437035
10489, 38.0315365, 2.50233864, 3.64072849
10490, 37.5423511, 3.32775104, 3.52738545
10491, 20.1516413, -17.2374813, -7.0410117
10492, 39.4755085, 1.90378051, -6.54406021
10493, 23.5779344, -18.0482656, 1.82015034
10494, 37.2458261, -3.19292414, -4.69687445
10495, 39.892316, -2.66426584, -7.03918544
10496, 15.9656701, -18.7575095, -8.57986271
10497, 21.8983637, -21.3552663, 3.85414741
10498, 38.759902, 2.97932061, 6.30509081
10499, 14.5452221, -18.2343376, -6.65446223
10500, 30.9210562, -23.0877446, 3.25927565
10501, 39.7334237, -5.77901299, -1.61431653
10502, 34.23156, -17.8804248, 2.5181616
10503, 34.3889808, -17.6503726, 2.51929356
10504, 34.5608968, -17.4615683, 2.50480399
10505, 37.7615767, 6.49787771, -3.83641203
10506, 29.386065, -21.9705675, -3.01660174
10507, 17.9090731, -18.2262683, -4.06891145
10508, 35.4399779, -1.8532169, -2.87784754
10509, 34.2795749, -1.94004276, -3.21599484
10510, 35.019457, -22.3177811, 1.93494832
10511, 35.9771427, -13.9082541, -5.82374404
10512, 22.2421728, -18.0362182, 1.78764392
10513, 35.9754994, 7.20411795, 5.09579341
10514, 37.1526044, 4.66962149, 6.57105725
10515, 35.0285864, 2.62791268, 7.41990236
10516, 34.1343882, -23.6032159, 4.52838848
10517, 34.1364381, -23.6023982, -4.52852105
10518, 32.9604485, -19.093198, 2.30476013
10519, 32.7472015, -19.2722841, 2.3042228
10520, 33.3510699, -18.729374, 4.98736544
10521, 33.5654479, -18.55073, 4.98723684
10522, 34.1539128, -22.3849583, 2.06246044
10523, 34.1557912, -22.3864353, -2.20057569
10524, 35.53886, -20.6925881, 2.05743774
10525, 37.5184141, -17.7055794, 3.51799723
10526, 35.0597168, -16.7531455, 4.87880918
10527, 11.6514664, -19.0985598, 5.20639744
10528, 38.2254393, 3.60176708, 7.85965234
10529, 27.8792669, -20.5517591, -0.154892853
10530, 38.9816611, -0.315850361, -3.90778574
10531, 15.6961767, -18.4745179, 5.94388241
10532, 18.5000891, -19.1939705, 8.61726114
10533, 35.6943013, -16.2112674, 2.00463233
10534, 35.7065996, -16.2051507, 4.38601101
10535, 35.7011515, -16.4865993, 8.66591883
10536, 35.983211, 8.00058443, 3.99856618
10537, 36.8284783, -16.8000651, -6.60004531
10538, 11.4565981, -18.0296103, 1.82703046
10539, 9.20896356, -18.7967004, 1.06649646
10540, 34.761469, -19.965711, -2.58505261
10541, 29.9237523, -21.8024711, -0.621066403
10542, 33.7630201, -18.3580119, 2.61389995
10543, 33.7623738, -18.3530711, 4.98778723
10544, 14.5169957, -19.714646, -2.08395157
10545, 32.518291, -19.430933, 2.30252957
10546, 33.118922, -18.8858099, 4.99146912
10547, 13.7213467, -19.5471069, 7.77231076
10548, 20.7666536, -19.0808133, -1.8594701
10549, 20.3207585, -18.5253241, -6.79569966
10550, 20.3152828, -18.7936538, -7.67294836
10551, 35.8208897, -15.9469696, 4.37316959
10552, 30.0525572, -19.2773803, -5.98374217
10553, 31.3026276, -24.5697691, -3.20743374
10554, 33.9411589, -18.1376815, -4.99289587
10555, 38.2430448, 1.53191523, -8.5800528
10556, 38.227529, 8.6397837, 3.92677984
10557, 34.3879206, -17.6493365, 4.88992318
10558, 33.9400577, -18.143621, 2.61365661
10559, 37.5494629, -17.6591129, 3.54344523
10560, 10.9757322, -20.7676623, 3.07041405
10561, 34.4473581, -24.3929433, 2.13619762
10562, 38.2293006, 8.63838929, -3.93025762
10563, 39.9634677, 2.75466902, 2.64897235
10564, 31.0558279, -20.0515285, 2.50033697
10565, 39.0623931, 6.10793273, -1.27168741
10566, 35.9817972, -13.9237697, 2.14346555
10567, 27.9978364, -19.6375447, 7.12815377
10568, 35.0584016, -24.1392625, 2.13253517
10569, 38.9462663, -0.00882976703, -4.21891993
10570, 39.0009029, 5.14381514, 2.49712481
10571, 35.059961, -24.1388153, -2.13233304
10572, 34.7897782, -18.6625868, -7.87995128
10573, 34.753922, -19.229341, -7.27247202
10574, 34.8721233, -19.2211482, -8.85574863
10575, 38.2145448, -2.4101727, 8.3688799
10576, 36.9951932, 3.01747606, 7.67377245
10577, 35.90026, -15.6910117, -4.38024033
10578, 34.0550251, -14.5965634, -8.3243432
10579, 8.91698661, -18.7284937, -1.57746492
10580, 9.15787455, -18.8246943, -0.153507054
10581, 9.21325848, -18.8252065, -0.684080736
10582, 8.96294367, -18.7128961, -1.91056039
10583, 36.2086427, -17.6860403, 8.66524545
10584, 14.7456058, -17.0578672, 2.64720561
10585, 35.985902, 6.33238826, -6.1859563
10586, 35.9873424, 6.12815764, -6.41842284
10587, 38.2511046, 6.33208625, -5.93476051
10588, 29.1205659, -21.9993865, -0.629391914
10589, 35.9918713, 6.34989235, 6.26360415
10590, 37.1313638, 5.85402149, 5.59932251
10591, 35.993553, 5.41481603, 7.07574934
10592, 35.9852259, 7.00326767, 5.34222605
10593, 36.6600206, -22.8140682, -2.1294218
10594, 13.4131393, -24.16552, -2.13130891
10595, 33.1213721, -18.8884298, -4.99063403
10596, 19.8751342, -18.749812, -8.39294309
10597, 17.9995852, -18.7933434, -8.14268748
10598, 35.9879675, 5.89429181, -6.62116363
10599, 36.0373689, -5.8482982, 7.6862206
10600, 36.0901233, 8.5836107, -0.613396613
10601, 36.2687895, 9.02215255, -0.941817105
10602, 37.5587928, -20.7967083, 2.13568635
10603, 36.9666765, 3.07637373, -8.01853788
10604, 34.9601113, -19.136375, -6.64208196
10605, 14.744441, -19.9590019, -2.79354702
10606, 36.7902424, 7.96285801, -3.48998387
10607, 34.499477, -19.1010733, -8.85664053
10608, 33.9533803, -13.7766181, 7.12510883
10609, 20.4643912, -23.4409715, -4.57747356
10610, 34.9780032, -13.5212457, 7.1299948
10611, 29.277724, -19.0905224, 7.12552697
10612, 29.0066771, -19.1544117, 7.12533666
10613, 29.666888, -20.1328922, 5.87862193
10614, 37.7316588, 6.60716858, 4.37500994
10615, 36.7341141, -14.3062707, -6.00673069
10616, 35.9769769, 6.98989868, -5.66835978
10617, 38.2352241, 8.28800391, 1.08463411
10618, 32.6750005, -18.2232956, 8.87244379
10619, 32.6391002, -18.425929, 8.87254446
10620, 32.6091363, -18.6260104, 8.87264923
10621, 35.5128385, -21.7758464, -2.07319131
10622, 24.3867564, -17.9680713, -1.80858353
10623, 10.8939912, -16.9883003, -1.44867077
10624, 20.1858211, -24.4854738, -3.82558414
10625, 19.8676757, -24.476558, 3.72072388
10626, 31.2977004, -19.9279042, 5.90920658
10627, 31.0457385, -20.0427363, 5.91034057
10628, 37.7557496, 1.30086504, 8.58453263
10629, 25.2198079, -18.9991111, -3.42701164
10630, 33.7407357, -19.2333844, -5.9269493
10631, 35.3789896, -16.8230507, -6.07508336
10632, 37.157011, -16.0294502, -6.47814062
10633, 30.5218382, -20.1985748, 4.86973983
10634, 37.8158963, -17.8290719, -3.46882627
10635, 38.2683157, 8.58244293, -1.57928367
10636, 38.2053834, 8.34376893, -0.137400999
10637, 38.1848249, 8.29324763, -0.685377529
10638, 38.2841541, 8.53887851, -1.90928116
10639, 37.7365786, 6.41430062, 4.59845745
10640, 30.5242412, -20.1980466, -4.86938616
10641, 29.5161008, -20.1992094, -5.82906905
10642, 30.7842395, -20.1342497, 5.91084373
10643, 35.5935196, -16.9382965, 6.02465762
10644, 36.2751061, -22.531466, 4.65053722
10645, 36.2660847, -22.5208889, -4.63442397
10646, 37.5478333, -17.6377522, -3.50337664
10647, 37.516545, -17.6835863, -3.47749102
10648, 33.2405692, -24.6633195, 4.65795328
10649, 33.1014685, -24.4532288, -4.72583087
10650, 33.2415384, -24.6639124, -4.65775668
10651, 16.9663464, -19.2145241, -8.83215196
10652, 37.7818248, 0.541177099, -8.85111515
10653, 12.7707066, -20.2529542, -7.67382853
10654, 11.8500535, -20.2532147, -7.01967081
10655, 9.1195952, -20.251781, -3.24603766
10656, 20.6500958, -19.5361845, -8.88621524
10657, 20.3937509, -19.2375575, -8.39320764
10658, 14.8806724, -20.265448, 8.64371025
10659, 8.73260579, -20.2637423, -2.23189867
10660, 18.0833787, -19.8495099, 8.84828492
10661, 13.2479487, -20.2599466, 7.88835765
10662, 37.5821985, -18.7210606, -4.5308283
10663, 11.039524, -19.2324372, -5.49125028
10664, 13.7522106, -20.2596707, -8.2125806
10665, 15.3496845, -20.2564162, -8.86575665
10666, 9.93922976, -20.2722729, -4.27240545
10667, 10.2495229, -20.2641285, -5.37874797
10668, 11.9833812, -18.7723871, -7.72260401
10669, 11.9704618, -18.7538737, 7.71685978
10670, 8.61043521, -20.5048574, -0.889597804
10671, 17.5158962, -18.8015837, -8.33882972
10672, 15.9741924, -20.2530054, -8.98688549
10673, 11.2696191, -20.2618753, 6.50695335
10674, 11.880582, -19.0973797, 5.41420206
10675, 38.5363938, -2.69439039, 7.05121361
10676, 38.0582645, -1.23064648, 7.36679677
10677, 20.377499, -19.0022604, 6.75063903
10678, 20.4972667, -18.9923009, 6.2122236
10679, 34.8350269, -19.3626733, 8.64388247
10680, 37.0399453, -15.9299592, 8.66615192
10681, 38.960536, 6.05680482, 1.82976746
10682, 39.4642112, 6.91175902, 1.80221246
10683, 38.5117529, -7.52765188, -1.02700358
10684, 39.0967477, -7.43794722, -1.40163476
10685, 38.3575989, -1.43301368, -6.91718152
10686, 37.2526856, -15.6484751, -6.36975604
10687, 20.4313648, -17.2320231, -6.56530528
10688, 20.4578916, -18.2384641, -6.59378701
10689, 9.59584809, -20.2622191, 4.31822138
10690, 26.3437327, -18.9752034, 0.860740811
10691, 25.6423279, -18.9482027, 3.10948862
10692, 37.5813448, -18.7213652, 4.53051754
10693, 33.4590944, -16.1410889, -5.94897435
10694, 33.7579628, -20.238237, -8.25043312
10695, 33.661152, -20.4467806, 8.25029091
10696, 32.7709273, -17.4279927, 5.88628523
10697, 10.7158514, -19.5980575, 5.45741625
10698, 39.488329, -6.47934285, -3.04175338
10699, 34.2559634, -15.1854179, 6.03354284
10700, 33.0173763, -17.2471314, -9.04196275
10701, 14.0154819, -19.5504932, 7.87831397
10702, 14.0133033, -20.1772107, 7.86661905
10703, 33.0007082, -19.9808839, -8.6985172
10704, 36.6559815, -17.0892212, -8.84935504
10705, 34.3950957, -16.2033523, 8.27351509
10706, 30.0997396, -19.1439971, 8.42626993
10707, 35.0601664, -16.7522806, -4.87639572
10708, 34.5819039, -16.0287215, -5.87865426
10709, 35.5123758, -21.7738123, 1.93610484
10710, 36.2262026, -20.2965886, -4.5383638
10711, 38.2186668, -2.41949987, -8.41205223
10712, 33.1563761, -18.8953598, 2.30535731
10713, 32.9827727, -17.0805581, 6.54963797
10714, 37.0046824, 2.7289139, 7.7804719
10715, 36.3969172, -20.1031906, -4.52730421
10716, 35.2802778, -18.8609192, -8.52324837
10717, 36.5432691, -14.5134003, 5.79936726
10718, 35.9822991, 7.17617811, -5.41109186
10719, 35.2155443, -16.864867, -8.95627692
10720, 28.8969966, -20.7360853, -6.10951077
10721, 37.266814, 3.34316489, -7.04815157
10722, 34.9646351, -19.0952087, -8.52218791
10723, 33.4593744, -16.1405684, -8.32385144
10724, 33.2625058, -17.239119, -6.90115881
10725, 30.3071862, -19.1641314, -5.98452564
10726, 32.5943436, -17.6426694, 8.2600799
10727, 39.4662966, -5.09223426, -5.04289349
10728, 14.3106286, -19.5519139, 7.98762364
10729, 9.9251887, -16.9385158, -0.983079203
10730, 38.2393959, 8.22916506, 1.36782251
10731, 14.5669622, -18.989454, -7.44359773
10732, 39.7000419, -4.98933819, -1.27034853
10733, 10.6131588, -17.9622582, -1.81585144
10734, 10.5944844, -16.9879504, -1.8542883
10735, 30.8255041, -18.8565618, -8.92715998
10736, 37.0050257, 2.4346433, 7.89192683
10737, 9.27091606, -18.7917942, 1.35143666
10738, 35.7794266, -14.9486679, 4.7565132
10739, 38.0267144, 2.92868292, -7.44051744
10740, 35.390247, -16.1053259, 4.84312861
10741, 35.3909348, -16.1029529, -4.83709819
10742, 35.9196238, -14.2983947, -4.64513927
10743, 38.9596893, 0.510874659, -3.96145698
10744, 9.14832778, -18.8082669, 0.150927697
10745, 38.0309273, 4.92673308, -4.39338378
10746, 24.7051619, -19.0301505, 3.66504346
10747, 28.1061138, -23.3933637, -4.49783696
10748, 34.9306285, -13.7960876, 7.12968829
10749, 35.9493205, -13.7972967, 5.75534818
10750, 32.609929, -17.4930108, 8.92470464
10751, 32.3979978, -17.8404977, 8.26033405
10752, 30.8488202, -19.3329879, 6.16422584
10753, 31.1118035, -19.2427465, 6.16369401
10754, 38.2298973, 8.35316594, 0.171235524
10755, 33.1046256, -24.4543537, 4.72409037
10756, 20.4364565, -20.7575503, -8.28844513
10757, 14.0946586, -20.8899243, 8.26465538
10758, 13.5259042, -20.2615552, 8.02703821
10759, 13.8042695, -20.2629464, 8.16588332
10760, 13.2128602, -19.9927073, -7.07881294
10761, 9.7962122, -20.261311, -3.99846976
10762, 8.56405912, -21.0671609, -0.443924786
10763, 19.4400009, -18.2685069, -6.27106448
10764, 15.6663068, -20.2317186, -8.92739829
10765, 18.7839617, -18.7499637, 5.80377108
10766, 25.0253235, -18.588341, 1.25780873
10767, 36.946042, -16.3110747, 6.29316348
10768, 36.6972902, -16.0459924, 8.66617401
10769, 39.4371744, 7.4156061, 1.51631297
10770, 19.5953468, -17.2506782, -6.24426994
10771, 18.7620919, -17.3087037, -6.26948844
10772, 20.1711085, -18.2897017, -7.07126166
10773, 33.7577055, -20.5087341, -8.87533325
*ELEMENT, TYPE=C3D10, ELSET=EALL
4965, 3713, 3683, 3650, 6842, 3891, 3890, 3805, 6905, 6907, 6906
4966, 2857, 3286, 3277, 3293, 6908, 3346, 6909, 6910, 3348, 3347
4967, 1800, 1952, 5364, 6903, 6911, 5379, 6912, 6913, 6915, 6914
4968, 3292, 3291, 3279, 3282, 3358, 3355, 3356, 3341, 3352, 6916
4969, 3291, 3285, 2859, 3278, 3354, 6917, 6918, 3353, 3351, 6919
4970, 5789, 5592, 5795, 5617, 6920, 6921, 5844, 6922, 5685, 6923
4971, 5593, 5965, 5969, 5618, 6924, 6038, 6925, 5663, 6927, 6926
4972, 5355, 5357, 5356, 6887, 5385, 5415, 5425, 6928, 6930, 6929
4973, 6455, 6454, 6452, 6885, 6769, 6768, 6770, 6931, 6933, 6932
4974, 3202, 3195, 3362, 1056, 3223, 6934, 6935, 6936, 6938, 6937
4975, 6043, 5798, 5791, 5797, 6939, 5845, 6940, 6941, 5864, 5849
4976, 5362, 5359, 4541, 6851, 5419, 6942, 6943, 6944, 6946, 6945
4977, 3364, 3500, 3494, 3496, 6947, 3538, 6948, 6949, 3568, 3567
4978, 94, 801, 3415, 3404, 811, 6950, 6951, 6952, 6953, 3432
4979, 4681, 6884, 6865, 6896, 6954, 6955, 6956, 6957, 6959, 6958
4980, 1190, 1405, 1222, 138, 6960, 4241, 4027, 4026, 1406, 1223
4981, 135, 1300, 160, 1285, 6961, 1302, 4017, 4016, 4220, 1287
4982, 1305, 1195, 158, 1282, 6962, 4071, 1306, 4221, 4072, 1283
4983, 140, 1400, 1225, 1191, 1402, 4240, 1227, 4031, 6963, 4030
4984, 1270, 1325, 154, 1194, 4225, 1326, 1271, 4063, 6964, 4062
4985, 144, 1380, 1237, 1192, 1382, 4236, 1239, 4040, 6965, 4039
4986, 1193, 1345, 1258, 150, 6966, 4229, 4054, 4053, 1346, 1259
4987, 1360, 1193, 1249, 148, 6967, 4048, 4232, 1362, 4049, 1251
4988, 3286, 1028, 2857, 3277, 6968, 6969, 6908, 3346, 6970, 6909
4989, 5797, 6043, 5798, 5787, 6941, 6939, 5864, 5863, 6971, 5862
4990, 4674, 4661, 4694, 6884, 4799, 4741, 4800, 6972, 6974, 6973
4991, 335, 1952, 5364, 1800, 1959, 5379, 5375, 6975, 6911, 6912
4992, 4543, 5367, 1577, 6846, 6976, 6977, 4550, 6978, 6980, 6979
4993, 1834, 5546, 6821, 6849, 6981, 6982, 6983, 6984, 6986, 6985
4994, 3197, 2836, 3198, 2861, 6987, 6988, 3256, 6989, 2929, 6990
4995, 4690, 4659, 4691, 6833, 4732, 4792, 4791, 6991, 6993, 6992
4996, 1412, 5876, 5879, 4265, 6994, 5900, 6995, 4269, 6997, 6996
4997, 6481, 6480, 6442, 6854, 6726, 6727, 6511, 6998, 7000, 6999
4998, 1834, 6821, 5021, 6849, 6983, 7001, 5041, 6984, 6985, 7002
4999, 5546, 1834, 347, 6849, 6981, 7003, 5552, 6986, 6984, 7004
5000, 6456, 6442, 6491, 6133, 6508, 6725, 6724, 7005, 7007, 7006
5001, 309, 5021, 1834, 6821, 5042, 5041, 1838, 7008, 7001, 6983
5002, 264, 265, 4660, 4538, 1691, 4719, 4718, 7009, 7011, 7010
5003, 5433, 5598, 5440, 5429, 7012, 7013, 5476, 5495, 7014, 5457
5004, 2276, 2264, 97, 3110, 2355, 7015, 7016, 7017, 7019, 7018
5005, 1950, 5969, 5965, 5618, 7020, 6038, 7021, 7022, 6926, 6927
5006, 3279, 2859, 979, 978, 7023, 2953, 3317, 3318, 2920, 985
5007, 5610, 6043, 1752, 5797, 7024, 7025, 7026, 7027, 6941, 7028
5008, 6470, 6455, 6452, 6862, 6771, 6770, 6761, 7029, 7031, 7030
5009, 3155, 2270, 3156, 877, 7032, 7033, 3167, 7034, 7036, 7035
5010, 6111, 6096, 6102, 6820, 6249, 6334, 6336, 7037, 7039, 7038
5011, 6102, 6130, 6111, 1803, 6350, 6291, 6336, 7040, 7042, 7041
5012, 3199, 3195, 3362, 3208, 3266, 6934, 7043, 3259, 3269, 7044
5013, 4958, 4963, 6865, 6884, 5014, 7045, 7046, 7047, 7048, 6955
5014, 5437, 5615, 1965, 1964, 7049, 5701, 5483, 5484, 5676, 1971
5015, 5792, 5795, 5786, 5596, 5857, 5856, 5835, 7050, 7052, 7051
5016, 6425, 6429, 6431, 6819, 6652, 6655, 6654, 7053, 7055, 7054
5017, 3497, 1045, 3506, 2862, 7056, 7057, 3574, 7058, 7060, 7059
5018, 2857, 3290, 976, 977, 7061, 3310, 2951, 2910, 3309, 983
5019, 4958, 4961, 4963, 6884, 5013, 5015, 5014, 7047, 7062, 7048
5020, 2850, 117, 3493, 110, 7063, 3510, 7064, 7065, 3591, 7066
5021, 2850, 117, 108, 3493, 7063, 1152, 2885, 7064, 3510, 3509
5022, 4543, 5359, 5367, 6846, 7067, 5423, 6976, 6978, 7068, 6980
5023, 3115, 1056, 3153, 6886, 3122, 7069, 7070, 7071, 7073, 7072
5024, 6810, 6865, 6859, 6884, 7074, 7075, 7076, 7077, 6955, 7078
5025, 1962, 5438, 1963, 5613, 5478, 5477, 1969, 5699, 7079, 5666
5026, 5960, 5964, 5970, 6045, 6032, 6027, 6033, 7080, 7082, 7081
5027, 5356, 5361, 5355, 6887, 5403, 5426, 5425, 6929, 7083, 6928
5028, 2850, 117, 3494, 108, 7063, 3511, 7084, 2885, 1152, 3512
5029, 335, 1952, 1800, 6836, 1959, 6911, 6975, 7085, 7087, 7086
5030, 2857, 3286, 3293, 1029, 6908, 3348, 6910, 7088, 7090, 7089
5031, 6429, 6434, 6432, 6827, 6676, 6675, 6674, 7091, 7093, 7092
5032, 5596, 5792, 5798, 5787, 7050, 5861, 7094, 7095, 5832, 5862
5033, 6847, 6859, 4967, 6904, 7096, 7097, 7098, 7099, 7101, 7100
5034, 2264, 111, 97, 3110, 7102, 7103, 7015, 7019, 3117, 7018
5035, 6463, 6498, 6473, 6862, 6766, 6743, 6638, 7104, 7106, 7105
5036, 4958, 6865, 4662, 6884, 7046, 7107, 7108, 7047, 6955, 7109
5037, 2843, 2859, 3285, 3278, 3026, 6917, 7110, 7111, 6919, 3351
5038, 6810, 6865, 6884, 6896, 7074, 6955, 7077, 7112, 6958, 6959
5039, 6449, 6486, 6469, 6862, 6753, 6665, 6756, 7113, 7115, 7114
5040, 6117, 6101, 6092, 4891, 6318, 6317, 6243, 7116, 7118, 7117
5041, 5437, 1437, 1436, 1417, 7119, 1446, 7120, 7121, 4284, 4281
5042, 1056, 3195, 3362, 3199, 6938, 6934, 6937, 7122, 3266, 7043
5043, 6357, 1042, 3073, 3074, 7123, 3100, 7124, 7125, 3081, 3085
5044, 6443, 6482, 6431, 6819, 6688, 6656, 6686, 7126, 7127, 7054
5045, 1056, 3202, 3195, 3193, 6936, 3223, 6938, 7128, 3216, 3265
5046, 2283, 3150, 2263, 2280, 7129, 7130, 2367, 2514, 7131, 2495
5047, 1045, 3071, 1046, 6901, 3106, 3105, 1052, 7132, 7134, 7133
5048, 1058, 3197, 3198, 2861, 7135, 3256, 7136, 7137, 6989, 6990
5049, 2047, 5792, 5786, 5596, 5830, 5835, 5834, 5712, 7050, 7051
5050, 2280, 2283, 3150, 6857, 2514, 7129, 7131, 7138, 7140, 7139
5051, 1950, 5358, 5367, 6890, 5404, 5409, 5408, 7141, 7143, 7142
5052, 3286, 2857, 1028, 1029, 6908, 6969, 6968, 7090, 7088, 1035
5053, 4960, 6859, 6847, 6865, 7144, 7096, 7145, 7146, 7075, 7147
5054, 4681, 6865, 4682, 6896, 6956, 7148, 4810, 6957, 6958, 7149
5055, 2284, 2285, 2264, 6857, 2517, 2400, 2358, 7150, 7152, 7151
5056, 6361, 1627, 6365, 6849, 6411, 6381, 6412, 7153, 7155, 7154
5057, 3288, 3278, 1033, 3281, 3339, 7156, 7157, 3305, 3350, 7158
5058, 5963, 1433, 2085, 2084, 7159, 5654, 6000, 6001, 5655, 2091
5059, 5359, 5367, 5358, 4293, 5423, 5409, 5417, 7160, 7162, 7161
5060, 4967, 6859, 1802, 6904, 7097, 7163, 5007, 7100, 7101, 7164
5061, 3503, 1047, 3494, 3496, 7165, 7166, 3520, 3554, 7167, 3567
5062, 3278, 3285, 2843, 3281, 3351, 7110, 7111, 3350, 3323, 7168
5063, 4682, 4688, 4669, 6896, 4841, 4831, 4840, 7149, 7170, 7169
5064, 2854, 3202, 3362, 1056, 7171, 6935, 7172, 7173, 6936, 6937
5065, 3717, 3663, 3698, 6874, 3899, 3938, 3943, 7174, 7176, 7175
5066, 6443, 6471, 6482, 6819, 6666, 6643, 6688, 7126, 7177, 7127
5067, 3071, 6867, 1046, 6901, 7178, 7179, 3105, 7134, 7180, 7133
5068, 898, 3200, 966, 967, 7181, 3236, 2925, 2871, 3235, 973
5069, 3707, 3650, 3683, 6842, 3888, 3890, 3889, 7182, 6906, 6907
5070, 3112, 1058, 1057, 6894, 3142, 1064, 3143, 7183, 7185, 7184
5071, 5357, 4685, 5356, 6887, 7186, 7187, 5415, 6930, 7188, 6929
5072, 5021, 6869, 6849, 6871, 7189, 7190, 7002, 7191, 7193, 7192
5073, 2046, 5792, 5596, 5787, 5831, 7050, 5711, 5827, 5832, 7095
5074, 6433, 6444, 6443, 6839, 6695, 6694, 6687, 7194, 7196, 7195
5075, 1439, 5788, 2049, 2050, 7197, 5840, 5681, 5632, 5839, 2056
5076, 4662, 6865, 4681, 6884, 7107, 6956, 4809, 7109, 6955, 6954
5077, 3364, 3500, 3496, 3507, 6947, 3568, 6949, 7198, 3560, 3571
5078, 1045, 1046, 6860, 6901, 1052, 7199, 7200, 7132, 7133, 7201
5079, 1056, 6830, 111, 6857, 7202, 7203, 1062, 7204, 7206, 7205
5080, 6846, 6883, 6810, 6904, 7207, 7208, 7209, 7210, 7212, 7211
5081, 1800, 6836, 1952, 6903, 7086, 7087, 6911, 6913, 7213, 6915
5082, 6498, 6446, 6473, 6839, 6742, 6734, 6743, 7214, 7216, 7215
5083, 5966, 5969, 5959, 5597, 6030, 6029, 6011, 7217, 7219, 7218
5084, 5791, 1752, 6043, 5797, 7220, 7025, 6940, 5849, 7028, 6941
5085, 3150, 2263, 89, 2283, 7130, 7221, 7222, 7129, 2367, 7223
5086, 1964, 1437, 5437, 5615, 5671, 7119, 5484, 5676, 5675, 7049
5087, 3115, 3153, 1056, 6857, 7070, 7069, 3122, 7224, 7225, 7204
5088, 1834, 5021, 6823, 6849, 5041, 7226, 7227, 6984, 7002, 7228
5089, 3706, 3693, 3667, 6842, 3864, 3885, 3907, 7229, 7231, 7230
5090, 2288, 2257, 2287, 6855, 2510, 2332, 2512, 7232, 7234, 7233
5091, 4967, 6847, 4964, 6859, 7098, 7235, 5010, 7097, 7096, 7236
5092, 99, 899, 3415, 94, 909, 7237, 7238, 890, 2752, 6951
5093, 2838, 3195, 3205, 3208, 7239, 3226, 7240, 7241, 3269, 3270
5094, 5610, 1752, 289, 5784, 7026, 1758, 7242, 7243, 7245, 7244
5095, 6426, 6429, 6425, 6819, 6653, 6652, 6644, 7246, 7055, 7053
5096, 6455, 6489, 6476, 6885, 6777, 6722, 6775, 6931, 7248, 7247
5097, 3279, 896, 895, 798, 7249, 905, 7250, 7251, 2769, 2767
5098, 796, 895, 797, 3284, 2766, 2765, 806, 7252, 7254, 7253
5099, 3495, 892, 1015, 1014, 7255, 2898, 3521, 3522, 2899, 1021
5100, 1032, 2859, 1033, 3278, 7256, 7257, 1039, 7258, 6919, 7156
5101, 6847, 6859, 6810, 6865, 7096, 7076, 7259, 7147, 7075, 7074
5102, 3492, 3500, 2839, 3507, 3537, 7260, 7261, 3561, 3560, 7262
5103, 4663, 4691, 4677, 6816, 4816, 4815, 4813, 7263, 7265, 7264
5104, 4659, 4692, 4691, 6834, 4794, 4793, 4792, 7266, 7268, 7267
5105, 3674, 3676, 3675, 6891, 3979, 3978, 3972, 7269, 7271, 7270
5106, 3657, 3654, 3688, 6895, 3911, 3908, 3912, 7272, 7274, 7273
5107, 2109, 6883, 6846, 6904, 7275, 7207, 7276, 7277, 7212, 7210
5108, 3648, 3645, 3647, 6817, 3865, 3860, 3866, 7278, 7280, 7279
5109, 3285, 2859, 2843, 2864, 6917, 3026, 7110, 7281, 2956, 2959
5110, 6434, 6435, 6432, 6827, 6692, 6691, 6675, 7093, 7282, 7092
5111, 5359, 5362, 4541, 4293, 5419, 6943, 6942, 7160, 7284, 7283
5112, 3707, 3683, 3671, 6842, 3889, 3968, 3954, 7182, 6907, 7285
5113, 3072, 1047, 3154, 6863, 3082, 7286, 7287, 7288, 7290, 7289
5114, 6429, 6432, 6431, 6827, 6674, 6673, 6655, 7091, 7092, 7291
5115, 4674, 4694, 6838, 6884, 4800, 7292, 7293, 6972, 6973, 7294
5116, 6108, 6101, 6095, 6868, 6328, 6330, 6329, 7295, 7297, 7296
5117, 4960, 4963, 6859, 6865, 5002, 7298, 7144, 7146, 7045, 7075
5118, 4964, 4967, 4960, 6847, 5010, 5009, 5017, 7235, 7098, 7145
5119, 2264, 97, 111, 6857, 7015, 7103, 7102, 7151, 7299, 7205
5120, 6361, 6365, 452, 6849, 6412, 7300, 7301, 7153, 7154, 7302
5121, 2854, 1056, 1117, 6830, 7173, 7303, 7304, 7305, 7202, 7306
5122, 3290, 796, 2857, 1029, 7307, 7308, 7061, 7309, 7310, 7088
5123, 1440, 5884, 187, 1420, 7311, 7312, 1450, 4270, 7313, 4266
5124, 1420, 5884, 187, 186, 7313, 7312, 4266, 1430, 7314, 1431
5125, 5436, 5439, 1577, 5429, 5460, 7315, 7316, 5497, 5453, 7317
5126, 5959, 2087, 5966, 5597, 6010, 6006, 6011, 7218, 5760, 7217
5127, 3033, 3071, 6889, 6901, 7318, 7319, 7320, 7321, 7134, 7322
5128, 1577, 5367, 2108, 6846, 6977, 7323, 7324, 6979, 6980, 7325
5129, 2260, 110, 96, 6863, 7326, 7327, 7328, 7329, 7331, 7330
5130, 2256, 2298, 2271, 6889, 2505, 2417, 2507, 7332, 7334, 7333
5131, 4688, 6865, 6851, 6896, 7335, 7336, 7337, 7170, 6958, 7338
5132, 498, 32, 30, 6843, 502, 503, 2236, 7339, 7341, 7340
5133, 6435, 6492, 6466, 6827, 6707, 6706, 6693, 7282, 7343, 7342
5134, 4688, 4682, 6865, 6896, 4841, 7148, 7335, 7170, 7149, 6958
5135, 1754, 5789, 5795, 5617, 7344, 5844, 7345, 7346, 6922, 6923
5136, 489, 498, 30, 6843, 2237, 2236, 493, 7347, 7339, 7340
5137, 5964, 5959, 5970, 5595, 6014, 6028, 6027, 7348, 7350, 7349
5138, 5355, 4685, 5357, 6887, 7351, 7186, 5385, 6928, 7188, 6930
5139, 801, 899, 94, 3415, 2756, 2752, 811, 6950, 7237, 6951
5140, 6821, 5021, 6849, 6871, 7001, 7002, 6985, 7352, 7191, 7192
5141, 1117, 3153, 1056, 6886, 7353, 7069, 7303, 7354, 7072, 7073
5142, 5362, 4541, 4678, 6851, 6943, 7355, 7356, 6944, 6945, 7357
5143, 896, 3279, 978, 2859, 7249, 3318, 2916, 2919, 7023, 2920
5144, 3154, 1047, 3072, 6888, 7286, 3082, 7287, 7358, 7360, 7359
5145, 2260, 96, 110, 3074, 7328, 7327, 7326, 7361, 7362, 3077
5146, 6454, 6496, 6485, 6885, 6776, 6683, 6773, 6933, 7364, 7363
5147, 1440, 5884, 5872, 2076, 7311, 5929, 7365, 5625, 5896, 5926
5148, 3290, 894, 977, 2857, 7366, 2908, 3309, 7061, 2911, 2910
5149, 6454, 6455, 6476, 6885, 6769, 6775, 6774, 6933, 6931, 7247
5150, 1058, 6866, 1057, 6894, 7367, 7368, 1064, 7185, 7369, 7184
5151, 1435, 1963, 5438, 5613, 5665, 5477, 7370, 5667, 5666, 7079
5152, 2282, 2262, 2270, 6863, 2522, 2484, 2422, 7371, 7373, 7372
5153, 851, 2256, 3069, 2261, 7374, 7375, 7376, 7377, 2450, 7378
5154, 4538, 264, 265, 4855, 7009, 1691, 7011, 7379, 4859, 4863
5155, 3199, 1056, 3195, 3193, 7122, 6938, 3266, 3241, 7128, 3265
5156, 1028, 3286, 3280, 3277, 6968, 3326, 7380, 6970, 3346, 3345
5157, 3279, 3285, 2859, 3291, 3322, 6917, 7023, 3355, 3354, 6918
5158, 1056, 2854, 3202, 3193, 7173, 7171, 6936, 7128, 7381, 3216
5159, 3674, 3673, 3711, 6848, 3970, 3975, 3974, 7382, 7384, 7383
5160, 4541, 4543, 1574, 6851, 4552, 4563, 4582, 6945, 7386, 7385
5161, 6446, 6445, 6473, 6839, 6730, 6735, 6734, 7216, 7387, 7215
5162, 4889, 6810, 4893, 6834, 7388, 7389, 4953, 7390, 7392, 7391
5163, 6485, 6496, 6430, 6885, 6683, 6680, 6681, 7363, 7364, 7393
5164, 6444, 6483, 6443, 6839, 6728, 6669, 6694, 7196, 7394, 7195
5165, 2131, 134, 1208, 6468, 2133, 1209, 6794, 6558, 6557, 7395
5166, 4661, 6838, 4694, 6884, 7396, 7292, 4741, 6974, 7294, 6973
5167, 2859, 2843, 1033, 3278, 3026, 7397, 7257, 6919, 7111, 7156
5168, 1440, 5884, 2076, 187, 7311, 5896, 5625, 1450, 7312, 5623
5169, 3112, 1057, 1115, 6894, 3143, 7398, 7399, 7183, 7184, 7400
5170, 4544, 6846, 238, 6883, 7401, 7402, 4565, 7403, 7207, 7404
5171, 2751, 3411, 3408, 3420, 7405, 3479, 7406, 7407, 3467, 3489
5172, 1047, 3364, 3494, 3496, 7408, 6948, 7166, 7167, 6949, 3567
5173, 4544, 1574, 6846, 6883, 4564, 7409, 7401, 7403, 7410, 7207
5174, 6481, 6442, 6828, 6854, 6511, 7411, 7412, 6998, 6999, 7413
5175, 1028, 2842, 2857, 3277, 7414, 3025, 6969, 6970, 7415, 6909
5176, 6431, 6433, 6443, 6827, 6684, 6687, 6686, 7291, 7417, 7416
5177, 6445, 6444, 6433, 6839, 6696, 6695, 6697, 7387, 7196, 7194
5178, 4676, 4661, 4697, 6884, 4803, 4801, 4805, 7418, 6974, 7419
5179, 4967, 362, 6847, 6904, 7420, 7421, 7098, 7100, 7422, 7099
5180, 3657, 3659, 3656, 6845, 3919, 3918, 3910, 7423, 7425, 7424
5181, 5443, 5615, 5432, 5437, 7426, 7427, 5509, 5510, 7049, 5488
5182, 4689, 4542, 4660, 4696, 7428, 7429, 4720, 4798, 7430, 4796
5183, 4662, 4682, 4681, 6865, 4811, 4810, 4809, 7107, 7148, 6956
5184, 5594, 5797, 5794, 5787, 7431, 5850, 7432, 7433, 5863, 5829
5185, 4960, 4963, 4961, 6859, 5002, 5015, 5016, 7144, 7298, 7434
5186, 2264, 2285, 97, 6857, 2400, 7435, 7015, 7151, 7152, 7299
5187, 6482, 6425, 6431, 6819, 6642, 6654, 6656, 7127, 7053, 7054
5188, 2280, 2258, 2283, 6857, 2513, 2364, 2514, 7138, 7436, 7140
5189, 1834, 6849, 6823, 6887, 6984, 7228, 7227, 7437, 7439, 7438
5190, 335, 5607, 1952, 6836, 7440, 7441, 1959, 7085, 7442, 7087
5191, 338, 358, 186, 5869, 2098, 7443, 7444, 5887, 5886, 7445
5192, 6473, 6421, 6463, 6853, 6635, 6636, 6638, 7446, 7448, 7447
5193, 4964, 1802, 4967, 6859, 4984, 5007, 5010, 7236, 7163, 7097
5194, 1072, 1071, 3154, 6863, 1078, 3184, 3183, 7449, 7450, 7289
5195, 4664, 4961, 4958, 6884, 7451, 5013, 7452, 7453, 7062, 7047
5196, 3362, 2838, 3195, 3202, 7454, 7239, 6934, 6935, 7455, 3223
5197, 3028, 6855, 3112, 6894, 7456, 7457, 7458, 7459, 7460, 7183
5198, 3153, 1117, 1073, 6886, 7353, 7461, 3188, 7072, 7354, 7462
5199, 2256, 2298, 6889, 6902, 2505, 7334, 7332, 7463, 7465, 7464
5200, 238, 6846, 2109, 6883, 7402, 7276, 7466, 7404, 7207, 7275
5201, 1800, 5364, 335, 1832, 6912, 5375, 6975, 7467, 7469, 7468
5202, 5367, 6852, 1950, 6890, 7470, 7471, 5408, 7142, 7472, 7141
5203, 3205, 3362, 2838, 3208, 7473, 7454, 7240, 3270, 7044, 7241
5204, 4543, 6846, 1574, 6851, 6978, 7409, 4563, 7386, 7474, 7385
5205, 3112, 3028, 1115, 6893, 7458, 7475, 7399, 7476, 7478, 7477
5206, 1194, 6820, 1330, 6868, 7479, 7480, 7481, 7482, 7484, 7483
5207, 899, 99, 3415, 1006, 909, 7238, 7237, 2869, 2867, 3427
5208, 5610, 5586, 5794, 5784, 5767, 7485, 7486, 7243, 7487, 5810
5209, 6847, 6851, 6846, 6865, 7488, 7474, 7489, 7147, 7336, 7490
5210, 5964, 5960, 5971, 6045, 6032, 5999, 6015, 7082, 7080, 7491
5211, 6361, 6365, 6356, 470, 6412, 6413, 6416, 7492, 7494, 7493
5212, 3706, 3667, 3653, 6895, 3907, 3906, 3876, 7495, 7497, 7496
5213, 4671, 4698, 4664, 6815, 4789, 4753, 4806, 7498, 7500, 7499
5214, 6423, 6426, 6425, 6819, 6645, 6644, 6640, 7501, 7246, 7053
5215, 4669, 4681, 4682, 6896, 4838, 4810, 4840, 7169, 6957, 7149
5216, 2106, 1952, 6836, 6903, 7502, 7087, 7503, 7504, 6915, 7213
5217, 1047, 3494, 110, 3503, 7166, 7505, 1054, 7165, 3520, 7506
5218, 6422, 6482, 6471, 6819, 6641, 6643, 6602, 7507, 7127, 7177
5219, 6361, 6362, 1627, 6849, 6410, 6373, 6411, 7153, 7508, 7155
5220, 1072, 6837, 1071, 6863, 7509, 7510, 1078, 7449, 7511, 7450
5221, 1951, 5354, 1952, 6847, 5411, 5410, 1958, 7512, 7514, 7513
5222, 2088, 5959, 5964, 5595, 6009, 6014, 6013, 5763, 7350, 7348
5223, 3494, 3500, 3364, 2860, 3538, 6947, 6948, 7515, 7517, 7516
5224, 5873, 5876, 5881, 4265, 5936, 5932, 5951, 7518, 6997, 7519
5225, 5354, 6846, 6851, 6865, 7520, 7474, 7521, 7522, 7490, 7336
5226, 452, 6362, 6361, 6849, 7523, 6410, 7301, 7302, 7508, 7153
5227, 6436, 6426, 6423, 6819, 6646, 6645, 6584, 7524, 7246, 7501
5228, 2295, 2267, 3153, 3115, 2467, 7525, 7526, 7527, 7528, 7070
5229, 4964, 6847, 4960, 6859, 7235, 7145, 5017, 7236, 7096, 7144
5230, 6116, 3665, 130, 1170, 7529, 3818, 6141, 6142, 3817, 1173
5231, 793, 3411, 3420, 1071, 7530, 3467, 7531, 7532, 7534, 7533
5232, 5357, 5355, 4675, 4685, 5385, 7535, 7536, 7186, 7351, 4852
5233, 2857, 2842, 2863, 3277, 3025, 2950, 2952, 6909, 7415, 7537
5234, 5970, 5597, 5959, 6852, 7538, 7218, 6028, 7539, 7541, 7540
5235, 4687, 4696, 4660, 6816, 4797, 4796, 4723, 7542, 7544, 7543
5236, 3197, 3198, 3191, 1058, 3256, 3255, 3247, 7135, 7136, 7545
5237, 111, 6830, 2855, 6857, 7203, 7546, 7547, 7205, 7206, 7548
5238, 3644, 3693, 3706, 6817, 3811, 3864, 3863, 7549, 7551, 7550
5239, 3112, 2279, 3028, 6893, 7552, 7553, 7458, 7476, 7554, 7478
5240, 1927, 5271, 5272, 6815, 5279, 5282, 5275, 7555, 7557, 7556
5241, 96, 2260, 2704, 3074, 7328, 7558, 2706, 7362, 7361, 7559
5242, 6810, 6847, 6846, 6904, 7259, 7489, 7209, 7211, 7099, 7210
5243, 295, 4890, 1752, 6859, 7560, 4928, 7561, 7562, 7564, 7563
5244, 1802, 362, 4967, 6904, 7565, 7420, 5007, 7164, 7422, 7100
5245, 5440, 5598, 5604, 5429, 7013, 5696, 7566, 5457, 7014, 7567
5246, 2269, 2303, 6867, 6888, 2502, 7568, 7569, 7570, 7572, 7571
5247, 4673, 4668, 4677, 6856, 4836, 4823, 4837, 7573, 7575, 7574
5248, 4667, 4665, 4666, 6856, 4817, 4709, 4818, 7576, 7578, 7577
5249, 6362, 469, 6355, 1491, 7579, 7580, 6409, 6371, 7581, 6375
5250, 4893, 6834, 6810, 6859, 7391, 7392, 7389, 7582, 7583, 7076
5251, 1577, 4543, 191, 5367, 4550, 4549, 4548, 6977, 6976, 7584
5252, 1112, 3154, 1047, 6863, 7585, 7286, 7586, 7587, 7289, 7290
5253, 1582, 2109, 283, 6883, 7588, 7589, 7590, 7591, 7275, 7592
5254, 5588, 6042, 6844, 6897, 7593, 7594, 7595, 7596, 7598, 7597
5255, 3364, 2839, 3500, 3507, 7599, 7260, 6947, 7198, 7262, 3560
5256, 4265, 5879, 5869, 5876, 6996, 5893, 7600, 6997, 5900, 5937
5257, 5795, 5592, 5786, 5596, 6921, 7601, 5856, 7052, 5715, 7051
5258, 3415, 899, 1006, 3407, 7237, 2869, 3427, 3448, 7602, 3445
5259, 6097, 6102, 6096, 6820, 6335, 6334, 6314, 7603, 7038, 7039
5260, 1028, 1114, 6867, 6901, 7604, 7605, 7606, 7607, 7608, 7180
5261, 4676, 6834, 4661, 6884, 7609, 7610, 4803, 7418, 7611, 6974
5262, 4669, 4688, 4667, 6896, 4831, 4830, 4828, 7169, 7170, 7612
5263, 4961, 4964, 4960, 6859, 4986, 5017, 5016, 7434, 7236, 7144
5264, 5969, 5966, 5593, 5597, 6030, 7613, 6925, 7219, 7217, 5762
5265, 3677, 3676, 3674, 6874, 3980, 3979, 3981, 7614, 7616, 7615
5266, 1951, 6846, 5354, 6847, 7617, 7520, 5411, 7512, 7489, 7514
5267, 3659, 3657, 3719, 6845, 3919, 3924, 3923, 7425, 7423, 7618
5268, 1113, 6860, 1046, 6901, 7619, 7199, 7620, 7621, 7201, 7133
5269, 1114, 1046, 6867, 6901, 7622, 7179, 7605, 7608, 7133, 7180
5270, 1454, 5356, 4685, 6887, 7623, 7187, 7624, 7625, 6929, 7188
5271, 5354, 6847, 6846, 6865, 7514, 7489, 7520, 7522, 7147, 7490
5272, 6422, 6423, 6425, 6819, 6582, 6640, 6639, 7507, 7501, 7053
5273, 2844, 3416, 1074, 6830, 7626, 7627, 7628, 7629, 7631, 7630
5274, 3112, 1115, 1057, 6893, 7399, 7398, 3143, 7476, 7477, 7632
5275, 4885, 4659, 4690, 6833, 7633, 4732, 7634, 7635, 6993, 6991
5276, 2288, 6855, 2287, 6898, 7232, 7233, 2512, 7636, 7638, 7637
5277, 3645, 3644, 3647, 6817, 3815, 3861, 3860, 7280, 7549, 7279
5278, 6432, 6435, 6466, 6827, 6691, 6693, 6690, 7092, 7282, 7342
5279, 6045, 5964, 5970, 5595, 7082, 6027, 7081, 7639, 7348, 7349
5280, 3153, 3115, 2267, 6857, 7070, 7528, 7525, 7225, 7224, 7640
5281, 4662, 4671, 4664, 6884, 4807, 4806, 4756, 7109, 7641, 7453
5282, 4889, 6810, 6834, 6883, 7388, 7392, 7390, 7642, 7208, 7643
5283, 4539, 4678, 4541, 6851, 7644, 7355, 4555, 7645, 7357, 6945
5284, 1581, 6100, 6114, 6104, 7646, 6347, 7647, 7648, 6308, 6277
5285, 6810, 6846, 1574, 6883, 7209, 7409, 7649, 7208, 7207, 7410
5286, 4662, 4664, 4958, 6884, 4756, 7452, 7108, 7109, 7453, 7047
5287, 5433, 5429, 5436, 6899, 5495, 5497, 5496, 7650, 7652, 7651
5288, 6103, 6099, 6122, 6840, 6341, 6346, 6345, 7653, 7655, 7654
5289, 85, 111, 2264, 3110, 7656, 7102, 7657, 7658, 3117, 7019
5290, 1964, 1437, 1436, 5437, 5671, 1446, 5672, 5484, 7119, 7120
5291, 4202, 6118, 6125, 1580, 7659, 6212, 7660, 7661, 7663, 7662
5292, 3279, 3289, 3292, 895, 3319, 3357, 3356, 7250, 7665, 7664
5293, 5367, 1577, 2108, 6890, 6977, 7324, 7323, 7142, 7667, 7666
5294, 3278, 2843, 1033, 3281, 7111, 7397, 7156, 3350, 7168, 7158
5295, 2299, 95, 3028, 6893, 7668, 7669, 7670, 7671, 7672, 7478
5296, 3660, 3656, 3659, 6825, 3920, 3918, 3921, 7673, 7675, 7674
5297, 1072, 3154, 1112, 6863, 3183, 7585, 7676, 7449, 7289, 7587
5298, 2260, 96, 2262, 6863, 7328, 7677, 2392, 7329, 7330, 7373
5299, 1112, 1047, 3154, 6888, 7586, 7286, 7585, 7678, 7360, 7358
5300, 4667, 6851, 4665, 6856, 7679, 7680, 4817, 7576, 7681, 7578
5301, 2107, 5367, 1951, 6846, 7682, 5407, 7683, 7684, 6980, 7617
5302, 3693, 3650, 3667, 6842, 3808, 3886, 3885, 7231, 6906, 7230
5303, 6498, 6448, 6446, 6839, 6741, 6740, 6742, 7214, 7685, 7216
5304, 4886, 4892, 4893, 6884, 4948, 4951, 4950, 7686, 7688, 7687
5305, 1804, 186, 159, 1300, 7689, 7690, 7691, 7692, 7693, 1301
5306, 4691, 4677, 6816, 6856, 4815, 7264, 7265, 7694, 7574, 7695
5307, 1059, 1058, 3111, 6855, 1065, 3145, 3144, 7696, 7698, 7697
5308, 3656, 3654, 3657, 6895, 3895, 3911, 3910, 7699, 7274, 7272
5309, 5358, 5367, 191, 4293, 5409, 7584, 7700, 7161, 7162, 4310
5310, 6112, 6101, 4891, 6868, 6332, 7118, 7701, 7702, 7297, 7703
5311, 1582, 4544, 2109, 6883, 4566, 7704, 7588, 7591, 7403, 7275
5312, 4686, 4674, 4694, 6838, 4790, 4800, 4744, 7705, 7293, 7292
5313, 3698, 3678, 3717, 6874, 3997, 3998, 3943, 7175, 7706, 7174
5314, 4691, 6816, 6833, 6834, 7265, 7707, 6992, 7267, 7709, 7708
5315, 1059, 6855, 3111, 6898, 7696, 7697, 3144, 7710, 7638, 7711
5316, 4659, 4884, 4692, 6834, 7712, 7713, 4794, 7266, 7714, 7268
5317, 6422, 6425, 6482, 6819, 6639, 6642, 6641, 7507, 7053, 7127
5318, 2260, 849, 2704, 3074, 7715, 2710, 7558, 7361, 7716, 7559
5319, 3153, 2295, 3115, 6886, 7526, 7527, 7070, 7072, 7717, 7071
5320, 4892, 6834, 4893, 6884, 7718, 7391, 4951, 7688, 7611, 7687
5321, 3703, 3658, 3648, 6825, 3879, 3867, 3877, 7719, 7721, 7720
5322, 2047, 5786, 5592, 5596, 5834, 7601, 5714, 5712, 7051, 5715
5323, 3706, 3647, 3644, 6817, 3862, 3861, 3863, 7550, 7279, 7549
5324, 1574, 6851, 6810, 6856, 7385, 7722, 7649, 7723, 7681, 7724
5325, 2296, 3071, 3033, 6867, 7725, 7318, 7726, 7727, 7178, 7728
5326, 4674, 4686, 4658, 6815, 4790, 4747, 4787, 7729, 7731, 7730
5327, 646, 647, 6357, 1042, 652, 6397, 6396, 7732, 7733, 7123
5328, 4855, 4854, 1723, 6816, 4862, 4865, 4864, 7734, 7736, 7735
5329, 3641, 3689, 3712, 6845, 3745, 3848, 3847, 7737, 7739, 7738
5330, 6131, 6093, 4178, 6840, 6197, 7740, 7741, 7742, 7744, 7743
5331, 4697, 4661, 4674, 6884, 4801, 4799, 4802, 7419, 6974, 6972
5332, 3195, 2838, 3362, 3208, 7239, 7454, 6934, 3269, 7241, 7044
5333, 1033, 2859, 1032, 6894, 7257, 7256, 1039, 7745, 7747, 7746
5334, 1574, 6846, 6810, 6851, 7409, 7209, 7649, 7385, 7474, 7722
5335, 5367, 5358, 191, 6890, 5409, 7700, 7584, 7142, 7143, 7748
5336, 1194, 154, 1330, 6820, 4062, 1332, 7481, 7479, 7749, 7480
5337, 1194, 289, 6820, 6868, 7750, 7751, 7479, 7482, 7752, 7484
5338, 5969, 5618, 1950, 6852, 6926, 7022, 7020, 7753, 7754, 7471
5339, 5367, 2107, 1951, 6852, 7682, 7683, 5407, 7470, 7756, 7755
5340, 109, 95, 6867, 6893, 7757, 7758, 7759, 7760, 7672, 7761
5341, 4202, 6113, 6118, 1581, 7762, 6209, 7659, 7763, 7765, 7764
5342, 1058, 3112, 6855, 6894, 3142, 7457, 7698, 7185, 7183, 7460
5343, 109, 3028, 95, 6893, 3035, 7669, 7757, 7760, 7478, 7672
5344, 2269, 6867, 95, 6893, 7569, 7758, 7766, 7767, 7761, 7672
5345, 117, 2850, 3494, 110, 7063, 7084, 3511, 3591, 7065, 7505
5346, 6834, 6856, 6816, 6883, 7768, 7695, 7709, 7643, 7770, 7769
5347, 2265, 3029, 836, 2271, 7771, 7772, 7773, 2416, 7775, 7774
5348, 3492, 2839, 3500, 1018, 7261, 7260, 3537, 3532, 3007, 3536
5349, 6092, 4891, 6101, 6820, 7117, 7118, 6317, 7776, 7778, 7777
5350, 95, 2268, 2687, 6867, 7779, 7780, 2689, 7758, 7782, 7781
5351, 4543, 1577, 2108, 6846, 4550, 7324, 7783, 6978, 6979, 7325
5352, 2270, 878, 3155, 6863, 7784, 7785, 7032, 7372, 7787, 7786
5353, 1045, 6889, 3071, 6901, 7788, 7319, 3106, 7132, 7322, 7134
5354, 6096, 6092, 6097, 6820, 6246, 6315, 6314, 7039, 7776, 7603
5355, 6043, 5797, 5594, 5787, 6941, 7431, 7789, 6971, 5863, 7433
5356, 3698, 3699, 3679, 6874, 3940, 4001, 3996, 7175, 7791, 7790
5357, 5359, 191, 4543, 5367, 7792, 4549, 7067, 5423, 7584, 6976
5358, 3279, 896, 978, 895, 7249, 2916, 3318, 7250, 905, 2915
5359, 3671, 3668, 3707, 6842, 3953, 3949, 3954, 7285, 7793, 7182
5360, 4691, 4887, 4659, 6834, 7794, 7795, 4792, 7267, 7796, 7266
5361, 4691, 4659, 4887, 6833, 4792, 7795, 7794, 6992, 6993, 7797
5362, 6082, 2109, 6846, 6904, 6088, 7276, 7798, 7799, 7277, 7210
5363, 4291, 190, 1453, 6849, 4307, 1456, 4308, 7800, 7802, 7801
5364, 2857, 1028, 1029, 6901, 6969, 1035, 7088, 7803, 7607, 7804
5365, 4677, 4696, 4687, 6856, 4825, 4797, 4814, 7574, 7806, 7805
5366, 4962, 5023, 5366, 6903, 7807, 7808, 7809, 7810, 7812, 7811
5367, 4691, 4663, 4690, 6833, 4816, 4729, 4791, 6992, 7813, 6991
5368, 6043, 2062, 5798, 5787, 6076, 7814, 6939, 6971, 7815, 5862
5369, 3663, 3696, 3646, 6875, 3871, 3787, 3869, 7816, 7818, 7817
5370, 3363, 1116, 6866, 6894, 3399, 7819, 7820, 7821, 7822, 7369
5371, 6092, 6101, 6097, 6820, 6317, 6316, 6315, 7776, 7777, 7603
5372, 4672, 6851, 4688, 6865, 7823, 7337, 4847, 7824, 7336, 7335
5373, 4672, 4679, 4688, 6851, 4782, 4832, 4847, 7823, 7825, 7337
5374, 4893, 6810, 4889, 6904, 7389, 7388, 4953, 7826, 7211, 7827
5375, 4541, 1574, 4539, 6851, 4582, 4560, 4555, 6945, 7385, 7645
5376, 4962, 5366, 6865, 6903, 7809, 7828, 7829, 7810, 7811, 7830
5377, 1435, 1436, 5438, 1963, 1445, 7831, 7370, 5665, 5664, 5477
5378, 6846, 6847, 6810, 6851, 7489, 7259, 7209, 7474, 7488, 7722
5379, 3668, 3670, 3669, 6892, 3951, 3950, 3916, 7832, 7834, 7833
5380, 6131, 6122, 6093, 6840, 6323, 6322, 6197, 7742, 7654, 7744
5381, 3290, 2857, 3277, 3293, 7061, 6909, 3311, 3349, 6910, 3347
5382, 2269, 2255, 2303, 6888, 2500, 2503, 2502, 7570, 7835, 7572
5383, 6439, 2022, 2273, 6363, 7836, 7837, 7838, 7839, 6391, 7840
5384, 4541, 5362, 4678, 4293, 6943, 7356, 7355, 7283, 7284, 7841
5385, 4691, 6816, 6834, 6856, 7265, 7709, 7267, 7694, 7695, 7768
5386, 4694, 271, 4888, 4661, 4739, 7842, 7843, 4741, 4737, 7844
5387, 1574, 4665, 6851, 6856, 7845, 7680, 7385, 7723, 7578, 7681
5388, 6111, 6102, 1803, 6820, 6336, 7040, 7041, 7037, 7038, 7846
5389, 4694, 4661, 4888, 6838, 4741, 7844, 7843, 7292, 7396, 7847
5390, 2851, 3494, 2860, 2831, 7848, 7515, 3014, 3013, 7849, 3010
5391, 2022, 6439, 6843, 6885, 7836, 7850, 7851, 7852, 7854, 7853
5392, 3071, 2296, 3033, 6889, 7725, 7726, 7318, 7319, 7855, 7320
5393, 6445, 6433, 6466, 6827, 6697, 6689, 6698, 7856, 7417, 7342
5394, 4691, 6816, 4663, 6833, 7265, 7263, 4816, 6992, 7707, 7813
5395, 110, 2851, 1047, 6863, 7857, 7858, 1054, 7331, 7859, 7290
5396, 4663, 4677, 4687, 6816, 4813, 4814, 4726, 7263, 7264, 7542
5397, 3653, 3667, 3655, 6895, 3906, 3905, 3904, 7496, 7497, 7860
5398, 3366, 2842, 2833, 6901, 7861, 2974, 7862, 7863, 7865, 7864
5399, 5593, 5966, 2087, 5597, 7613, 6006, 5759, 5762, 7217, 5760
5400, 1072, 1112, 6837, 6863, 7676, 7866, 7509, 7449, 7587, 7511
5401, 6361, 6365, 461, 452, 6412, 7867, 7868, 7301, 7300, 2210
5402, 3506, 2862, 1045, 6860, 7059, 7060, 7057, 7869, 7870, 7200
5403, 6362, 452, 189, 6849, 7523, 7871, 7872, 7508, 7302, 7873
5404, 6810, 6851, 6847, 6865, 7722, 7488, 7259, 7074, 7336, 7147
5405, 1948, 1212, 5361, 5356, 7874, 7875, 5398, 5402, 7876, 5403
5406, 1057, 6866, 1116, 6894, 7368, 7819, 7877, 7184, 7369, 7822
5407, 299, 1802, 4964, 6859, 7878, 4984, 7879, 7880, 7163, 7236
5408, 3651, 3703, 3648, 6895, 3878, 3877, 3872, 7881, 7883, 7882
5409, 5354, 6846, 5359, 6851, 7520, 7068, 5420, 7521, 7474, 6946
5410, 5354, 1952, 6847, 6903, 5410, 7513, 7514, 7884, 6915, 7885
5411, 1072, 1112, 3154, 6888, 7676, 7585, 3183, 7886, 7678, 7358
5412, 4685, 6824, 1453, 6849, 7887, 7888, 7889, 7890, 7891, 7801
5413, 2258, 2285, 2284, 6857, 2515, 2517, 2361, 7436, 7152, 7150
5414, 5792, 5596, 5798, 6844, 7050, 7094, 5861, 7892, 7894, 7893
5415, 188, 211, 125, 6831, 1484, 4340, 1485, 7895, 7897, 7896
5416, 6491, 6442, 6480, 6133, 6725, 6727, 6617, 7006, 7007, 7898
5417, 2861, 3198, 1058, 6866, 6990, 7136, 7137, 7899, 7900, 7367
5418, 274, 1927, 5272, 6815, 1928, 5275, 5274, 7901, 7555, 7556
5419, 3647, 3706, 3653, 6895, 3862, 3876, 3875, 7902, 7495, 7496
5420, 1574, 6856, 6810, 6883, 7723, 7724, 7649, 7410, 7770, 7208
5421, 5367, 5359, 191, 4293, 5423, 7792, 7584, 7162, 7160, 4310
5422, 5440, 5619, 5598, 5433, 7903, 5698, 7013, 5476, 7904, 7012
5423, 6851, 6865, 6810, 6896, 7336, 7074, 7722, 7338, 6958, 7112
5424, 211, 124, 125, 6831, 1488, 1164, 4340, 7897, 7905, 7896
5425, 2851, 3494, 2831, 2850, 7848, 7849, 3013, 2901, 7084, 2889
5426, 3366, 6860, 1114, 6901, 7906, 7907, 3388, 7863, 7201, 7608
5427, 1658, 1654, 6849, 6871, 4635, 7908, 7909, 7910, 7911, 7192
5428, 3028, 1033, 6855, 6894, 3041, 7912, 7456, 7459, 7745, 7460
5429, 4539, 1574, 4665, 6851, 4560, 7845, 7913, 7645, 7385, 7680
5430, 3641, 3710, 3681, 6892, 3846, 3845, 3748, 7914, 7916, 7915
5431, 1752, 2111, 297, 6859, 7917, 7918, 7919, 7563, 7921, 7920
5432, 452, 461, 6361, 6362, 2210, 7868, 7301, 7523, 7922, 6410
5433, 1952, 5971, 5960, 6045, 7923, 5999, 7924, 7925, 7491, 7080
5434, 4893, 6859, 6810, 6904, 7582, 7076, 7389, 7826, 7101, 7211
5435, 2843, 3363, 2832, 6894, 7926, 7927, 2979, 7928, 7821, 7929
5436, 211, 210, 124, 6831, 1483, 4341, 1488, 7897, 7930, 7905
5437, 3685, 3686, 3709, 6891, 3857, 3984, 3853, 7931, 7933, 7932
5438, 4688, 6851, 4667, 6896, 7337, 7679, 4830, 7170, 7338, 7612
5439, 2854, 2830, 3202, 3193, 3011, 7934, 7171, 7381, 7935, 3216
5440, 1801, 6836, 1800, 6903, 7936, 7086, 1807, 7937, 7213, 6913
5441, 4544, 1574, 238, 6846, 4564, 1576, 4565, 7401, 7409, 7402
5442, 2269, 6888, 6867, 6893, 7570, 7571, 7569, 7767, 7938, 7761
5443, 4691, 4692, 4673, 6834, 4793, 4850, 4851, 7267, 7268, 7939
5444, 2111, 1802, 297, 6859, 7940, 7941, 7918, 7921, 7163, 7920
5445, 2121, 6479, 348, 6138, 6578, 6577, 2125, 6261, 7942, 6255
5446, 6834, 6859, 4893, 6884, 7583, 7582, 7391, 7611, 7078, 7687
5447, 4665, 4678, 4539, 6851, 4706, 7644, 7913, 7680, 7357, 7645
5448, 3112, 3028, 2279, 6855, 7458, 7553, 7552, 7457, 7456, 7943
5449, 1753, 285, 1754, 6883, 7944, 7945, 1760, 7946, 7948, 7947
5450, 2843, 2859, 1033, 6894, 3026, 7257, 7397, 7928, 7747, 7745
5451, 6364, 3661, 1618, 6900, 7949, 7950, 6370, 7951, 7953, 7952
5452, 3362, 2838, 3202, 2854, 7454, 7455, 6935, 7172, 2985, 7171
5453, 4543, 4541, 191, 5359, 4552, 4546, 4549, 7067, 6942, 7792
5454, 5357, 4675, 4695, 4685, 7536, 4778, 7954, 7186, 4852, 4769
5455, 2071, 5602, 1432, 4265, 5649, 5648, 5624, 7955, 7956, 4271
5456, 2846, 1001, 2751, 891, 2893, 7957, 7958, 2892, 2868, 2757
5457, 5433, 5598, 5429, 6899, 7012, 7014, 5495, 7650, 7959, 7652
5458, 2288, 2287, 2259, 6898, 2512, 2335, 2518, 7636, 7637, 7960
5459, 191, 1577, 5367, 6890, 4548, 6977, 7584, 7748, 7667, 7142
5460, 4886, 4893, 6859, 6884, 4950, 7582, 7961, 7686, 7687, 7078
5461, 3667, 3650, 3707, 6842, 3886, 3888, 3887, 7230, 6906, 7182
5462, 295, 1752, 297, 6859, 7561, 7919, 1791, 7562, 7563, 7920
5463, 297, 1802, 299, 6859, 7941, 7878, 1794, 7920, 7163, 7880
5464, 840, 2300, 2279, 3028, 7962, 2439, 7963, 7964, 7965, 7553
5465, 5357, 1455, 5353, 5356, 7966, 7967, 5388, 5415, 7968, 5414
5466, 5594, 5596, 5787, 2046, 5713, 7095, 7433, 5709, 5711, 5827
5467, 1712, 5362, 5353, 4293, 5389, 5391, 5387, 7969, 7284, 7970
5468, 1686, 6823, 1682, 6849, 7971, 7972, 4656, 7973, 7228, 7974
5469, 6139, 6812, 245, 6825, 7975, 7976, 7977, 7978, 7980, 7979
5470, 5599, 6042, 5588, 6897, 7981, 7593, 5735, 7982, 7598, 7596
5471, 3073, 2272, 6357, 3074, 7983, 7984, 7124, 3085, 7985, 7125
5472, 4661, 6834, 4892, 6884, 7610, 7718, 7986, 6974, 7611, 7688
5473, 4855, 1723, 265, 6816, 4864, 1724, 4863, 7734, 7735, 7987
5474, 3155, 2270, 645, 3156, 7032, 7988, 7989, 3167, 7033, 7990
5475, 4667, 6851, 6856, 6896, 7679, 7681, 7576, 7612, 7338, 7991
5476, 3700, 3029, 1029, 1030, 7992, 3061, 7993, 7994, 3060, 1036
5477, 4889, 4893, 4887, 6834, 4953, 4952, 4916, 7390, 7391, 7796
5478, 1028, 2857, 2842, 6901, 6969, 3025, 7414, 7607, 7803, 7865
5479, 1951, 2107, 6846, 6847, 7683, 7684, 7617, 7512, 7995, 7489
5480, 2111, 1802, 6859, 6904, 7940, 7163, 7921, 7996, 7164, 7101
5481, 6447, 6446, 6448, 6839, 6732, 6740, 6739, 7997, 7216, 7685
5482, 6430, 6441, 6474, 6885, 6678, 6651, 6597, 7393, 7999, 7998
5483, 6496, 6454, 6476, 6885, 6776, 6774, 6723, 7364, 6933, 7247
5484, 3507, 989, 3492, 6860, 8000, 8001, 3561, 8002, 8004, 8003
5485, 3688, 3712, 3657, 6892, 3926, 3925, 3912, 8005, 8007, 8006
5486, 4679, 5360, 5362, 6851, 8008, 5394, 8009, 7825, 8010, 6944
5487, 6430, 6496, 6441, 6885, 6680, 6679, 6678, 7393, 7364, 7999
5488, 4685, 1686, 6824, 6849, 4701, 8011, 7887, 7890, 7973, 7891
5489, 4886, 6859, 6838, 6884, 7961, 8012, 8013, 7686, 7078, 7294
5490, 107, 116, 3405, 94, 1138, 3422, 3421, 8014, 8016, 8015
5491, 1951, 1952, 2106, 6847, 1958, 7502, 8017, 7512, 7513, 8018
5492, 6474, 6441, 6424, 6885, 6651, 6650, 6594, 7998, 7999, 8019
5493, 3688, 3654, 3655, 6895, 3908, 3903, 3909, 7273, 7274, 7860
5494, 4538, 265, 4660, 6816, 7011, 4719, 7010, 8020, 7987, 7543
5495, 4671, 6815, 4664, 6884, 7498, 7499, 4806, 7641, 8021, 7453
5496, 3028, 840, 2300, 6855, 7964, 7962, 7965, 7456, 8023, 8022
5497, 2270, 3156, 877, 552, 7033, 7035, 7036, 2421, 8025, 8024
5498, 1682, 6823, 1678, 6849, 7972, 8026, 4653, 7974, 7228, 8027
5499, 328, 462, 6365, 307, 8028, 8029, 8030, 1862, 8032, 8031
5500, 4673, 4668, 6856, 6896, 4836, 7575, 7573, 8033, 8034, 7991
5501, 3154, 2297, 3072, 6863, 8035, 8036, 7287, 7289, 8037, 7288
5502, 5600, 5883, 1803, 6829, 8038, 8039, 8040, 8041, 8043, 8042
5503, 3073, 849, 2272, 3074, 8044, 8045, 7983, 3085, 7716, 7985
5504, 1678, 6823, 1674, 6849, 8026, 8046, 4650, 8027, 7228, 8047
5505, 4542, 4689, 4680, 4696, 7428, 4714, 8048, 7430, 4798, 4827
5506, 2299, 3028, 2279, 6893, 7670, 7553, 2387, 7671, 7478, 7554
5507, 6455, 6452, 6862, 6885, 6770, 7030, 7031, 6931, 6932, 8049
5508, 6462, 6420, 6488, 6818, 6535, 6630, 6629, 8050, 8052, 8051
5509, 6432, 6433, 6431, 6827, 6685, 6684, 6673, 7092, 7417, 7291
5510, 1710, 5355, 4675, 5357, 5381, 7535, 4776, 5383, 5385, 7536
5511, 2109, 6844, 6042, 6897, 8053, 7594, 6073, 8054, 7597, 7598
5512, 1952, 5960, 1951, 6045, 7924, 8055, 1958, 7925, 7080, 8056
5513, 5869, 5873, 5880, 4265, 5935, 5916, 5897, 7600, 7518, 8057
5514, 3112, 2279, 2300, 6855, 7552, 2439, 8058, 7457, 7943, 8022
5515, 1577, 5436, 5429, 6899, 7316, 5497, 7317, 8059, 7651, 7652
5516, 6445, 6446, 6444, 6839, 6730, 6729, 6696, 7387, 7216, 7196
5517, 4664, 6815, 4961, 6884, 7499, 8060, 7451, 7453, 8021, 7062
5518, 1033, 1032, 6855, 6894, 1039, 8061, 7912, 7745, 7746, 7460
5519, 1952, 5607, 2106, 6836, 7441, 8062, 7502, 7087, 7442, 7503
5520, 6355, 6361, 470, 6362, 6417, 7492, 8063, 6409, 6410, 8064
5521, 1952, 5616, 5971, 6045, 8065, 8066, 7923, 7925, 8067, 7491
5522, 6838, 6859, 6815, 6884, 8012, 8068, 8069, 7294, 7078, 8021
5523, 6133, 6828, 6442, 6854, 8070, 7411, 7007, 8071, 7413, 6999
5524, 3191, 3199, 1057, 3208, 3244, 8072, 8073, 3257, 3259, 8074
5525, 6108, 6841, 6101, 6868, 8075, 8076, 6328, 7295, 8077, 7297
5526, 1801, 2106, 6836, 6903, 8078, 7503, 7936, 7937, 7504, 7213
5527, 460, 188, 211, 6362, 8079, 1484, 8080, 8081, 8083, 8082
5528, 6444, 6447, 6483, 6839, 6731, 6733, 6728, 7196, 7997, 7394
5529, 5360, 5354, 5359, 6851, 5421, 5420, 5422, 8010, 7521, 6946
5530, 4667, 4666, 4668, 6856, 4818, 4822, 4821, 7576, 7577, 7575
5531, 3671, 3683, 3673, 6848, 3968, 3967, 3966, 8084, 8085, 7384
5532, 5360, 5354, 6851, 6865, 5421, 7521, 8010, 8086, 7522, 7336
5533, 3364, 3494, 2860, 1047, 6948, 7515, 7516, 7408, 7166, 8087
5534, 4892, 6838, 4661, 6884, 8088, 7396, 7986, 7688, 7294, 6974
5535, 189, 461, 452, 6362, 8089, 2210, 7871, 7872, 7922, 7523
5536, 329, 2018, 2022, 6809, 2019, 5565, 5564, 8090, 8092, 8091
5537, 6095, 6101, 6112, 6868, 6330, 6332, 6331, 7296, 7297, 7702
5538, 6113, 4196, 6094, 6850, 8093, 8094, 6206, 8095, 8097, 8096
5539, 2282, 646, 2262, 6863, 8098, 8099, 2522, 7371, 8100, 7373
5540, 1029, 2271, 3029, 649, 8101, 7775, 3061, 8102, 8104, 8103
5541, 4676, 4697, 6834, 6884, 4805, 8105, 7609, 7418, 7419, 7611
5542, 380, 4685, 389, 6887, 8106, 8107, 2155, 8108, 7188, 8109
5543, 4130, 4894, 1757, 6868, 8110, 4924, 8111, 8112, 8114, 8113
5544, 6101, 6117, 6112, 4891, 6318, 6239, 6332, 7118, 7116, 7701
5545, 6846, 6847, 6082, 6904, 7489, 8115, 7798, 7210, 7099, 7799
5546, 3719, 3657, 3689, 6845, 3924, 3927, 3928, 7618, 7423, 7739
5547, 6365, 6361, 461, 470, 6412, 7868, 7867, 7494, 7492, 2219
5548, 340, 308, 339, 6861, 5542, 2000, 2001, 8116, 8118, 8117
5549, 3695, 3669, 3670, 6892, 3955, 3950, 3956, 8119, 7833, 7834
5550, 5969, 5959, 5597, 6852, 6029, 7218, 7219, 7753, 7540, 7541
5551, 3154, 2278, 2297, 6863, 8120, 2463, 8035, 7289, 8121, 8037
5552, 2271, 3032, 2277, 6889, 8122, 8123, 2431, 7333, 8125, 8124
5553, 2297, 3154, 3072, 6888, 8035, 7287, 8036, 8126, 7358, 7359
5554, 4166, 6127, 6110, 1755, 8127, 6191, 8128, 8129, 8131, 8130
5555, 5792, 5795, 5596, 6844, 5857, 7052, 7050, 7892, 8132, 7894
5556, 3651, 3648, 3647, 6895, 3872, 3866, 3873, 7881, 7882, 7902
5557, 2270, 3155, 793, 6863, 7032, 8133, 8134, 7372, 7786, 8135
5558, 5876, 5873, 5869, 4265, 5936, 5935, 5937, 6997, 7518, 7600
5559, 2282, 2270, 793, 6863, 2422, 8134, 8136, 7371, 7372, 8135
5560, 2851, 1112, 2860, 1047, 8137, 8138, 3014, 7858, 7586, 8087
5561, 1046, 6867, 3068, 6888, 7179, 8139, 3108, 8140, 7571, 8141
5562, 1113, 1046, 1114, 6901, 7620, 7622, 1120, 7621, 7133, 7608
5563, 4671, 4658, 4698, 6815, 4786, 4750, 4789, 7498, 7730, 7500
5564, 2860, 3494, 2851, 1047, 7515, 7848, 3014, 8087, 7166, 7858
5565, 3112, 2300, 865, 6855, 8058, 8142, 8143, 7457, 8022, 8144
5566, 4698, 274, 275, 4959, 4748, 1701, 4749, 8145, 8147, 8146
5567, 213, 216, 122, 6875, 1497, 1614, 4602, 8148, 8150, 8149
5568, 3032, 2277, 836, 2271, 8123, 8151, 8152, 8122, 2431, 7774
5569, 3676, 3677, 3678, 6874, 3980, 3990, 3989, 7616, 7614, 7706
5570, 1419, 5790, 5788, 5800, 8153, 5865, 8154, 8155, 5826, 5842
5571, 1116, 1115, 1057, 6894, 1122, 7398, 7877, 7822, 7400, 7184
5572, 1577, 5429, 5598, 6899, 7317, 7014, 8156, 8059, 7652, 7959
5573, 6355, 470, 469, 6362, 8063, 473, 7580, 6409, 8064, 7579
5574, 1033, 1032, 3027, 6855, 1039, 3067, 3066, 7912, 8061, 8157
5575, 1752, 2111, 5610, 6820, 7917, 8158, 7026, 8159, 8161, 8160
5576, 3285, 2864, 3281, 980, 7281, 8162, 3323, 3320, 2955, 3300
5577, 341, 308, 340, 6861, 5541, 5542, 2002, 8163, 8118, 8116
5578, 3287, 2842, 1114, 3280, 8164, 8165, 8166, 3301, 8168, 8167
5579, 3070, 647, 850, 2286, 8169, 8170, 8171, 8172, 8174, 8173
5580, 5366, 5023, 5364, 6903, 7808, 8175, 5397, 7811, 7812, 6914
5581, 6489, 6440, 6476, 6885, 6721, 6718, 6722, 7248, 8176, 7247
5582, 5362, 5359, 5353, 4293, 5419, 5418, 5391, 7284, 7160, 7970
5583, 4667, 6856, 4668, 6896, 7576, 7575, 4821, 7612, 7991, 8034
5584, 1965, 5432, 5615, 5437, 5487, 7427, 5701, 5483, 5488, 7049
5585, 2269, 2255, 6888, 6893, 2500, 7835, 7570, 7767, 8177, 7938
5586, 347, 340, 339, 6861, 5953, 2001, 2014, 8178, 8116, 8117
5587, 4112, 6095, 4118, 6841, 8179, 8180, 8181, 8182, 8184, 8183
5588, 3402, 3420, 3411, 1071, 3468, 3467, 3454, 8185, 7533, 7534
5589, 3703, 3651, 3656, 6895, 3878, 3894, 3896, 7883, 7881, 7699
5590, 3283, 3293, 3286, 1029, 3359, 3348, 3329, 8186, 7089, 7090
5591, 4679, 4678, 4665, 6851, 4784, 4706, 4819, 7825, 7357, 7680
5592, 4112, 6121, 6095, 6841, 8187, 6170, 8179, 8182, 8188, 8184
5593, 213, 122, 123, 6875, 4602, 1162, 1490, 8148, 8149, 8189
5594, 4672, 5360, 4679, 6851, 8190, 8008, 4782, 7823, 8010, 7825
5595, 3675, 3709, 3686, 6891, 3985, 3984, 3986, 7270, 7932, 7933
5596, 4959, 4664, 4698, 6815, 8191, 4753, 8145, 8192, 7499, 7500
5597, 2022, 6843, 6809, 6885, 7851, 8193, 8091, 7852, 7853, 8194
5598, 3681, 3710, 3695, 6892, 3845, 3959, 3856, 7915, 7916, 8119
5599, 2265, 524, 37, 3700, 2313, 527, 2314, 8195, 3775, 3774
5600, 6886, 6888, 2255, 6893, 8196, 7835, 8197, 8198, 7938, 8177
5601, 5965, 5967, 5969, 1950, 5995, 6039, 6038, 7021, 8199, 7020
5602, 3403, 1074, 3409, 3416, 8200, 8201, 3463, 3470, 7627, 3471
5603, 6810, 6859, 6847, 6904, 7076, 7096, 7259, 7211, 7101, 7099
5604, 5884, 1440, 5872, 1420, 7311, 7365, 5929, 7313, 4270, 8202
5605, 3410, 3419, 3402, 1072, 3466, 3465, 3457, 8203, 8205, 8204
5606, 6100, 6090, 6104, 6826, 6307, 6226, 6308, 8206, 8208, 8207
5607, 2279, 3028, 2300, 6855, 7553, 7965, 2439, 7943, 7456, 8022
5608, 4538, 4854, 4855, 6816, 8209, 4862, 7379, 8020, 7736, 7734
5609, 5973, 5962, 5956, 1948, 6016, 5989, 6017, 8210, 8212, 8211
5610, 335, 1800, 1412, 6836, 6975, 8213, 8214, 7085, 7086, 8215
5611, 462, 471, 6365, 461, 2215, 8216, 8029, 465, 2218, 7867
5612, 2855, 2854, 2845, 6830, 3012, 2989, 2937, 7546, 7305, 8217
5613, 5362, 1712, 4678, 4293, 5389, 4768, 7356, 7284, 7969, 7841
5614, 6107, 6122, 6099, 6850, 6321, 6346, 6343, 8218, 8220, 8219
5615, 329, 331, 6356, 1875, 1867, 8221, 8222, 5082, 5083, 6384
5616, 2106, 1952, 5616, 5607, 7502, 8065, 8223, 8062, 7441, 5770
5617, 6429, 6431, 6819, 6827, 6655, 7054, 7055, 7091, 7291, 8224
5618, 4889, 6834, 4887, 6883, 7390, 7796, 4916, 7642, 7643, 8225
5619, 470, 6361, 461, 6362, 7492, 7868, 2219, 8064, 6410, 7922
5620, 4889, 6810, 6883, 6904, 7388, 7208, 7642, 7827, 7211, 7212
5621, 461, 471, 6365, 470, 2218, 8216, 7867, 2219, 474, 7494
5622, 3069, 2256, 6889, 6902, 7375, 7332, 8226, 8227, 7463, 7464
5623, 4961, 6815, 4964, 6859, 8060, 8228, 4986, 7434, 8068, 7236
5624, 5790, 150, 1350, 1757, 8229, 1352, 8230, 8231, 8233, 8232
5625, 1212, 1454, 371, 372, 8234, 8235, 6800, 6803, 8236, 375
5626, 2107, 2108, 5367, 6846, 2114, 7323, 7682, 7684, 7325, 6980
5627, 1627, 6849, 6362, 6878, 7155, 7508, 6373, 8237, 8239, 8238
5628, 4892, 4886, 6838, 6884, 4948, 8013, 8088, 7688, 7686, 7294
5629, 5616, 5964, 5971, 6045, 8240, 6015, 8066, 8067, 7082, 7491
5630, 5359, 4541, 191, 4293, 6942, 4546, 7792, 7160, 7283, 4310
5631, 1417, 1400, 140, 1191, 8241, 1402, 8242, 4258, 6963, 4031
5632, 1195, 1305, 158, 1420, 6962, 1306, 4071, 4247, 8244, 8243
5633, 5367, 1951, 1950, 6852, 5407, 1957, 5408, 7470, 7755, 7471
5634, 6113, 6094, 6114, 6850, 6206, 6324, 6279, 8095, 8096, 8245
5635, 2263, 57, 89, 2283, 2365, 821, 7221, 2367, 2363, 7223
5636, 4890, 6859, 4893, 6904, 7564, 7582, 4949, 8246, 7101, 7826
5637, 6108, 6095, 6841, 6868, 6329, 8184, 8075, 7295, 7296, 8077
5638, 5597, 5959, 2088, 5595, 7218, 6009, 5761, 5727, 7350, 5763
5639, 6441, 6440, 6424, 6885, 6649, 6648, 6650, 7999, 8176, 8019
5640, 3698, 3679, 3678, 6874, 3996, 3992, 3997, 7175, 7790, 7706
5641, 979, 3285, 2859, 3279, 3321, 6917, 2953, 3317, 3322, 7023
5642, 283, 2109, 1582, 6826, 7589, 7588, 7590, 8247, 8249, 8248
5643, 3418, 3410, 3403, 1073, 3472, 3460, 3473, 8250, 8252, 8251
5644, 2297, 2278, 3072, 6863, 2463, 8253, 8036, 8037, 8121, 7288
5645, 4855, 265, 4538, 6816, 4863, 7011, 7379, 7734, 7987, 8020
5646, 3418, 3361, 1073, 6830, 8254, 8255, 8250, 8256, 8258, 8257
5647, 5437, 1437, 1417, 5615, 7119, 4284, 7121, 7049, 5675, 8259
5648, 4885, 268, 4690, 4659, 8260, 4728, 7634, 7633, 4730, 4732
5649, 4660, 4696, 4542, 6816, 4796, 7430, 7429, 7543, 7544, 8261
5650, 2279, 865, 3112, 2300, 8262, 8143, 7552, 2439, 8142, 8058
5651, 2269, 95, 2299, 6893, 7766, 7668, 2385, 7767, 7672, 7671
5652, 5272, 275, 274, 4959, 5273, 1701, 5274, 8263, 8146, 8147
5653, 6498, 6839, 6473, 6862, 7214, 7215, 6743, 7106, 8264, 7105
5654, 6812, 6825, 6139, 6858, 7980, 7978, 7975, 8265, 8267, 8266
5655, 4890, 4893, 4889, 6904, 4949, 4953, 4937, 8246, 7826, 7827
5656, 6480, 6481, 6484, 6854, 6726, 6621, 6716, 7000, 6998, 8268
5657, 461, 469, 6362, 460, 2217, 7579, 7922, 464, 2216, 8081
5658, 469, 461, 6362, 470, 2217, 7922, 7579, 473, 2219, 8064
5659, 4672, 4688, 4682, 6865, 4847, 4841, 4848, 7824, 7335, 7148
5660, 3632, 6888, 6886, 6893, 8269, 8196, 8270, 8271, 7938, 8198
5661, 614, 838, 3031, 3030, 8272, 8273, 8274, 8275, 8276, 3053
5662, 6466, 6433, 6432, 6827, 6689, 6685, 6690, 7342, 7417, 7092
5663, 5359, 5362, 5360, 6851, 5419, 5394, 5422, 6946, 6944, 8010
5664, 4889, 285, 1753, 6883, 8277, 7944, 4914, 7642, 7948, 7946
5665, 4118, 6841, 6095, 6868, 8183, 8184, 8180, 8278, 8077, 7296
5666, 6453, 6486, 6450, 6862, 6663, 6754, 6759, 8279, 7115, 8280
5667, 285, 4887, 6833, 6883, 8281, 7797, 8282, 7948, 8225, 8283
5668, 4672, 5360, 6851, 6865, 8190, 8010, 7823, 7824, 8086, 7336
5669, 5608, 5878, 5871, 5885, 8284, 5922, 8285, 8286, 5946, 5945
5670, 6431, 6443, 6819, 6827, 6686, 7126, 7054, 7291, 7416, 8224
5671, 2863, 2857, 3277, 3290, 2952, 6909, 7537, 8287, 7061, 3311
5672, 1192, 1417, 1418, 6840, 4259, 1427, 4261, 8288, 8290, 8289
5673, 4681, 4671, 4662, 6884, 4808, 4807, 4809, 6954, 7641, 7109
5674, 1966, 5599, 5620, 5432, 5706, 5707, 5703, 5486, 8292, 8291
5675, 4697, 4681, 4670, 6884, 4845, 4839, 4844, 7419, 6954, 8293
5676, 1634, 6821, 1630, 6849, 8294, 8295, 4617, 8296, 6985, 8297
5677, 3068, 6867, 2274, 6888, 8139, 8298, 8299, 8141, 7571, 8300
5678, 1753, 1752, 6043, 5791, 1759, 7025, 8301, 8302, 7220, 6940
5679, 5967, 5970, 1951, 5960, 6034, 8303, 8304, 5998, 6033, 8055
5680, 1113, 1114, 6860, 6901, 1120, 7907, 7619, 7621, 7608, 7201
5681, 3684, 3720, 3701, 6891, 3850, 4005, 4004, 8305, 8307, 8306
5682, 1927, 5284, 5283, 6815, 5288, 5293, 5292, 7555, 8309, 8308
5683, 4684, 1686, 4685, 6887, 4716, 4701, 4770, 8310, 8311, 7188
5684, 1686, 6849, 4685, 6887, 7973, 7890, 4701, 8311, 7439, 7188
5685, 5284, 1930, 5283, 6815, 5287, 5291, 5293, 8309, 8312, 8308
5686, 5602, 1800, 5881, 6836, 8313, 8314, 8315, 8316, 7086, 8317
5687, 4697, 4670, 6834, 6884, 4844, 8318, 8105, 7419, 8293, 7611
5688, 1461, 192, 1566, 4293, 1463, 4531, 4532, 4313, 4311, 8319
5689, 1839, 1704, 305, 5023, 5268, 5267, 1841, 5027, 8320, 5024
5690, 6488, 6470, 6451, 6862, 6631, 6762, 6763, 8321, 7029, 8322
5691, 2274, 6867, 2303, 6888, 8298, 7568, 2460, 8300, 7571, 7572
5692, 115, 3152, 6886, 6888, 8323, 8324, 8325, 8326, 8327, 8196
5693, 793, 3411, 2751, 3420, 7530, 7405, 2755, 7531, 3467, 7407
5694, 6429, 6478, 6434, 6854, 6657, 6677, 6676, 8328, 8330, 8329
5695, 3655, 3667, 3668, 6842, 3905, 3914, 3913, 8331, 7230, 7793
5696, 4675, 4685, 5355, 6887, 4852, 7351, 7535, 8332, 7188, 6928
5697, 5362, 4678, 4679, 6851, 7356, 4784, 8009, 6944, 7357, 7825
5698, 2298, 796, 2271, 6889, 8333, 8334, 2417, 7334, 8335, 7333
5699, 4588, 243, 1453, 6849, 4594, 8336, 8337, 8338, 8339, 7801
5700, 4894, 1781, 4130, 4136, 4922, 8340, 8110, 8341, 8343, 8342
5701, 1059, 775, 6855, 6898, 8344, 8345, 7696, 7710, 8346, 7638
5702, 3642, 3720, 3684, 6891, 3851, 3850, 3760, 8347, 8307, 8305
5703, 1072, 3365, 3419, 6837, 8348, 8349, 8205, 7509, 8351, 8350
5704, 2076, 1440, 5600, 5872, 5625, 5690, 5689, 5926, 7365, 8352
5705, 1113, 1114, 3366, 6860, 1120, 3388, 3384, 7619, 7907, 7906
5706, 3632, 109, 6867, 6893, 8353, 7759, 8354, 8271, 7760, 7761
5707, 3406, 3414, 3419, 2852, 3441, 3483, 3482, 8355, 8357, 8356
5708, 5359, 5358, 5353, 4293, 5417, 5416, 5418, 7160, 7161, 7970
5709, 6102, 6097, 6129, 6841, 6335, 6339, 6338, 8358, 8360, 8359
5710, 4667, 4679, 4665, 6851, 4820, 4819, 4817, 7679, 7825, 7680
5711, 1194, 1419, 1420, 6820, 4263, 1429, 4264, 7479, 8362, 8361
5712, 3033, 109, 95, 6867, 3036, 7757, 8363, 7728, 7759, 7758
5713, 2257, 2266, 2291, 6864, 2508, 2511, 2329, 8364, 8366, 8365
5714, 894, 3290, 796, 2857, 7366, 7307, 2762, 2911, 7061, 7308
5715, 864, 2299, 3112, 6893, 8367, 8368, 8369, 8370, 7671, 7476
5716, 1419, 289, 5611, 6820, 8371, 8372, 8373, 8362, 7751, 8374
5717, 5355, 5363, 4675, 6887, 5382, 8375, 7535, 6928, 8376, 8332
5718, 2863, 2842, 3287, 3277, 2950, 8164, 8377, 7537, 7415, 3308
5719, 1454, 1455, 5357, 5356, 1458, 7966, 8378, 7623, 7968, 5415
5720, 5284, 273, 1930, 6815, 5286, 1931, 5287, 8309, 8379, 8312
5721, 1638, 6821, 1634, 6849, 8380, 8294, 4620, 8381, 6985, 8296
5722, 5798, 2062, 5596, 5787, 7814, 5740, 7094, 5862, 7815, 7095
5723, 6108, 6095, 6121, 6841, 6329, 6170, 6309, 8075, 8184, 8188
5724, 3112, 2299, 2279, 6893, 8368, 2387, 7552, 7476, 7671, 7554
5725, 2268, 3071, 2296, 6867, 8382, 7725, 2427, 7782, 7178, 7727
5726, 4130, 6105, 4894, 6868, 8383, 8384, 8110, 8112, 8385, 8114
5727, 5870, 1803, 5875, 5883, 8386, 8387, 5912, 5940, 8039, 5941
5728, 115, 6886, 3632, 6888, 8325, 8270, 3634, 8326, 8196, 8269
5729, 6816, 6856, 4540, 6883, 7695, 8388, 8389, 7769, 7770, 8390
5730, 3070, 850, 851, 2261, 8171, 857, 8391, 8392, 8393, 7377
5731, 5607, 5587, 5606, 335, 5769, 5645, 5657, 7440, 8395, 8394
5732, 6097, 6101, 6108, 6841, 6316, 6328, 6337, 8360, 8076, 8075
5733, 1045, 3501, 3497, 3506, 8396, 3550, 7056, 7057, 3575, 3574
5734, 3113, 866, 2304, 6898, 8397, 8398, 8399, 8400, 8402, 8401
5735, 2839, 3492, 3507, 989, 7261, 3561, 7262, 2961, 8001, 8000
5736, 1113, 1114, 1046, 6867, 1120, 7622, 7620, 8403, 7605, 7179
5737, 5359, 5354, 5367, 6846, 5420, 5412, 5423, 7068, 7520, 6980
5738, 2109, 6826, 1754, 6844, 8249, 8404, 8405, 8053, 8407, 8406
5739, 5876, 1412, 5881, 4265, 6994, 8408, 5932, 6997, 4269, 7519
5740, 1642, 1646, 6821, 6849, 4626, 8409, 8410, 8411, 8412, 6985
5741, 1757, 5790, 1756, 1350, 8231, 8413, 1763, 8232, 8230, 8414
5742, 6099, 6090, 6100, 6826, 6305, 6307, 6306, 8415, 8208, 8206
5743, 2279, 2299, 95, 3028, 2387, 7668, 8416, 7553, 7670, 7669
5744, 3492, 2841, 2839, 1018, 8417, 2971, 7261, 3532, 3005, 3007
5745, 5432, 5615, 5443, 6897, 7427, 7426, 5509, 8418, 8420, 8419
5746, 1642, 6821, 1638, 6849, 8410, 8380, 4623, 8411, 6985, 8381
5747, 4692, 4884, 4693, 4676, 7713, 8421, 4795, 4849, 8422, 4804
5748, 2858, 2859, 2843, 6894, 2921, 3026, 3017, 8423, 7747, 7928
5749, 4130, 4894, 4136, 1757, 8110, 8341, 8342, 8111, 4924, 8424
5750, 5617, 5795, 1754, 6844, 6923, 7345, 7346, 8425, 8132, 8406
5751, 3115, 1056, 111, 6857, 3122, 1062, 3118, 7224, 7204, 7205
5752, 3279, 896, 798, 2859, 7249, 2769, 7251, 7023, 2919, 8426
5753, 6847, 6865, 5354, 6903, 7147, 7522, 7514, 7885, 7830, 7884
5754, 6047, 281, 5444, 336, 8427, 5448, 8428, 8429, 1960, 5449
5755, 2111, 5610, 6820, 6829, 8158, 8160, 8161, 8430, 8432, 8431
5756, 3706, 6817, 3693, 6842, 7550, 7551, 3864, 7229, 8433, 7231
5757, 1962, 5619, 5433, 6899, 5695, 7904, 5474, 8434, 8435, 7650
5758, 6810, 6856, 6834, 6883, 7724, 7768, 7392, 7208, 7770, 7643
5759, 3657, 3712, 3689, 6845, 3925, 3848, 3927, 7423, 7738, 7739
5760, 407, 416, 1834, 6849, 2175, 8436, 8437, 8438, 8439, 6984
5761, 6364, 1618, 2290, 6900, 6370, 8440, 8441, 7951, 7952, 8442
5762, 97, 2267, 3115, 6857, 8443, 7528, 8444, 7299, 7640, 7224
5763, 1114, 2842, 3366, 6901, 8165, 7861, 3388, 7608, 7865, 7863
5764, 3205, 1116, 3208, 6866, 8445, 8446, 3270, 8447, 7819, 8448
5765, 6463, 6488, 6451, 6862, 6764, 6763, 6765, 7104, 8321, 8322
5766, 3679, 3692, 3676, 6874, 3993, 3983, 3991, 7790, 8449, 7616
5767, 2260, 2272, 849, 3074, 2443, 8045, 7715, 7361, 7985, 7716
5768, 6082, 6846, 2107, 6847, 7798, 7684, 6086, 8115, 7489, 7995
5769, 4673, 6856, 6834, 6896, 7573, 7768, 7939, 8033, 7991, 8450
5770, 1927, 274, 5284, 6815, 1928, 5285, 5288, 7555, 7901, 8309
5771, 3198, 3191, 1058, 6866, 3255, 7545, 7136, 7900, 8451, 7367
5772, 3646, 3662, 3663, 6900, 3868, 3870, 3869, 8452, 8454, 8453
5773, 6082, 6847, 362, 6904, 8115, 7421, 6084, 7799, 7099, 7422
5774, 3405, 2751, 3411, 3408, 8455, 7405, 3451, 3478, 7406, 3479
5775, 1031, 3030, 614, 3031, 3065, 8275, 8456, 3062, 3053, 8274
5776, 3028, 109, 1115, 6893, 3035, 8457, 7475, 7478, 7760, 7477
5777, 6359, 2273, 2022, 6363, 8458, 7837, 6387, 6400, 7840, 6391
5778, 330, 6357, 6356, 516, 6389, 6388, 6385, 8459, 8461, 8460
5779, 4696, 4666, 4680, 6856, 4826, 4711, 4827, 7806, 7577, 8462
5780, 5598, 1577, 2108, 5429, 8156, 7324, 8463, 7014, 7317, 8464
5781, 4960, 4967, 1801, 6847, 5009, 5008, 5000, 7145, 7098, 8465
5782, 4963, 4962, 6865, 6903, 5004, 7829, 7045, 8466, 7810, 7830
5783, 3706, 6842, 3667, 6895, 7229, 7230, 3907, 7495, 8467, 7497
5784, 2111, 297, 1802, 6820, 7918, 7941, 7940, 8161, 8469, 8468
5785, 4958, 4963, 4962, 6865, 5014, 5004, 4975, 7046, 7045, 7829
5786, 135, 1300, 186, 160, 6961, 7693, 4243, 4017, 1302, 8470
5787, 2836, 964, 3198, 2840, 2944, 3229, 6988, 2945, 2942, 8471
5788, 61, 2734, 6477, 552, 8472, 8473, 6551, 554, 8474, 6553
5789, 3363, 1115, 1116, 6894, 3393, 1122, 3399, 7821, 7400, 7822
5790, 1046, 1113, 6867, 6888, 7620, 8403, 7179, 8140, 8475, 7571
5791, 4130, 4124, 6105, 6868, 8476, 8477, 8383, 8112, 8478, 8385
5792, 2255, 880, 3152, 6886, 8479, 8480, 8481, 8197, 8482, 8324
5793, 4670, 6884, 4681, 6896, 8293, 6954, 4839, 8483, 6959, 6957
5794, 3494, 110, 2851, 1047, 7505, 7857, 7848, 7166, 1054, 7858
5795, 1752, 297, 2111, 6820, 7919, 7918, 7917, 8159, 8469, 8161
5796, 3420, 3408, 2751, 2846, 3489, 7406, 7407, 8484, 8485, 7958
5797, 4124, 6128, 6105, 6868, 8486, 6176, 8477, 8478, 8487, 8385
5798, 5601, 6820, 5610, 6829, 8488, 8160, 5745, 8489, 8431, 8432
5799, 1952, 2106, 6847, 6903, 7502, 8018, 7513, 6915, 7504, 7885
5800, 2018, 2022, 6809, 6885, 5565, 8091, 8092, 8490, 7852, 8194
5801, 2260, 2262, 646, 6863, 2392, 8099, 8491, 7329, 7373, 8100
5802, 2842, 2857, 2856, 6901, 3025, 2912, 3022, 7865, 7803, 8492
5803, 1802, 2111, 362, 6904, 7940, 2118, 7565, 7164, 7996, 7422
5804, 1070, 3411, 793, 1071, 8493, 7530, 8494, 1077, 7534, 7532
5805, 6867, 6888, 3632, 6893, 7571, 8269, 8354, 7761, 7938, 8271
5806, 3362, 1117, 2854, 1056, 3401, 7304, 7172, 6937, 7303, 7173
5807, 3152, 2255, 6886, 6888, 8481, 8197, 8324, 8327, 7835, 8196
5808, 2844, 3407, 1006, 899, 8495, 3445, 2933, 2934, 7602, 2869
5809, 2111, 6043, 1752, 5610, 6081, 7025, 7917, 8158, 7024, 7026
5810, 6095, 6128, 4118, 6868, 6173, 8496, 8180, 7296, 8487, 8278
5811, 4959, 4961, 4664, 6815, 4980, 7451, 8191, 8192, 8060, 7499
5812, 341, 307, 308, 6861, 2003, 1830, 5541, 8163, 8497, 8118
5813, 237, 4666, 4665, 6856, 4710, 4709, 4703, 8498, 7577, 7578
5814, 6130, 1825, 6111, 1803, 6290, 6250, 6291, 7042, 4985, 7041
5815, 6118, 4202, 1581, 1580, 7659, 7763, 7764, 7663, 7661, 1587
5816, 6810, 6859, 6834, 6884, 7076, 7583, 7392, 7077, 7078, 7611
5817, 2843, 1115, 3363, 6894, 8499, 3393, 7926, 7928, 7400, 7821
5818, 4676, 4884, 4693, 4661, 8422, 8421, 4804, 4803, 8500, 4738
5819, 5343, 1723, 5342, 6816, 5346, 5350, 5352, 8501, 7735, 8502
5820, 6446, 6447, 6444, 6839, 6732, 6731, 6729, 7216, 7997, 7196
5821, 6418, 6484, 6481, 6828, 6619, 6621, 6514, 8503, 8504, 7412
5822, 5343, 5342, 1941, 6816, 5352, 5351, 5347, 8501, 8502, 8505
5823, 3208, 3362, 3199, 1116, 7044, 7043, 3259, 8446, 3398, 8506
5824, 2851, 2847, 1112, 6837, 2896, 8507, 8137, 8508, 8509, 7866
5825, 1117, 3114, 1056, 1057, 8510, 3141, 7303, 8511, 3140, 1063
5826, 3703, 6825, 3648, 6895, 7719, 7720, 3877, 7883, 8512, 7882
5827, 3646, 3663, 6875, 6900, 3869, 7816, 7817, 8452, 8453, 8513
5828, 347, 346, 1834, 5546, 2013, 8514, 7003, 5552, 5557, 6981
5829, 243, 4588, 1453, 244, 4594, 8337, 8336, 1607, 4595, 8515
5830, 4660, 264, 4542, 4689, 4718, 8516, 7429, 4720, 4713, 7428
5831, 85, 111, 748, 2264, 7656, 8517, 749, 7657, 7102, 8518
5832, 1581, 6114, 6100, 6850, 7647, 6347, 7646, 8519, 8245, 8520
5833, 4964, 6815, 299, 6859, 8228, 8521, 7879, 7236, 8068, 7880
5834, 1949, 5358, 1455, 5356, 5405, 8522, 8523, 5401, 5406, 7968
5835, 3288, 1033, 1115, 3281, 7157, 8524, 8525, 3305, 7158, 8526
5836, 6480, 6133, 6442, 6854, 7898, 7007, 6727, 7000, 8071, 6999
5837, 110, 2260, 646, 6863, 7326, 8491, 8527, 7331, 7329, 8100
5838, 4960, 6865, 6847, 6903, 7146, 7147, 7145, 8528, 7830, 7885
5839, 469, 478, 6355, 1491, 2221, 8529, 7580, 7581, 8530, 6375
5840, 1047, 3068, 1112, 1046, 3107, 8531, 7586, 1053, 3108, 8532
5841, 5363, 5355, 5365, 6887, 5382, 5427, 5396, 8376, 6928, 8533
5842, 4667, 4688, 4679, 6851, 4830, 4832, 4820, 7679, 7337, 7825
5843, 354, 334, 343, 6832, 5571, 2007, 2031, 8534, 8536, 8535
5844, 299, 1802, 297, 6820, 7878, 7941, 1794, 8537, 8468, 8469
5845, 2293, 3073, 647, 850, 8538, 8539, 8540, 8541, 8542, 8170
5846, 6462, 6488, 6463, 6818, 6629, 6764, 6637, 8050, 8051, 8543
5847, 2255, 2275, 6886, 6893, 2492, 8544, 8197, 8177, 8545, 8198
5848, 1057, 1117, 3114, 6893, 8511, 8510, 3140, 7632, 8547, 8546
5849, 4658, 4686, 273, 6815, 4747, 4743, 4745, 7730, 7731, 8379
5850, 238, 2109, 4544, 6883, 7466, 7704, 4565, 7404, 7275, 7403
5851, 4691, 6833, 4887, 6834, 6992, 7797, 7794, 7267, 7708, 7796
5852, 3661, 3646, 1615, 6900, 3782, 8548, 8549, 7953, 8452, 8550
5853, 5357, 4675, 1710, 4695, 7536, 4776, 5383, 7954, 4778, 4777
5854, 6433, 6443, 6827, 6839, 6687, 7416, 7417, 7194, 7195, 8551
5855, 2862, 3497, 1045, 6902, 7058, 7056, 7060, 8552, 8554, 8553
5856, 238, 1574, 4543, 6846, 1576, 4563, 4562, 7402, 7409, 6978
5857, 5607, 335, 1412, 6836, 7440, 8214, 8555, 7442, 7085, 8215
5858, 3405, 3413, 2751, 3408, 3428, 8556, 8455, 3478, 3435, 7406
5859, 3642, 3685, 3709, 6891, 3757, 3853, 3852, 8347, 7931, 7932
5860, 2273, 6495, 6439, 6363, 8557, 6550, 7838, 7840, 8558, 7839
5861, 4674, 4658, 4671, 6884, 4787, 4786, 4788, 6972, 8559, 7641
5862, 3497, 1044, 1045, 6902, 8560, 1051, 7056, 8554, 8561, 8553
5863, 7, 388, 5, 6858, 391, 2150, 396, 8562, 8564, 8563
5864, 5, 388, 379, 6858, 2150, 2151, 382, 8563, 8564, 8565
5865, 6136, 6100, 6114, 6850, 6349, 6347, 6325, 8566, 8520, 8245
5866, 5343, 265, 1723, 6816, 5345, 1724, 5346, 8501, 7987, 7735
5867, 6453, 6450, 6452, 6862, 6759, 6757, 6760, 8279, 8280, 7030
5868, 2298, 796, 6889, 6902, 8333, 8335, 7334, 7465, 8567, 7464
5869, 5798, 2110, 6043, 5791, 8568, 6079, 6939, 5845, 8569, 6940
5870, 3660, 3703, 3656, 6825, 3922, 3896, 3920, 7673, 7719, 7675
5871, 10, 6481, 6442, 6828, 6509, 6511, 6507, 8570, 7412, 7411
5872, 6109, 6098, 6103, 6826, 6232, 6340, 6342, 8571, 8573, 8572
5873, 3668, 3667, 3707, 6842, 3914, 3887, 3949, 7793, 7230, 7182
5874, 3648, 6817, 3647, 6895, 7278, 7279, 3866, 7882, 8574, 7902
5875, 4292, 4291, 1453, 6824, 4333, 4308, 4318, 8575, 8576, 7888
5876, 1593, 6125, 6118, 1580, 6276, 6212, 6281, 4587, 7662, 7663
5877, 2268, 95, 2269, 6867, 7779, 7766, 2383, 7782, 7758, 7569
5878, 6426, 6478, 6429, 6854, 6658, 6657, 6653, 8577, 8330, 8328
5879, 1802, 5874, 5882, 5870, 8578, 5938, 8579, 8580, 5909, 5939
5880, 646, 647, 1042, 794, 652, 7733, 7732, 8581, 8583, 8582
5881, 5784, 356, 5586, 5794, 5801, 5634, 7487, 5810, 5808, 7485
5882, 5881, 5602, 5873, 4265, 8315, 8584, 5951, 7519, 7956, 7518
5883, 3683, 3713, 3691, 6831, 3891, 3802, 3977, 8585, 8587, 8586
5884, 3496, 3501, 1046, 3507, 3553, 8588, 8589, 3571, 3572, 8590
5885, 2261, 2290, 6360, 2286, 2524, 8591, 8592, 2446, 2411, 8593
5886, 6360, 215, 6358, 2286, 6377, 6378, 6380, 8593, 8595, 8594
5887, 3418, 1073, 3403, 6830, 8250, 8251, 3473, 8256, 8257, 8596
5888, 5022, 1834, 5021, 6823, 5048, 5041, 5065, 8597, 7227, 7226
5889, 3696, 1615, 3646, 6875, 8598, 8548, 3787, 7818, 8599, 7817
5890, 1581, 6100, 6104, 6826, 7646, 6308, 7648, 8600, 8206, 8207
5891, 5363, 1944, 1832, 5365, 5372, 8601, 8602, 5396, 5377, 8603
5892, 646, 2260, 110, 3074, 8491, 7326, 8527, 8604, 7361, 3077
5893, 1057, 1115, 1116, 6893, 7398, 1122, 7877, 7632, 7477, 8605
5894, 1951, 2106, 2107, 6847, 8017, 2113, 7683, 7512, 8018, 7995
5895, 648, 3069, 2256, 2261, 8606, 7375, 8607, 8608, 7378, 2450
5896, 343, 327, 342, 6832, 5545, 5544, 2006, 8535, 8610, 8609
5897, 2838, 2840, 3205, 963, 2943, 8611, 7240, 2939, 2941, 3225
5898, 6441, 6496, 6476, 6885, 6679, 6723, 6719, 7999, 7364, 7247
5899, 2270, 2262, 878, 6863, 2484, 8612, 7784, 7372, 7373, 7787
5900, 1032, 3027, 6855, 6864, 3067, 8157, 8061, 8613, 8615, 8614
5901, 2268, 853, 3071, 6867, 8616, 8617, 8382, 7782, 8618, 7178
5902, 4686, 6815, 4674, 6838, 7731, 7729, 4790, 7705, 8069, 7293
5903, 6815, 6859, 4961, 6884, 8068, 7434, 8060, 8021, 7078, 7062
5904, 5367, 5354, 1951, 6846, 5412, 5411, 5407, 6980, 7520, 7617
5905, 4887, 4659, 4885, 6833, 7795, 7633, 4910, 7797, 6993, 7635
5906, 1114, 3632, 109, 6867, 3637, 8353, 8619, 7605, 8354, 7759
5907, 6101, 6841, 6820, 6868, 8076, 8620, 7777, 7297, 8077, 7484
5908, 5432, 5443, 5435, 6897, 5509, 5501, 5508, 8418, 8419, 8621
5909, 6810, 6856, 6851, 6896, 7724, 7681, 7722, 7112, 7991, 7338
5910, 97, 2285, 2267, 6857, 7435, 2401, 8443, 7299, 7152, 7640
5911, 3155, 3154, 1071, 6863, 3170, 3184, 3181, 7786, 7289, 7450
5912, 2261, 6360, 648, 2286, 8592, 6407, 8608, 2446, 8593, 8622
5913, 1046, 3068, 1112, 6888, 3108, 8531, 8532, 8140, 8141, 7678
5914, 6447, 6448, 6449, 6862, 6739, 6745, 6744, 8623, 8624, 7113
5915, 115, 3152, 1073, 6886, 8323, 3185, 8625, 8325, 8324, 7462
5916, 5970, 2107, 5960, 6045, 8626, 8627, 6033, 7081, 6063, 7080
5917, 327, 343, 334, 6832, 5545, 2007, 1871, 8610, 8535, 8536
5918, 6490, 6470, 6420, 6843, 6633, 6632, 6627, 8628, 8630, 8629
5919, 2299, 864, 3112, 2279, 8367, 8369, 8368, 2387, 8631, 7552
5920, 1755, 4160, 6127, 6126, 8632, 8633, 8131, 8634, 8635, 6188
5921, 1781, 4130, 6105, 4894, 8340, 8383, 6179, 4922, 8110, 8384
5922, 97, 3115, 111, 6857, 8444, 3118, 7103, 7299, 7224, 7205
5923, 1400, 4202, 139, 1580, 4205, 4204, 1401, 8636, 7661, 8637
5924, 2282, 646, 2260, 2262, 8098, 8491, 2521, 2522, 8099, 2392
5925, 801, 3409, 1075, 1074, 8638, 8639, 8640, 8641, 8201, 1081
5926, 5599, 2109, 6042, 6897, 8642, 6073, 7981, 7982, 8054, 7598
5927, 1577, 5598, 6890, 6899, 8156, 8643, 7667, 8059, 7959, 8644
5928, 6810, 6884, 6834, 6896, 7077, 7611, 7392, 7112, 6959, 8450
5929, 2841, 3504, 2837, 1017, 8645, 8646, 3006, 3004, 3527, 3003
5930, 4696, 6816, 4687, 6856, 7544, 7542, 4797, 7806, 7695, 7805
5931, 1190, 1416, 1405, 138, 4255, 8647, 6960, 4026, 8648, 1406
5932, 4674, 6815, 4658, 6884, 7729, 7730, 4787, 6972, 8021, 8559
5933, 2277, 2256, 2271, 6889, 2454, 2507, 2431, 8124, 7332, 7333
5934, 4130, 1340, 152, 6868, 4133, 1342, 4134, 8112, 8650, 8649
5935, 6046, 2108, 5589, 6890, 6068, 8651, 8652, 8653, 7666, 8654
5936, 3153, 2267, 881, 6857, 7525, 8655, 8656, 7225, 7640, 8657
5937, 3672, 3673, 3674, 6848, 3965, 3970, 3969, 8658, 7384, 7382
5938, 280, 6816, 4540, 6883, 8659, 8389, 8660, 8661, 7769, 8390
5939, 6834, 6884, 4670, 6896, 7611, 8293, 8318, 8450, 6959, 8483
5940, 3685, 3643, 3686, 6835, 3754, 3858, 3857, 8662, 8664, 8663
5941, 1832, 1833, 5363, 5365, 1836, 8665, 8602, 8603, 8666, 5396
5942, 328, 342, 327, 6832, 2005, 5544, 1861, 8667, 8609, 8610
5943, 3155, 878, 3154, 6863, 7785, 8668, 3170, 7786, 7787, 7289
5944, 6470, 6490, 6455, 6843, 6633, 6781, 6771, 8630, 8628, 8669
5945, 6046, 5589, 6852, 6890, 8652, 8670, 8671, 8653, 8654, 7472
5946, 245, 6139, 244, 6812, 7977, 8672, 1608, 7976, 7975, 8673
5947, 3666, 3703, 3660, 6825, 3934, 3922, 3935, 8674, 7719, 7673
5948, 6109, 6103, 6110, 6840, 6342, 6352, 6284, 8675, 7653, 8676
5949, 763, 49, 867, 3109, 2677, 8677, 8678, 8679, 8681, 8680
5950, 3655, 3668, 3669, 6892, 3913, 3916, 3915, 8682, 7832, 7833
5951, 3028, 3027, 840, 6855, 3057, 8683, 7964, 7456, 8157, 8023
5952, 4673, 4670, 4668, 6896, 4835, 4834, 4836, 8033, 8483, 8034
5953, 3679, 3676, 3678, 6874, 3991, 3989, 3992, 7790, 7616, 7706
5954, 1117, 6886, 3114, 6893, 7354, 8684, 8510, 8547, 8198, 8546
5955, 6110, 6131, 4172, 6840, 6194, 8685, 8686, 8676, 7742, 8687
5956, 299, 1803, 1802, 6820, 8688, 1809, 7878, 8537, 7846, 8468
5957, 2257, 6855, 2266, 6864, 7234, 8689, 2508, 8364, 8614, 8366
5958, 850, 647, 2293, 2286, 8170, 8540, 8541, 8173, 8174, 2410
5959, 1454, 1462, 1453, 4685, 4332, 4317, 1457, 7624, 8690, 7889
5960, 3632, 6867, 1113, 6888, 8354, 8403, 3636, 8269, 7571, 8475
5961, 6817, 6808, 6842, 6895, 8691, 8692, 8433, 8574, 8693, 8467
5962, 2109, 2110, 6883, 6904, 2116, 8694, 7275, 7277, 8695, 7212
5963, 751, 2276, 52, 3110, 8696, 2350, 2680, 8697, 7017, 8698
5964, 4887, 285, 4889, 6883, 8281, 8277, 4916, 8225, 7948, 7642
5965, 266, 5343, 1941, 6816, 5344, 5347, 1942, 8699, 8501, 8505
5966, 2263, 89, 736, 3150, 7221, 737, 8700, 7130, 7222, 8701
5967, 1618, 517, 2290, 6900, 8702, 2305, 8440, 7952, 8703, 8442
5968, 3648, 6825, 6817, 6895, 7720, 8704, 7278, 7882, 8512, 8574
5969, 6421, 6462, 6463, 6818, 6532, 6637, 6636, 8705, 8050, 8543
5970, 140, 4202, 1400, 1581, 4206, 4205, 1402, 8706, 7763, 8707
5971, 1948, 1187, 1414, 1413, 8708, 4251, 8709, 8710, 4250, 1423
5972, 4673, 4692, 4676, 6834, 4850, 4849, 4843, 7939, 7268, 7609
5973, 334, 354, 333, 6832, 5571, 2029, 1870, 8536, 8534, 8711
5974, 2272, 2260, 646, 3074, 2443, 8491, 8712, 7985, 7361, 8604
5975, 2293, 3073, 2272, 6357, 8538, 7983, 2408, 8713, 7124, 7984
5976, 4202, 1400, 1581, 1580, 4205, 8707, 7763, 7661, 8636, 1587
5977, 5271, 4959, 5272, 6815, 8714, 8263, 5282, 7557, 8192, 7556
5978, 760, 50, 49, 3109, 2681, 540, 2682, 8715, 8716, 8681
5979, 373, 1211, 372, 6887, 6796, 6804, 376, 8717, 8719, 8718
5980, 5882, 6041, 1802, 6829, 8720, 8721, 8579, 8722, 8724, 8723
5981, 1114, 1028, 2842, 6901, 7604, 7414, 8165, 7608, 7607, 7865
5982, 2843, 3285, 2864, 3281, 7110, 7281, 2959, 7168, 3323, 8162
5983, 2273, 2022, 515, 6359, 7837, 8725, 2309, 8458, 6387, 8726
5984, 3069, 648, 2256, 6902, 8606, 8607, 7375, 8227, 8727, 7463
5985, 1833, 5363, 5365, 6887, 8665, 5396, 8666, 8728, 8376, 8533
5986, 273, 5284, 274, 6815, 5286, 5285, 1700, 8379, 8309, 7901
5987, 4890, 4886, 4893, 6859, 4930, 4950, 4949, 7564, 7961, 7582
5988, 2268, 2296, 3071, 853, 2427, 7725, 8382, 8616, 8729, 8617
5989, 2288, 2266, 2257, 6855, 2509, 2508, 2510, 7232, 8689, 7234
5990, 271, 5306, 272, 6838, 5308, 5307, 1698, 8730, 8732, 8731
5991, 4697, 4670, 4676, 6834, 4844, 4842, 4805, 8105, 8318, 7609
5992, 1752, 289, 4891, 6820, 1758, 4917, 4923, 8159, 7751, 7778
5993, 6817, 6825, 6808, 6895, 8704, 8733, 8691, 8574, 8512, 8693
5994, 1033, 1115, 2843, 6894, 8524, 8499, 7397, 7745, 7400, 7928
5995, 3112, 3111, 1058, 6855, 3132, 3145, 3142, 7457, 7697, 7698
5996, 1803, 6102, 6130, 6882, 7040, 6350, 7042, 8734, 8736, 8735
5997, 2842, 1028, 1114, 3280, 7414, 7604, 8165, 8168, 7380, 8167
5998, 6122, 6840, 6099, 6850, 7654, 7655, 6346, 8220, 8737, 8219
5999, 2843, 1115, 1033, 3281, 8499, 8524, 7397, 7168, 8526, 7158
6000, 215, 6355, 6358, 516, 6374, 6379, 6378, 8738, 8740, 8739
6001, 271, 272, 4694, 6838, 1698, 4740, 4739, 8730, 8731, 7292
6002, 2256, 852, 3069, 6889, 8741, 8742, 7375, 7332, 8743, 8226
6003, 6440, 6439, 6424, 6885, 6647, 6591, 6648, 8176, 7854, 8019
6004, 2297, 854, 3072, 2278, 8744, 8745, 8036, 2463, 8746, 8253
6005, 2849, 1115, 2843, 3281, 8747, 8499, 2957, 8748, 8526, 7168
6006, 3674, 6874, 3676, 6891, 7615, 7616, 3979, 7269, 8749, 7271
6007, 627, 614, 657, 67, 8750, 2620, 2534, 2533, 615, 658
6008, 70, 730, 92, 720, 8751, 732, 2545, 2544, 2599, 722
6009, 733, 632, 90, 717, 8752, 2589, 734, 2600, 2590, 718
6010, 790, 660, 72, 628, 2619, 662, 792, 8753, 2537, 2549
6011, 628, 781, 669, 74, 8754, 2616, 2554, 2553, 782, 670
6012, 86, 705, 745, 631, 706, 2604, 746, 2580, 2581, 8755
6013, 742, 632, 708, 88, 8756, 2584, 2603, 744, 2585, 710
6014, 76, 629, 778, 672, 2558, 8757, 780, 674, 2557, 2615
6015, 630, 757, 693, 82, 8758, 2608, 2572, 2571, 758, 694
6016, 630, 766, 80, 684, 8759, 768, 2567, 2566, 2611, 686
6017, 1211, 5365, 136, 1947, 8760, 8761, 1213, 8762, 5378, 8763
6018, 245, 6808, 6817, 6825, 8764, 8691, 8765, 7979, 8733, 8704
6019, 4687, 4660, 265, 6816, 4723, 4719, 4721, 7542, 7543, 7987
6020, 1802, 6820, 1803, 6829, 8468, 7846, 1809, 8723, 8431, 8042
6021, 5364, 5366, 1944, 5023, 5397, 5373, 5374, 8175, 7808, 8766
6022, 2267, 2295, 863, 3115, 2467, 8767, 8768, 7528, 7527, 8769
6023, 795, 648, 647, 1043, 8770, 653, 8771, 8772, 8774, 8773
6024, 3698, 6874, 3663, 6900, 7175, 7176, 3938, 8775, 8776, 8453
6025, 5353, 1461, 1455, 5357, 8777, 4335, 7967, 5388, 8778, 7966
6026, 1802, 2111, 6820, 6829, 7940, 8161, 8468, 8723, 8430, 8431
6027, 6486, 6427, 6469, 6832, 6664, 6571, 6665, 8779, 8781, 8780
6028, 1112, 2847, 2851, 2860, 8507, 2896, 8137, 8138, 2966, 3014
6029, 5603, 2106, 5616, 5607, 8782, 8223, 5722, 5652, 8062, 5770
6030, 2290, 1618, 6364, 6360, 8440, 6370, 8441, 8591, 6376, 6408
6031, 6107, 6099, 6100, 6850, 6343, 6306, 6344, 8218, 8219, 8520
6032, 146, 4166, 1370, 1755, 4170, 4169, 1372, 8783, 8129, 8784
6033, 329, 330, 515, 2022, 1866, 8785, 8786, 5564, 2023, 8725
6034, 219, 215, 1618, 517, 1501, 1620, 4605, 8787, 8788, 8702
6035, 6849, 6877, 4291, 6879, 8789, 8790, 7800, 8791, 8793, 8792
6036, 6454, 6485, 6453, 6832, 6773, 6772, 6767, 8794, 8796, 8795
6037, 1033, 3027, 3028, 6855, 3066, 3057, 3041, 7912, 8157, 7456
6038, 470, 480, 6356, 479, 2226, 8797, 7493, 2224, 483, 8798
6039, 6102, 6129, 6130, 6882, 6338, 6351, 6350, 8736, 8799, 8735
6040, 2267, 3153, 881, 2295, 7525, 8656, 8655, 2467, 7526, 8800
6041, 2842, 1114, 2848, 3287, 8165, 8801, 2948, 8164, 8166, 8802
6042, 6099, 6103, 6098, 6826, 6341, 6340, 6304, 8415, 8572, 8573
6043, 2296, 835, 3033, 6889, 8803, 8804, 7726, 7855, 8805, 7320
6044, 840, 2279, 95, 3028, 7963, 8416, 847, 7964, 7553, 7669
6045, 295, 4891, 6092, 6820, 8806, 7117, 6242, 8807, 7778, 7776
6046, 335, 1412, 1800, 1832, 8214, 8213, 6975, 7468, 8808, 7467
6047, 3027, 2266, 840, 6855, 8809, 8810, 8683, 8157, 8689, 8023
6048, 5435, 5443, 1581, 6897, 5501, 8811, 8812, 8621, 8419, 8813
6049, 3290, 3277, 2863, 976, 3311, 7537, 8287, 3310, 3306, 2947
6050, 3073, 1042, 6357, 647, 3100, 7123, 7124, 8539, 7733, 6397
6051, 2257, 2291, 42, 6864, 2329, 2325, 2327, 8364, 8365, 8814
6052, 6045, 5970, 2059, 5595, 7081, 8815, 6056, 7639, 7349, 5717
6053, 3364, 2839, 3507, 989, 7599, 7262, 7198, 3376, 2961, 8000
6054, 3111, 6855, 2294, 6898, 7697, 8816, 8817, 7711, 7638, 8818
6055, 3366, 2833, 6860, 6901, 7862, 8819, 7906, 7863, 7864, 7201
6056, 189, 188, 125, 6831, 1451, 1485, 4338, 8820, 7895, 7896
6057, 3656, 3657, 6845, 6895, 3910, 7423, 7424, 7699, 7272, 8821
6058, 4962, 4683, 5366, 5023, 8822, 8823, 7809, 7807, 8824, 7808
6059, 2282, 793, 646, 6863, 8136, 8825, 8098, 7371, 8135, 8100
6060, 881, 2280, 3150, 6857, 8826, 7131, 8827, 8657, 7138, 7139
6061, 2304, 46, 3113, 6898, 2339, 8828, 8399, 8401, 8829, 8400
6062, 163, 2119, 1812, 4966, 2122, 6152, 6151, 8830, 8831, 4991
6063, 5617, 5614, 5588, 6844, 5679, 5774, 5771, 8425, 8832, 7595
6064, 1058, 2861, 6866, 6894, 7137, 7899, 7367, 7185, 8833, 7369
6065, 3686, 3695, 3718, 6848, 3859, 3964, 3987, 8834, 8836, 8835
6066, 3675, 3672, 3674, 6848, 3971, 3969, 3972, 8837, 8658, 7382
6067, 2106, 5607, 5603, 6836, 8062, 5652, 8782, 7503, 7442, 8838
6068, 4154, 1755, 1756, 6126, 8839, 1762, 8840, 8841, 8634, 8842
6069, 1117, 1056, 3114, 6886, 7303, 3141, 8510, 7354, 7073, 8684
6070, 2263, 736, 58, 3150, 8700, 2659, 2366, 7130, 8701, 8843
6071, 4884, 4659, 4887, 6834, 7712, 7795, 4946, 7714, 7266, 7796
6072, 1212, 1949, 137, 5356, 8844, 8845, 1215, 7876, 5401, 8846
6073, 5871, 362, 5608, 5885, 8847, 8848, 8285, 5945, 8849, 8286
6074, 163, 1812, 302, 4966, 6151, 1813, 6148, 8830, 4991, 4990
6075, 3632, 1115, 109, 6893, 3638, 8457, 8353, 8271, 7477, 7760
6076, 6484, 6437, 6438, 6854, 6710, 6701, 6711, 8268, 8851, 8850
6077, 6825, 6845, 6812, 6895, 8852, 8853, 7980, 8512, 8821, 8854
6078, 215, 6360, 517, 2286, 6377, 8855, 8788, 8595, 8593, 2407
6079, 6475, 6485, 6430, 6832, 6682, 6681, 6598, 8856, 8796, 8857
6080, 130, 6116, 246, 5068, 6141, 6140, 1863, 5070, 8858, 5072
6081, 6099, 6098, 6090, 6826, 6304, 6229, 6305, 8415, 8573, 8208
6082, 3072, 2278, 96, 6863, 8253, 8859, 8860, 7288, 8121, 7330
6083, 799, 2861, 1058, 6894, 8861, 7137, 8862, 8863, 8833, 7185
6084, 2294, 6855, 2288, 6898, 8816, 7232, 2519, 8818, 7638, 7636
6085, 1045, 6860, 2862, 6901, 7200, 7870, 7060, 7132, 7201, 8864
6086, 3692, 3675, 3676, 6891, 3982, 3978, 3983, 8865, 7270, 7271
6087, 3507, 3496, 3364, 1113, 3571, 6949, 7198, 8866, 8867, 3383
6088, 4676, 4670, 4673, 6834, 4842, 4835, 4843, 7609, 8318, 7939
6089, 13, 6812, 11, 6876, 8868, 8869, 423, 8870, 8872, 8871
6090, 2294, 2300, 2288, 6855, 2476, 2525, 2519, 8816, 8022, 7232
6091, 4679, 1713, 5362, 5360, 4783, 5390, 8009, 8008, 5392, 5394
6092, 3112, 865, 3111, 6855, 8143, 8873, 3132, 7457, 8144, 7697
6093, 3692, 3679, 3701, 6891, 3993, 4000, 3999, 8865, 8874, 8306
6094, 5439, 2108, 1577, 5429, 8875, 7324, 7315, 5453, 8464, 7317
6095, 1072, 3419, 3402, 6837, 8205, 3465, 8204, 7509, 8350, 8876
6096, 3406, 3419, 115, 2852, 3482, 8877, 8878, 8355, 8356, 8879
6097, 215, 6355, 516, 517, 6374, 8740, 8738, 8788, 8880, 520
6098, 1753, 6883, 2110, 6904, 7946, 8694, 8881, 8882, 7212, 8695
6099, 3713, 6831, 3683, 6842, 8587, 8585, 3891, 6905, 8883, 6907
6100, 4884, 4676, 4692, 6834, 8422, 4849, 7713, 7714, 7609, 7268
6101, 5879, 4265, 5869, 186, 6996, 7600, 5893, 8884, 4267, 7445
6102, 451, 461, 189, 460, 2211, 8089, 8885, 2208, 464, 8886
6103, 451, 461, 452, 189, 2211, 2210, 455, 8885, 8089, 7871
6104, 5605, 6047, 2109, 5444, 8887, 6074, 8888, 8889, 8428, 8890
6105, 6437, 6434, 6438, 6854, 6700, 6702, 6701, 8851, 8329, 8850
6106, 2258, 2280, 2285, 6857, 2513, 2516, 2515, 7436, 7138, 7152
6107, 4888, 4661, 4892, 6838, 7844, 7986, 4905, 7847, 7396, 8088
6108, 3114, 3112, 1057, 6893, 3129, 3143, 3140, 8546, 7476, 7632
6109, 3154, 878, 2278, 6863, 8668, 8891, 8120, 7289, 7787, 8121
6110, 4889, 6883, 1753, 6904, 7642, 7946, 4914, 7827, 7212, 8882
6111, 3683, 3691, 3673, 6831, 3977, 3976, 3967, 8585, 8586, 8892
6112, 268, 4690, 267, 6833, 4728, 4727, 1694, 8893, 6991, 8894
6113, 4291, 1453, 6824, 6849, 4308, 7888, 8576, 7800, 7801, 7891
6114, 645, 1070, 3155, 3156, 8895, 3182, 7989, 7990, 3163, 3167
6115, 3111, 865, 2294, 6855, 8873, 8896, 8817, 7697, 8144, 8816
6116, 3500, 2839, 3364, 2860, 7260, 7599, 6947, 7517, 2963, 7516
6117, 4660, 264, 4538, 4542, 4718, 7009, 7010, 7429, 8516, 4581
6118, 5960, 2107, 1951, 6045, 8627, 7683, 8055, 7080, 6063, 8056
6119, 742, 88, 2258, 6857, 744, 8897, 8898, 8899, 8900, 7436
6120, 1714, 5366, 4683, 5023, 5370, 8823, 4772, 8901, 7808, 8824
6121, 5357, 1711, 1461, 4695, 5384, 8902, 8778, 7954, 4767, 8903
6122, 1461, 1454, 5357, 4695, 4334, 8378, 8778, 8903, 8904, 7954
6123, 3710, 3641, 3712, 6892, 3846, 3847, 3849, 7916, 7914, 8007
6124, 3700, 66, 37, 3031, 3773, 609, 3774, 8905, 8907, 8906
6125, 1412, 5881, 5602, 1800, 8408, 8315, 8908, 8213, 8314, 8313
6126, 5361, 1211, 5365, 6887, 8909, 8760, 5400, 7083, 8719, 8533
6127, 2864, 3285, 2859, 979, 7281, 6917, 2956, 2954, 3321, 2953
6128, 1950, 1414, 1949, 6890, 8910, 8911, 1956, 7141, 8913, 8912
6129, 1577, 5598, 2108, 6890, 8156, 8463, 7324, 7667, 8643, 7666
6130, 443, 442, 452, 6849, 446, 2204, 2203, 8914, 8915, 7302
6131, 452, 442, 451, 6849, 2204, 2202, 455, 7302, 8915, 8916
6132, 4677, 4687, 6816, 6856, 4814, 7542, 7264, 7574, 7805, 7695
6133, 49, 760, 3109, 81, 2682, 8715, 8681, 830, 761, 8917
6134, 3716, 6364, 2298, 2290, 8918, 8919, 8920, 8921, 8441, 2414
6135, 389, 397, 1453, 388, 2161, 8922, 8923, 392, 2158, 8924
6136, 397, 389, 1453, 398, 2161, 8923, 8922, 401, 2163, 8925
6137, 5969, 1950, 5967, 6852, 7020, 8199, 6039, 7753, 7471, 8926
6138, 5598, 5589, 2108, 6890, 5730, 8651, 8463, 8643, 8654, 7666
6139, 760, 50, 3109, 82, 2681, 8716, 8715, 762, 832, 8927
6140, 295, 1752, 4891, 6820, 7561, 4923, 8806, 8807, 8159, 7778
6141, 264, 241, 4538, 1602, 1722, 4578, 7009, 4853, 1603, 4579
6142, 2255, 2269, 2275, 6893, 2500, 2501, 2492, 8177, 7767, 8545
6143, 1658, 6877, 6849, 6879, 8928, 8789, 7909, 8929, 8793, 8791
6144, 2256, 648, 2298, 6902, 8607, 8930, 2505, 7463, 8727, 7465
6145, 3071, 852, 2296, 6889, 8931, 8932, 7725, 7319, 8743, 7855
6146, 4960, 6847, 1801, 6903, 7145, 8465, 5000, 8528, 7885, 7937
6147, 87, 742, 2258, 6857, 743, 8898, 8933, 8934, 8899, 7436
6148, 5970, 2059, 5597, 6852, 8815, 5725, 7538, 7539, 8935, 7541
6149, 4696, 4680, 4542, 6856, 4827, 8048, 7430, 7806, 8462, 8936
6150, 274, 5272, 4959, 6815, 5274, 8263, 8147, 7901, 7556, 8192
6151, 3029, 2265, 524, 2271, 7771, 2313, 8937, 7775, 2416, 2415
6152, 191, 6123, 1578, 6890, 6215, 8938, 4547, 7748, 8940, 8939
6153, 6445, 6433, 6827, 6839, 6697, 7417, 7856, 7387, 7194, 8551
6154, 3658, 6116, 5068, 6825, 8941, 8858, 8942, 7721, 8944, 8943
6155, 6136, 6114, 6094, 6850, 6325, 6324, 6326, 8566, 8245, 8096
6156, 6115, 4106, 4100, 6841, 8945, 8946, 8947, 8948, 8950, 8949
6157, 3363, 6866, 2832, 6894, 7820, 8951, 7927, 7821, 7369, 7929
6158, 5798, 5783, 1753, 5791, 5846, 8952, 8953, 5845, 5816, 8302
6159, 6360, 2290, 1618, 517, 8591, 8440, 6376, 8855, 2305, 8702
6160, 2860, 1112, 3364, 1047, 8138, 3379, 7516, 8087, 7586, 7408
6161, 4888, 271, 4694, 6838, 7842, 4739, 7843, 7847, 8730, 7292
6162, 2852, 3419, 3365, 6837, 8356, 8349, 8954, 8955, 8350, 8351
6163, 4142, 1350, 1757, 4895, 4145, 8232, 8956, 8957, 8958, 4941
6164, 3506, 3507, 3492, 6860, 3564, 3561, 3562, 7869, 8002, 8003
6165, 1117, 3632, 115, 6886, 3635, 3634, 1124, 7354, 8270, 8325
6166, 6045, 5616, 5964, 5595, 8067, 8240, 7082, 7639, 5719, 7348
6167, 4958, 4664, 4959, 4961, 7452, 8191, 4972, 5013, 7451, 4980
6168, 864, 3112, 3114, 6893, 8369, 3129, 8959, 8370, 7476, 8546
6169, 1574, 4540, 6856, 6883, 4570, 8388, 7723, 7410, 8390, 7770
6170, 3494, 2851, 110, 2850, 7848, 7857, 7505, 7084, 2901, 7065
6171, 6808, 6892, 6842, 6895, 8960, 8961, 8692, 8693, 8962, 8467
6172, 5358, 5353, 1455, 5356, 5416, 7967, 8522, 5406, 5414, 7968
6173, 268, 267, 5320, 6833, 1694, 5322, 5321, 8893, 8894, 8963
6174, 154, 4112, 4118, 6841, 4114, 8181, 4122, 8964, 8182, 8183
6175, 6819, 6827, 6443, 6839, 8224, 7416, 7126, 8965, 8551, 7195
6176, 3703, 3665, 3658, 6825, 3929, 3819, 3879, 7719, 8966, 7721
6177, 4884, 269, 4693, 270, 4897, 4733, 8421, 4896, 1696, 4734
6178, 330, 2272, 515, 6359, 8967, 2403, 8785, 6386, 8968, 8726
6179, 990, 2833, 3366, 2842, 2968, 7862, 3380, 2975, 2974, 7861
6180, 3363, 991, 2843, 2832, 3391, 2978, 7926, 7927, 2976, 2979
6181, 5599, 5588, 6042, 2061, 5735, 7593, 7981, 5734, 5732, 6071
6182, 6093, 4178, 6840, 6850, 7740, 7743, 7744, 8969, 8970, 8737
6183, 5433, 5619, 5598, 6899, 7904, 5698, 7012, 7650, 8435, 7959
6184, 3501, 3506, 1045, 6860, 3575, 7057, 8396, 8971, 7869, 7200
6185, 3412, 2853, 3418, 6830, 8972, 8973, 3480, 8974, 8975, 8256
6186, 5599, 1966, 5444, 5432, 5706, 5456, 8976, 8292, 5486, 5489
6187, 3698, 3663, 3662, 6900, 3938, 3870, 3939, 8775, 8453, 8454
6188, 793, 6837, 2851, 6863, 8977, 8508, 8978, 8135, 7511, 7859
6189, 3686, 3718, 3675, 6848, 3987, 3973, 3986, 8834, 8835, 8837
6190, 2259, 2287, 44, 6898, 2335, 2331, 2333, 7960, 7637, 8979
6191, 2282, 553, 2273, 6494, 2419, 2310, 2423, 8980, 6603, 8981
6192, 3407, 3412, 3416, 2844, 3447, 3486, 3485, 8495, 8982, 7626
6193, 4885, 4887, 4884, 4659, 4910, 4946, 4900, 7633, 7795, 7712
6194, 6093, 6122, 6107, 6850, 6322, 6321, 6320, 8969, 8220, 8218
6195, 840, 2266, 2300, 6855, 8810, 2438, 7962, 8023, 8689, 8022
6196, 1834, 408, 417, 416, 8983, 2174, 8984, 8436, 2177, 420
6197, 408, 1834, 407, 416, 8983, 8437, 411, 2177, 8436, 2175
6198, 3497, 2837, 3498, 795, 8985, 8986, 3556, 8987, 8989, 8988
6199, 2262, 2278, 878, 6863, 2394, 8891, 8612, 7373, 8121, 7787
6200, 1755, 1360, 4154, 1756, 8990, 4157, 8839, 1762, 8991, 8840
6201, 5615, 5620, 5432, 1965, 5704, 8291, 7427, 5701, 5702, 5487
6202, 1582, 6826, 2109, 6897, 8248, 8249, 7588, 8992, 8993, 8054
6203, 3109, 757, 51, 3110, 8994, 2685, 8995, 3139, 8997, 8996
6204, 3205, 2838, 3362, 992, 7240, 7454, 7473, 8998, 2981, 3396
6205, 237, 4665, 1574, 6856, 4703, 7845, 1575, 8498, 7578, 7723
6206, 801, 2855, 6830, 6857, 8999, 7546, 9000, 9001, 7548, 7206
6207, 2119, 163, 6468, 4966, 2122, 6559, 6560, 8831, 8830, 9002
6208, 3651, 3647, 3653, 6895, 3873, 3875, 3874, 7881, 7902, 7496
6209, 273, 5295, 1930, 6838, 5296, 5299, 1931, 9003, 9005, 9004
6210, 5343, 266, 265, 6816, 5344, 1692, 5345, 8501, 8699, 7987
6211, 2293, 3073, 849, 2272, 8538, 8044, 9006, 2408, 7983, 8045
6212, 1046, 1112, 1113, 6888, 8532, 1119, 7620, 8140, 7678, 8475
6213, 6358, 648, 6360, 2286, 6402, 6407, 6380, 8594, 8622, 8593
6214, 1072, 115, 3419, 3365, 9007, 8877, 8205, 8348, 3371, 8349
6215, 6834, 6856, 6810, 6896, 7768, 7724, 7392, 8450, 7991, 7112
6216, 6477, 877, 3156, 552, 9008, 7035, 9009, 6553, 8024, 8025
6217, 3664, 3680, 3687, 6858, 3730, 3836, 3944, 9010, 9012, 9011
6218, 4667, 4668, 4669, 6896, 4821, 4829, 4828, 7612, 8034, 7169
6219, 3361, 115, 3418, 1073, 3368, 9013, 8254, 8255, 8625, 8250
6220, 4962, 5366, 4683, 6865, 7809, 8823, 8822, 7829, 7828, 9014
6221, 6102, 6820, 6097, 6841, 7038, 7603, 6335, 8358, 8620, 8360
6222, 66, 610, 37, 3031, 611, 2527, 609, 8907, 9015, 8906
6223, 2022, 330, 515, 6359, 2023, 8785, 8725, 6387, 6386, 8726
6224, 6476, 6440, 6441, 6885, 6718, 6649, 6719, 7247, 8176, 7999
6225, 727, 112, 98, 3151, 9016, 9017, 9018, 9019, 3158, 9020
6226, 3632, 6886, 1117, 6893, 8270, 7354, 3635, 8271, 8198, 8547
6227, 2292, 3030, 40, 6864, 9021, 9022, 2319, 9023, 9025, 9024
6228, 2295, 863, 3115, 6886, 8767, 8769, 7527, 7717, 9026, 7071
6229, 5885, 1801, 5868, 5874, 9027, 9028, 5930, 5931, 9029, 5906
6230, 1578, 1577, 191, 6890, 1584, 4548, 4547, 8939, 7667, 7748
6231, 2260, 849, 570, 2704, 7715, 2713, 2388, 7558, 2710, 2708
6232, 1461, 5353, 1711, 5357, 8777, 5386, 8902, 8778, 5388, 5384
6233, 3654, 3656, 3651, 6895, 3895, 3894, 3892, 7274, 7699, 7881
6234, 852, 2256, 3069, 851, 8741, 7375, 8742, 858, 7374, 7376
6235, 6826, 6844, 2109, 6897, 8407, 8053, 8249, 8993, 7597, 8054
6236, 572, 851, 850, 2261, 2717, 857, 2714, 2444, 7377, 8393
6237, 3659, 6825, 3656, 6845, 7674, 7675, 3918, 7425, 8852, 7424
6238, 2062, 6043, 5594, 5787, 6076, 7789, 5737, 7815, 6971, 7433
6239, 1453, 6812, 6139, 6858, 9030, 7975, 6273, 9031, 8265, 8266
6240, 3418, 2853, 3361, 6830, 8973, 9032, 8254, 8256, 8975, 8258
6241, 6044, 5885, 1801, 6836, 9033, 9027, 9034, 9035, 9036, 7936
6242, 5363, 1709, 5355, 4675, 5369, 5380, 5382, 8375, 4773, 7535
6243, 4673, 6834, 4670, 6896, 7939, 8318, 4835, 8033, 8450, 8483
6244, 6042, 2109, 2110, 6844, 6073, 2116, 6078, 7594, 8053, 9037
6245, 6470, 6452, 6451, 6862, 6761, 6758, 6762, 7029, 7030, 8322
6246, 6492, 6467, 6419, 6853, 6624, 6523, 6625, 9038, 9040, 9039
6247, 498, 6356, 497, 516, 9041, 9042, 501, 9043, 8460, 9044
6248, 6139, 4589, 245, 244, 9045, 4597, 7977, 8672, 4596, 1608
6249, 6487, 6445, 6466, 6853, 6736, 6698, 6737, 9046, 9048, 9047
6250, 4967, 362, 1801, 6847, 7420, 9049, 5008, 7098, 7421, 8465
6251, 6045, 1952, 5616, 2106, 7925, 8065, 8067, 6059, 7502, 8223
6252, 3501, 3507, 3506, 6860, 3572, 3564, 3575, 8971, 8002, 7869
6253, 5783, 5789, 5795, 1754, 5819, 5844, 5843, 9050, 7344, 7345
6254, 4658, 273, 274, 6815, 4745, 1700, 4746, 7730, 8379, 7901
6255, 4658, 6815, 4671, 6884, 7730, 7498, 4786, 8559, 8021, 7641
6256, 5611, 5610, 5601, 6820, 5768, 5745, 5693, 8374, 8160, 8488
6257, 3690, 1591, 1578, 1579, 9051, 4551, 9052, 9053, 4584, 1585
6258, 295, 4886, 4890, 6859, 9054, 4930, 7560, 7562, 7961, 7564
6259, 5877, 5872, 5600, 5883, 5928, 8352, 9055, 5950, 5949, 8038
6260, 2255, 2275, 880, 6886, 2492, 9056, 8479, 8197, 8544, 8482
6261, 4677, 4668, 4666, 6856, 4823, 4822, 4824, 7574, 7575, 7577
6262, 6093, 6840, 6122, 6850, 7744, 7654, 6322, 8969, 8737, 8220
6263, 215, 6360, 1618, 517, 6377, 6376, 1620, 8788, 8855, 8702
6264, 111, 85, 751, 3110, 7656, 753, 9057, 3117, 7658, 8697
6265, 3695, 3710, 3669, 6892, 3959, 3958, 3955, 8119, 7916, 7833
6266, 469, 479, 6355, 478, 2225, 9058, 7580, 2221, 482, 8529
6267, 479, 469, 6355, 470, 2225, 7580, 9058, 2224, 473, 8063
6268, 6091, 4106, 6115, 6841, 9059, 8945, 6164, 9060, 8950, 8948
6269, 5608, 5885, 6044, 6836, 8286, 9033, 9061, 9062, 9036, 9035
6270, 793, 2851, 110, 6863, 8978, 7857, 9063, 8135, 7859, 7331
6271, 1420, 1804, 1803, 5875, 9064, 1810, 9065, 9066, 9067, 8387
6272, 614, 838, 3030, 39, 8272, 8276, 8275, 2528, 9069, 9068
6273, 2293, 6358, 516, 2286, 9070, 8739, 2409, 2410, 8594, 2406
6274, 6357, 2272, 330, 6359, 7984, 8967, 6389, 6390, 8968, 6386
6275, 1581, 6113, 6118, 1593, 7765, 6209, 7764, 4574, 6280, 6281
6276, 4889, 287, 1753, 285, 4913, 4912, 4914, 8277, 1750, 7944
6277, 3657, 3688, 6892, 6895, 3912, 8005, 8006, 7272, 7273, 8962
6278, 6463, 6451, 6498, 6862, 6765, 6752, 6766, 7104, 8322, 7106
6279, 2280, 3150, 2263, 881, 7131, 7130, 2495, 8826, 8827, 9071
6280, 263, 4684, 310, 6823, 4715, 9072, 9073, 9074, 9076, 9075
6281, 6357, 330, 515, 516, 6389, 8785, 9077, 8461, 8459, 519
6282, 1059, 3111, 3113, 6898, 3144, 3135, 3147, 7710, 7711, 8400
6283, 3647, 6817, 3706, 6895, 7279, 7550, 3862, 7902, 8574, 7495
6284, 5365, 5355, 5361, 6887, 5427, 5426, 5400, 8533, 6928, 7083
6285, 5614, 5599, 5588, 6897, 5773, 5735, 5774, 9078, 7982, 7596
6286, 274, 4959, 4698, 6815, 8147, 8145, 4748, 7901, 8192, 7500
6287, 1455, 137, 1949, 5356, 9079, 8845, 8523, 7968, 8846, 5401
6288, 4685, 1686, 235, 6824, 4701, 1687, 4699, 7887, 8011, 9080
6289, 6082, 2107, 2106, 6847, 6086, 2113, 6083, 8115, 7995, 8018
6290, 6358, 647, 3070, 2286, 6401, 8169, 9081, 8594, 8174, 8172
6291, 1153, 6364, 2298, 3716, 6368, 8919, 9082, 3781, 8918, 8920
6292, 274, 4698, 4658, 6815, 4748, 4750, 4746, 7901, 7500, 7730
6293, 863, 97, 2267, 3115, 869, 8443, 8768, 8769, 8444, 7528
6294, 37, 610, 38, 3031, 2527, 2526, 528, 8906, 9015, 9083
6295, 3072, 96, 110, 6863, 8860, 7327, 3076, 7288, 7330, 7331
6296, 2274, 854, 3068, 6888, 9084, 9085, 8299, 8300, 9086, 8141
6297, 2108, 5604, 5598, 5429, 9087, 5696, 8463, 8464, 7567, 7014
6298, 489, 480, 488, 6356, 2230, 2233, 492, 9088, 8797, 9089
6299, 479, 488, 480, 6356, 2232, 2233, 483, 8798, 9089, 8797
6300, 1682, 6824, 1686, 6849, 9090, 8011, 4656, 7974, 7891, 7973
6301, 5366, 5354, 6865, 6903, 5424, 7522, 7828, 7811, 7884, 7830
6302, 6813, 6827, 6819, 6839, 9091, 8224, 9092, 9093, 8551, 8965
6303, 5598, 5612, 5589, 6890, 5778, 5777, 5730, 8643, 9094, 8654
6304, 212, 189, 126, 6831, 1487, 4339, 1486, 9095, 8820, 9096
6305, 6097, 6820, 6101, 6841, 7603, 7777, 6316, 8360, 8620, 8076
6306, 2300, 2294, 865, 6855, 2476, 8896, 8142, 8022, 8816, 8144
6307, 51, 3109, 3110, 868, 8995, 3139, 8996, 9097, 9099, 9098
6308, 96, 3072, 854, 2278, 8860, 8745, 861, 8859, 8253, 8746
6309, 3287, 1114, 2848, 3280, 8166, 8801, 8802, 3301, 8167, 9100
6310, 1832, 304, 6124, 1800, 1835, 6251, 6253, 7467, 4998, 9101
6311, 304, 5023, 4962, 6903, 5025, 7807, 4995, 9102, 7812, 7810
6312, 1834, 346, 345, 5547, 8514, 2012, 9103, 9104, 5556, 5554
6313, 5354, 5364, 1952, 6903, 5413, 5379, 5410, 7884, 6914, 6915
6314, 5871, 5877, 5609, 5882, 5925, 9105, 9106, 5944, 5943, 9107
6315, 1627, 6362, 214, 6878, 6373, 6372, 1628, 8237, 8238, 9108
6316, 338, 358, 5884, 186, 2098, 5889, 5888, 7444, 7443, 7314
6317, 6365, 1627, 248, 6870, 6381, 1629, 6382, 9109, 9111, 9110
6318, 5878, 5885, 5608, 6836, 5946, 8286, 8284, 9112, 9036, 9062
6319, 6463, 6473, 6853, 6862, 6638, 7446, 7447, 7104, 7105, 9113
6320, 3632, 1113, 1112, 6888, 3636, 1119, 3633, 8269, 8475, 7678
6321, 2261, 3070, 850, 2286, 8392, 8171, 8393, 2446, 8172, 8173
6322, 1454, 1455, 1461, 5357, 1458, 4335, 4334, 8378, 7966, 8778
6323, 189, 125, 126, 6831, 4338, 1165, 4339, 8820, 7896, 9096
6324, 2290, 6364, 2298, 648, 8441, 8919, 2414, 9114, 6406, 8930
6325, 2852, 3414, 3419, 6837, 8357, 3483, 8356, 8955, 9115, 8350
6326, 1194, 1419, 289, 6868, 4263, 8371, 7750, 7482, 9116, 7752
6327, 1950, 6852, 5618, 6890, 7471, 7754, 7022, 7141, 7472, 9117
6328, 1455, 1949, 137, 6890, 8523, 8845, 9079, 9118, 8912, 9119
6329, 2275, 3114, 6886, 6893, 9120, 8684, 8544, 8545, 8546, 8198
6330, 5618, 5593, 5965, 1414, 5663, 6924, 6927, 9121, 9123, 9122
6331, 2274, 2303, 2255, 6888, 2460, 2503, 2504, 8300, 7572, 7835
6332, 2089, 5964, 5971, 5616, 6012, 6015, 5983, 5765, 8240, 8066
6333, 3418, 3412, 3406, 2853, 3480, 3444, 3481, 8973, 8972, 9124
6334, 3660, 3705, 3666, 6876, 3937, 3936, 3935, 9125, 9127, 9126
6335, 2290, 6360, 648, 2261, 8591, 6407, 9114, 2524, 8592, 8608
6336, 4963, 6865, 4960, 6903, 7045, 7146, 5002, 8466, 7830, 8528
6337, 1658, 6849, 1654, 6879, 7909, 7908, 4635, 8929, 8791, 9128
6338, 880, 2255, 3152, 879, 8479, 8481, 8480, 886, 9130, 9129
6339, 1074, 3153, 3150, 6857, 3187, 3179, 3190, 9131, 7225, 7139
6340, 2863, 2857, 3290, 976, 2952, 7061, 8287, 2947, 2951, 3310
6341, 3492, 989, 2841, 6860, 8001, 2969, 8417, 8003, 8004, 9132
6342, 5443, 5435, 1581, 5430, 5501, 8812, 8811, 5500, 5472, 9133
6343, 6092, 6096, 297, 6820, 6246, 6245, 6241, 7776, 7039, 8469
6344, 1801, 6847, 2106, 6903, 8465, 8018, 8078, 7937, 7885, 7504
6345, 5592, 5789, 1418, 5617, 6920, 9134, 9135, 5685, 6922, 9136
6346, 4696, 4677, 4666, 6856, 4825, 4824, 4826, 7806, 7574, 7577
6347, 3674, 3675, 6848, 6891, 3972, 8837, 7382, 7269, 7270, 9137
6348, 1670, 6824, 1674, 6849, 9138, 9139, 4647, 9140, 7891, 8047
6349, 6495, 6439, 36, 2273, 6550, 6549, 6546, 8557, 7838, 2308
6350, 2271, 2298, 3715, 649, 2417, 9141, 9142, 8104, 9144, 9143
6351, 3711, 3649, 3677, 6831, 3882, 3881, 3883, 9145, 9147, 9146
6352, 2833, 2842, 2856, 6901, 2974, 3022, 3021, 7864, 7865, 8492
6353, 1650, 1654, 6849, 6879, 4632, 7908, 9148, 9149, 9128, 8791
6354, 6457, 6421, 6473, 6853, 6529, 6635, 6634, 9150, 7448, 7446
6355, 1071, 3402, 3420, 6837, 8185, 3468, 7533, 7510, 8876, 9151
6356, 297, 6815, 296, 6838, 9152, 9153, 1789, 9154, 8069, 9155
6357, 3701, 3702, 3684, 6900, 4003, 3763, 4004, 9156, 9158, 9157
6358, 1756, 1350, 4142, 4895, 8414, 4145, 9159, 4942, 8958, 8957
6359, 3654, 3653, 3655, 6895, 3893, 3904, 3903, 7274, 7496, 7860
6360, 107, 116, 94, 3415, 1138, 8016, 8014, 3424, 3423, 6951
6361, 497, 489, 6356, 498, 2239, 9088, 9042, 501, 2237, 9041
6362, 489, 497, 6356, 488, 2239, 9042, 9088, 492, 2240, 9089
6363, 6082, 362, 2111, 6904, 6084, 2118, 6085, 7799, 7422, 7996
6364, 1300, 4082, 1804, 4965, 4085, 9160, 7692, 9161, 9162, 4994
6365, 3492, 3504, 2841, 1017, 3534, 8645, 8417, 3533, 3527, 3004
6366, 6450, 6486, 6449, 6862, 6754, 6753, 6748, 8280, 7115, 7113
6367, 5364, 1944, 1832, 5023, 5374, 8601, 7469, 8175, 8766, 5026
6368, 3197, 2836, 2861, 799, 6987, 2929, 6989, 9163, 9164, 8861
6369, 1678, 6824, 1682, 6849, 9165, 9090, 4653, 8027, 7891, 7974
6370, 6426, 6819, 6436, 6854, 7246, 7524, 6646, 8577, 9167, 9166
6371, 6358, 6357, 2293, 516, 6403, 8713, 9070, 8739, 8461, 2409
6372, 1574, 4542, 237, 6856, 4561, 4559, 1575, 7723, 8936, 8498
6373, 295, 6117, 6092, 4891, 6240, 6243, 6242, 8806, 7116, 7117
6374, 3154, 2297, 879, 6888, 8035, 9168, 9169, 7358, 8126, 9170
6375, 1875, 5075, 6365, 248, 5078, 9171, 6383, 1876, 5076, 6382
6376, 864, 3114, 2275, 6893, 8959, 9120, 9172, 8370, 8546, 8545
6377, 1713, 4679, 4672, 5360, 4783, 4782, 4781, 5392, 8008, 8190
6378, 3420, 3402, 3419, 6837, 3468, 3465, 3469, 9151, 8876, 8350
6379, 6785, 4, 371, 6858, 6790, 374, 6791, 9173, 9175, 9174
6380, 793, 1071, 6837, 6863, 7532, 7510, 8977, 8135, 7450, 7511
6381, 6495, 6494, 2273, 553, 6607, 8981, 8557, 6547, 6603, 2310
6382, 2856, 2862, 6901, 6902, 2914, 8864, 8492, 9176, 8552, 9177
6383, 3072, 1047, 3068, 6888, 3082, 3107, 3098, 7359, 7360, 8141
6384, 1112, 3068, 1047, 6888, 8531, 3107, 7586, 7678, 8141, 7360
6385, 835, 3032, 3033, 6889, 9178, 3044, 8804, 8805, 8125, 7320
6386, 3150, 3153, 881, 6857, 3179, 8656, 8827, 7139, 7225, 8657
6387, 3153, 880, 2295, 6886, 9179, 9180, 7526, 7072, 8482, 7717
6388, 3154, 3152, 1072, 6888, 3173, 3186, 3183, 7358, 8327, 7886
6389, 5882, 1802, 5870, 6829, 8579, 8580, 5939, 8722, 8723, 9181
6390, 1674, 6824, 1678, 6849, 9139, 9165, 4650, 8047, 7891, 8027
6391, 3667, 6842, 3655, 6895, 7230, 8331, 3905, 7497, 8467, 7860
6392, 3156, 2270, 645, 552, 7033, 7988, 7990, 8025, 2421, 9182
6393, 3071, 3068, 1046, 6867, 3097, 3108, 3105, 7178, 8139, 7179
6394, 345, 6134, 1834, 5547, 9183, 6259, 9103, 5554, 9184, 9104
6395, 1705, 4675, 5363, 6887, 4774, 8375, 9185, 9186, 8332, 8376
6396, 3661, 1615, 1618, 6900, 8549, 4604, 7950, 7953, 8550, 7952
6397, 5796, 5789, 5786, 5795, 5851, 9187, 5859, 5860, 5844, 5856
6398, 245, 6812, 6808, 6825, 7976, 9188, 8764, 7979, 7980, 8733
6399, 295, 297, 1752, 6820, 1791, 7919, 7561, 8807, 8469, 8159
6400, 1658, 1662, 6849, 6877, 4638, 9189, 7909, 8928, 9190, 8789
6401, 4178, 1380, 144, 6840, 4181, 1382, 4182, 7743, 9192, 9191
6402, 1114, 109, 3632, 1115, 8619, 8353, 3637, 1121, 8457, 3638
6403, 1072, 3152, 115, 6888, 3186, 8323, 9007, 7886, 8327, 8326
6404, 6429, 6434, 6827, 6854, 6676, 7093, 7091, 8328, 8329, 9193
6405, 3281, 2864, 2843, 980, 8162, 2959, 7168, 3300, 2955, 2958
6406, 3069, 3071, 1045, 6889, 3094, 3106, 3103, 8226, 7319, 7788
6407, 297, 299, 6815, 6859, 1794, 8521, 9152, 7920, 7880, 8068
6408, 3420, 3419, 3414, 6837, 3469, 3483, 3490, 9151, 8350, 9115
6409, 1779, 6109, 6110, 6840, 6233, 6284, 6283, 9194, 8675, 8676
6410, 1577, 6890, 1578, 6899, 7667, 8939, 1584, 8059, 8644, 9195
6411, 1662, 1666, 6849, 6877, 4641, 9196, 9189, 9190, 9197, 8789
6412, 6447, 6449, 6459, 6861, 6744, 6747, 6746, 9198, 9200, 9199
6413, 6458, 6456, 6491, 6133, 6504, 6724, 6614, 9201, 7005, 7006
6414, 2734, 877, 6477, 552, 2740, 9008, 8473, 8474, 8024, 6553
6415, 6043, 2110, 1753, 5791, 6079, 8881, 8301, 6940, 8569, 8302
6416, 3671, 6842, 3683, 6848, 7285, 6907, 3968, 8084, 9202, 8085
6417, 793, 3420, 2751, 2846, 7531, 7407, 2755, 9203, 8484, 7958
6418, 2266, 2281, 2291, 6864, 2435, 2326, 2511, 8366, 9204, 8365
6419, 3027, 2266, 6855, 6864, 8809, 8689, 8157, 8615, 8366, 8614
6420, 2257, 42, 43, 6864, 2327, 533, 2328, 8364, 8814, 9205
6421, 2843, 2832, 2858, 6894, 2979, 3018, 3017, 7928, 7929, 8423
6422, 2277, 852, 2256, 6889, 9206, 8741, 2454, 8124, 8743, 7332
6423, 1153, 2298, 6364, 648, 9082, 8919, 6368, 6404, 8930, 6406
6424, 5599, 5620, 5432, 6897, 5707, 8291, 8292, 7982, 9207, 8418
6425, 6139, 1453, 244, 6812, 6273, 8515, 8672, 7975, 9030, 8673
6426, 1580, 1592, 1593, 6125, 4585, 1596, 4587, 7662, 6213, 6276
6427, 4543, 2108, 238, 6846, 7783, 9208, 4562, 6978, 7325, 7402
6428, 1044, 648, 3069, 6902, 9209, 8606, 3104, 8561, 8727, 8227
6429, 801, 111, 2855, 6857, 9210, 7547, 8999, 9001, 7205, 7548
6430, 2293, 3073, 6357, 647, 8538, 7124, 8713, 8540, 8539, 6397
6431, 610, 38, 3031, 67, 2526, 9083, 9015, 612, 613, 9211
6432, 6091, 6115, 6129, 6841, 6164, 6313, 6312, 9060, 8948, 8359
6433, 6109, 1754, 285, 6098, 9212, 7945, 6231, 6232, 9213, 6227
6434, 1951, 5967, 1950, 6852, 8304, 8199, 1957, 7755, 8926, 7471
6435, 854, 2297, 3072, 6888, 8744, 8036, 8745, 9086, 8126, 7359
6436, 362, 6041, 1802, 5882, 6048, 8721, 7565, 9214, 8720, 8579
6437, 5602, 5878, 5881, 5873, 9215, 5952, 8315, 8584, 5919, 5951
6438, 398, 406, 407, 6849, 2168, 410, 2170, 9216, 9217, 8438
6439, 3687, 3665, 3666, 6858, 3834, 3947, 3946, 9011, 9219, 9218
6440, 1045, 1046, 3501, 6860, 1052, 8588, 8396, 7200, 7199, 8971
6441, 5871, 5609, 362, 5882, 9106, 9220, 8847, 5944, 9107, 9214
6442, 6357, 646, 2272, 6359, 6396, 8712, 7984, 6390, 6399, 8968
6443, 5791, 5784, 1752, 5797, 5813, 7245, 7220, 5849, 5848, 7028
6444, 6041, 5882, 5609, 6829, 8720, 9107, 9221, 8724, 8722, 9222
6445, 1420, 1419, 5611, 6820, 1429, 8373, 9223, 8361, 8362, 8374
6446, 3114, 1056, 3115, 6886, 3141, 3122, 3126, 8684, 7073, 7071
6447, 3418, 3406, 115, 2853, 3481, 8878, 9013, 8973, 9124, 9224
6448, 524, 3029, 2271, 649, 8937, 7775, 2415, 9225, 8103, 8104
6449, 1058, 3191, 1057, 6866, 7545, 8073, 1064, 7367, 8451, 7368
6450, 1803, 6820, 6102, 6882, 7846, 7038, 7040, 8734, 9226, 8736
6451, 1192, 1375, 144, 6840, 9227, 1376, 4040, 8288, 9228, 9191
6452, 1623, 6822, 1630, 6849, 9229, 9230, 4614, 9231, 9232, 8297
6453, 228, 6877, 1658, 6879, 9233, 8928, 1659, 9234, 8793, 8929
6454, 266, 4687, 265, 6816, 4722, 4721, 1692, 8699, 7542, 7987
6455, 1073, 3152, 3153, 6886, 3185, 3176, 3188, 7462, 8324, 7072
6456, 1826, 1804, 4082, 4965, 5012, 9160, 9235, 4992, 4994, 9162
6457, 379, 363, 1, 6858, 2144, 366, 2143, 8565, 9237, 9236
6458, 2292, 40, 2281, 6864, 2319, 2321, 2323, 9023, 9024, 9204
6459, 3695, 3686, 3643, 6835, 3859, 3858, 3855, 9238, 8663, 8664
6460, 1211, 5361, 5365, 1947, 8909, 5400, 8760, 8762, 5399, 5378
6461, 289, 1419, 1194, 6820, 8371, 4263, 7750, 7751, 8362, 7479
6462, 854, 3072, 3068, 6888, 8745, 3098, 9085, 9086, 7359, 8141
6463, 866, 2289, 2304, 6898, 9239, 2341, 8398, 8402, 9240, 8401
6464, 191, 1455, 6123, 6890, 1459, 6216, 6215, 7748, 9118, 8940
6465, 1057, 1116, 1117, 6893, 7877, 1123, 8511, 7632, 8605, 8547
6466, 1412, 5881, 4265, 5602, 8408, 7519, 4269, 8908, 8315, 7956
6467, 2269, 2303, 2268, 6867, 2502, 2459, 2383, 7569, 7568, 7782
6468, 328, 307, 341, 6861, 1862, 2003, 5543, 9241, 8497, 8163
6469, 3494, 1019, 3500, 2860, 3515, 3535, 3538, 7515, 3009, 7517
6470, 4136, 4894, 1781, 1757, 8341, 4922, 8343, 8424, 4924, 4944
6471, 1, 5, 379, 6858, 387, 382, 2143, 9236, 8563, 8565
6472, 3416, 3403, 1074, 6830, 3470, 8200, 7627, 7631, 8596, 7630
6473, 5870, 1803, 5883, 6829, 8386, 8039, 5940, 9181, 8042, 8043
6474, 5366, 1714, 1704, 5023, 5370, 4762, 9242, 7808, 8901, 8320
6475, 1114, 990, 3366, 2842, 3387, 3380, 3388, 8165, 2975, 7861
6476, 2109, 5599, 6042, 2061, 8642, 7981, 6073, 6072, 5734, 6071
6477, 991, 1115, 3363, 2843, 3392, 3393, 3391, 2978, 8499, 7926
6478, 4670, 4681, 4669, 6896, 4839, 4838, 4833, 8483, 6957, 7169
6479, 852, 3071, 3069, 6889, 8931, 3094, 8742, 8743, 7319, 8226
6480, 4683, 4662, 4958, 6865, 4759, 7108, 9243, 9014, 7107, 7046
6481, 3198, 3208, 3191, 6866, 3258, 3257, 3255, 7900, 8448, 8451
6482, 648, 2256, 2298, 2261, 8607, 2505, 8930, 8608, 2450, 2506
6483, 793, 3155, 1071, 6863, 8133, 3181, 7532, 8135, 7786, 7450
6484, 230, 231, 1670, 6881, 1549, 1671, 4643, 9244, 9246, 9245
6485, 6460, 6490, 6420, 6843, 6628, 6627, 6538, 9247, 8628, 8629
6486, 5586, 5794, 2045, 5594, 7485, 5807, 5635, 5710, 7432, 5708
6487, 2108, 2107, 6082, 6846, 2114, 6086, 6087, 7325, 7684, 7798
6488, 3071, 853, 3068, 6867, 8617, 9248, 3097, 7178, 8618, 8139
6489, 6131, 4172, 178, 6110, 8685, 4177, 6193, 6194, 8686, 6189
6490, 373, 6456, 6133, 365, 9249, 7005, 9250, 2139, 9252, 9251
6491, 258, 1670, 259, 6873, 4645, 1672, 1673, 9253, 9255, 9254
6492, 5609, 5882, 5877, 6829, 9107, 5943, 9105, 9222, 8722, 9256
6493, 3665, 6825, 3666, 6858, 8966, 8674, 3947, 9219, 8267, 9218
6494, 2262, 96, 2278, 6863, 7677, 8859, 2394, 7373, 7330, 8121
6495, 3705, 3687, 3666, 6858, 3948, 3946, 3936, 9257, 9011, 9218
6496, 1941, 5332, 266, 6833, 5335, 5334, 1942, 9258, 9260, 9259
6497, 339, 6365, 308, 6870, 9261, 9262, 2000, 9263, 9109, 9264
6498, 517, 6360, 2290, 2286, 8855, 8591, 2305, 2407, 8593, 2411
6499, 3661, 3716, 35, 6900, 3771, 3767, 3770, 7953, 9266, 9265
6500, 2062, 6042, 5588, 2061, 6070, 7593, 5733, 2068, 6071, 5732
6501, 991, 3363, 992, 2832, 3391, 3390, 998, 2976, 7927, 2977
6502, 2833, 3366, 989, 990, 7862, 3381, 2967, 2968, 3380, 996
6503, 3154, 879, 3152, 6888, 9169, 9129, 3173, 7358, 9170, 8327
6504, 2851, 793, 2847, 6837, 8978, 9267, 2896, 8508, 8977, 8509
6505, 2273, 646, 2260, 2282, 9268, 8491, 2523, 2423, 8098, 2521
6506, 3198, 3204, 964, 2836, 3230, 3228, 3229, 6988, 9269, 2944
6507, 2277, 3032, 835, 6889, 8123, 9178, 9270, 8124, 8125, 8805
6508, 3709, 3675, 3692, 6891, 3985, 3982, 3988, 7932, 7270, 8865
6509, 5618, 5965, 1950, 1414, 6927, 7021, 7022, 9121, 9122, 8910
6510, 6129, 6097, 6108, 6841, 6339, 6337, 6311, 8359, 8360, 8075
6511, 6103, 6826, 6099, 6840, 8572, 8415, 6341, 7653, 9271, 7655
6512, 3715, 3716, 2298, 523, 3827, 8920, 9141, 3826, 3766, 2412
6513, 300, 301, 4961, 6815, 1795, 4977, 4976, 9272, 9273, 8060
6514, 6456, 373, 3, 2, 9249, 377, 6499, 6500, 2138, 370
6515, 1709, 5363, 1705, 4675, 5369, 9185, 4771, 4773, 8375, 4774
6516, 3114, 863, 2275, 6886, 9274, 9275, 9120, 8684, 9026, 8544
6517, 433, 243, 442, 6849, 9276, 9277, 2193, 9278, 8339, 8915
6518, 881, 2267, 2280, 6857, 8655, 2498, 8826, 8657, 7640, 7138
6519, 6109, 6826, 6103, 6840, 8571, 8572, 6342, 8675, 9271, 7653
6520, 6110, 6122, 6131, 6840, 6353, 6323, 6194, 8676, 7654, 7742
6521, 6815, 4674, 6838, 6884, 7729, 7293, 8069, 8021, 6972, 7294
6522, 3671, 3670, 3668, 6848, 3952, 3951, 3953, 8084, 9280, 9279
6523, 6465, 6440, 6489, 6843, 6717, 6721, 6720, 9281, 9283, 9282
6524, 373, 6456, 365, 2, 9249, 9252, 2139, 2138, 6500, 369
6525, 4889, 4887, 287, 285, 4916, 4907, 4913, 8277, 8281, 1750
6526, 1966, 5605, 5599, 5444, 5628, 5705, 5706, 5456, 8889, 8976
6527, 3027, 839, 2266, 6864, 9284, 9285, 8809, 8615, 9286, 8366
6528, 2270, 645, 793, 3155, 7988, 9287, 8134, 7032, 7989, 8133
6529, 3205, 3208, 3198, 6866, 3270, 3258, 3231, 8447, 8448, 7900
6530, 2108, 6047, 5604, 5429, 6069, 9288, 9087, 8464, 9289, 7567
6531, 280, 283, 6816, 6883, 1744, 9290, 8659, 8661, 7592, 7769
6532, 5965, 1950, 1414, 1949, 7021, 8910, 9122, 9291, 1956, 8911
6533, 293, 268, 4885, 1773, 1937, 8260, 4935, 1775, 5318, 4899
6534, 6113, 1581, 6114, 1593, 7765, 7647, 6279, 6280, 4574, 6278
6535, 6426, 6429, 6819, 6854, 6653, 7055, 7246, 8577, 8328, 9167
6536, 362, 6044, 5608, 5885, 6051, 9061, 8848, 8849, 9033, 8286
6537, 6358, 2293, 6357, 647, 9070, 8713, 6403, 6401, 8540, 6397
6538, 2861, 1058, 3197, 799, 7137, 7135, 6989, 8861, 8862, 9163
6539, 4664, 4698, 275, 4959, 4753, 4749, 4751, 8191, 8145, 8146
6540, 5364, 1944, 335, 1832, 5374, 1946, 5375, 7469, 8601, 7468
6541, 3673, 3672, 3671, 6848, 3965, 3961, 3966, 7384, 8658, 8084
6542, 6489, 6455, 6464, 6843, 6777, 6779, 6778, 9282, 8669, 9292
6543, 6121, 4112, 6091, 6841, 8187, 9293, 6167, 8188, 8182, 9060
6544, 3673, 3691, 3711, 6831, 3976, 3884, 3975, 8892, 8586, 9145
6545, 3414, 3408, 3420, 2846, 3438, 3489, 3490, 9294, 8485, 8484
6546, 345, 6807, 1834, 6854, 9295, 9296, 9103, 9297, 9299, 9298
6547, 1153, 3715, 2298, 648, 3830, 9141, 9082, 6404, 9300, 8930
6548, 3361, 1117, 1073, 6830, 3375, 7461, 8255, 8258, 7306, 8257
6549, 5967, 2107, 5970, 6852, 9301, 8626, 6034, 8926, 7756, 7539
6550, 4674, 4671, 4697, 6884, 4788, 4846, 4802, 6972, 7641, 7419
6551, 4130, 152, 4124, 6868, 4134, 4126, 8476, 8112, 8649, 8478
6552, 1350, 1756, 1757, 4895, 8414, 1763, 8232, 8958, 4942, 4941
6553, 2852, 3419, 115, 3365, 8356, 8877, 8879, 8954, 8349, 3371
6554, 5878, 5608, 5871, 2073, 8284, 8285, 5922, 5917, 5753, 5921
6555, 3708, 3717, 3678, 6875, 3902, 3998, 3994, 9302, 9304, 9303
6556, 4958, 4962, 4683, 6865, 4975, 8822, 9243, 7046, 7829, 9014
6557, 4178, 6093, 4184, 6850, 7740, 9305, 9306, 8970, 8969, 9307
6558, 2106, 362, 6082, 6847, 2112, 6084, 6083, 8018, 7421, 8115
6559, 331, 2018, 329, 6809, 5567, 2019, 1867, 9308, 8092, 8090
6560, 2838, 3195, 963, 3205, 7239, 3221, 2939, 7240, 3226, 3225
6561, 3689, 3694, 3719, 6876, 3742, 3933, 3928, 9309, 9311, 9310
6562, 763, 81, 49, 3109, 765, 830, 2677, 8679, 8917, 8681
6563, 2273, 646, 2127, 6363, 9268, 6394, 9312, 7840, 6398, 6393
6564, 1420, 1439, 1440, 5611, 4287, 1449, 4270, 9223, 5687, 5686
6565, 1419, 1439, 1420, 5611, 4285, 4287, 1429, 8373, 5687, 9223
6566, 801, 800, 898, 2855, 810, 2770, 2773, 8999, 9313, 2931
6567, 6471, 6443, 6428, 6861, 6666, 6667, 6601, 9314, 9316, 9315
6568, 1003, 3414, 3406, 2852, 3436, 3441, 3440, 2997, 8357, 8355
6569, 6494, 6495, 2273, 2127, 6607, 8557, 8981, 6618, 6588, 9312
6570, 1581, 6104, 1582, 6826, 7648, 9317, 1588, 8600, 8207, 8248
6571, 4082, 1300, 160, 4965, 4085, 1302, 4086, 9162, 9161, 9318
6572, 6464, 6455, 6490, 6843, 6779, 6781, 6780, 9292, 8669, 8628
6573, 363, 364, 1454, 379, 367, 9319, 9320, 2144, 2147, 9321
6574, 1058, 1059, 3197, 799, 1065, 9322, 7135, 8862, 9323, 9163
6575, 3700, 2265, 524, 3029, 8195, 2313, 3775, 7992, 7771, 8937
6576, 2059, 6046, 2060, 5589, 6061, 6060, 2066, 5723, 8652, 5724
6577, 5295, 5294, 1930, 6838, 5304, 5303, 5299, 9005, 9324, 9004
6578, 2303, 853, 2268, 6867, 9325, 8616, 2459, 7568, 8618, 7782
6579, 8, 10, 6442, 6828, 404, 6507, 6506, 9326, 8570, 7411
6580, 3155, 878, 2270, 877, 7785, 7784, 7032, 7034, 884, 7036
6581, 345, 6813, 6807, 6819, 9327, 9328, 9295, 9329, 9092, 9330
6582, 1117, 115, 1073, 6886, 1124, 8625, 7461, 7354, 8325, 7462
6583, 82, 757, 50, 3109, 758, 2686, 832, 8927, 8994, 8716
6584, 294, 4886, 295, 6838, 9331, 9054, 1786, 9332, 8013, 9333
6585, 2285, 2280, 2267, 6857, 2516, 2498, 2401, 7152, 7138, 7640
6586, 1630, 6822, 1634, 6849, 9230, 9334, 4617, 8297, 9232, 8296
6587, 266, 4663, 4687, 6816, 4724, 4726, 4722, 8699, 7263, 7542
6588, 6785, 6135, 3682, 6858, 9335, 9336, 9337, 9173, 9339, 9338
6589, 2255, 3152, 879, 6888, 8481, 9129, 9130, 7835, 8327, 9170
6590, 478, 488, 6355, 487, 2231, 9340, 8529, 2228, 491, 9341
6591, 478, 488, 479, 6355, 2231, 2232, 482, 8529, 9340, 9058
6592, 239, 280, 4540, 6883, 1728, 8660, 4567, 9342, 8661, 8390
6593, 237, 4665, 4539, 1574, 4703, 7913, 4556, 1575, 7845, 4560
6594, 880, 881, 3153, 2295, 887, 8656, 9179, 9180, 8800, 7526
6595, 3410, 115, 3419, 1072, 9343, 8877, 3466, 8203, 9007, 8205
6596, 880, 3153, 3152, 6886, 9179, 3176, 8480, 8482, 7072, 8324
6597, 43, 44, 2287, 778, 534, 2331, 2330, 2658, 2657, 9344
6598, 6807, 6819, 6813, 6827, 9330, 9092, 9328, 9345, 8224, 9091
6599, 6044, 362, 1801, 5885, 6051, 9049, 9034, 9033, 8849, 9027
6600, 3692, 3701, 3720, 6891, 3999, 4005, 4006, 8865, 8306, 8307
6601, 3646, 6875, 1615, 6900, 7817, 8599, 8548, 8452, 8513, 8550
6602, 6100, 6826, 1581, 6850, 8206, 8600, 7646, 8520, 9346, 8519
6603, 5366, 5354, 5360, 6865, 5424, 5421, 5395, 7828, 7522, 8086
6604, 5617, 6826, 1754, 6840, 9347, 8404, 7346, 9348, 9271, 9349
6605, 6120, 1804, 4082, 1826, 9350, 9160, 9351, 6155, 5012, 9235
6606, 1839, 1832, 1833, 5363, 5063, 1836, 5062, 9352, 8602, 8665
6607, 739, 89, 57, 2283, 741, 821, 2663, 9353, 7223, 2363
6608, 1780, 4154, 1756, 6126, 9354, 8840, 4939, 6185, 8841, 8842
6609, 6095, 6112, 6128, 6868, 6331, 6333, 6173, 7296, 7702, 8487
6610, 2298, 648, 796, 6902, 8930, 9355, 8333, 7465, 8727, 8567
6611, 5587, 2089, 5971, 5616, 5643, 5983, 9356, 5766, 5765, 8066
6612, 2034, 2035, 5965, 1949, 2041, 5991, 5990, 5579, 5582, 9291
6613, 2036, 1950, 5967, 2035, 5584, 8199, 5994, 2042, 5581, 5993
6614, 1127, 1071, 3402, 1126, 3626, 8185, 3453, 1133, 3623, 3452
6615, 1705, 1839, 1840, 5363, 5269, 1842, 5263, 9185, 9352, 9357
6616, 2298, 2271, 796, 649, 2417, 8334, 8333, 9144, 8104, 9358
6617, 863, 3114, 3115, 6886, 9274, 3126, 8769, 9026, 8684, 7071
6618, 281, 6047, 5444, 238, 8427, 8428, 5448, 4868, 9360, 9359
6619, 2127, 6495, 2273, 6363, 6588, 8557, 9312, 6393, 8558, 7840
6620, 3410, 3418, 115, 1073, 3472, 9013, 9343, 8252, 8250, 8625
6621, 6364, 2290, 6360, 648, 8441, 8591, 6408, 6406, 9114, 6407
6622, 3661, 3662, 3646, 6900, 3768, 3868, 3782, 7953, 8454, 8452
6623, 3507, 3501, 1113, 6860, 3572, 9361, 8866, 8002, 8971, 7619
6624, 1365, 4160, 146, 1755, 4163, 4162, 1366, 9362, 8632, 8783
6625, 1130, 1074, 3409, 1129, 3631, 8201, 3462, 1136, 3630, 3461
6626, 1752, 4890, 1753, 6904, 4928, 4936, 1759, 9363, 8246, 8882
6627, 4885, 4690, 268, 6833, 7634, 4728, 8260, 7635, 6991, 8893
6628, 799, 798, 2861, 6894, 808, 9364, 8861, 8863, 9365, 8833
6629, 6434, 6478, 6438, 6854, 6677, 6703, 6702, 8329, 8330, 8850
6630, 623, 624, 647, 794, 635, 2593, 2592, 2628, 2627, 8583
6631, 624, 625, 647, 795, 636, 2595, 2593, 2629, 2630, 8771
6632, 623, 647, 646, 794, 2592, 652, 2594, 2628, 8583, 8581
6633, 2034, 1948, 5956, 2033, 5580, 8211, 5988, 2040, 5578, 5987
6634, 3191, 3208, 1116, 6866, 3257, 8446, 9366, 8451, 8448, 7819
6635, 1129, 1073, 3403, 1128, 3629, 8251, 3459, 1135, 3627, 3458
6636, 346, 1834, 5546, 2008, 8514, 6981, 5557, 5558, 6254, 5551
6637, 4588, 1610, 1453, 244, 4593, 6214, 8337, 4595, 4598, 8515
6638, 1127, 1128, 3410, 1072, 1134, 3456, 3455, 3625, 3628, 8203
6639, 5306, 5305, 1933, 6838, 5315, 5316, 5310, 8732, 9368, 9367
6640, 1360, 4154, 147, 1755, 4157, 4156, 1361, 8990, 8839, 9369
6641, 3642, 3709, 3720, 6891, 3852, 3854, 3851, 8347, 7932, 8307
6642, 648, 795, 647, 625, 8770, 8771, 653, 2596, 2630, 2595
6643, 1113, 3632, 1114, 6867, 3636, 3637, 1120, 8403, 8354, 7605
6644, 6487, 6473, 6445, 6853, 6738, 6735, 6736, 9046, 7446, 9048
6645, 1781, 172, 4130, 4136, 6178, 4131, 8340, 8343, 4141, 8342
6646, 1975, 1974, 1752, 5791, 1981, 5516, 5518, 5812, 5811, 7220
6647, 308, 309, 339, 6870, 1831, 5548, 2000, 9264, 9370, 9263
6648, 647, 6358, 2293, 2286, 6401, 9070, 8540, 8174, 8594, 2410
6649, 282, 6816, 283, 6833, 9371, 9290, 1742, 9372, 7707, 9373
6650, 877, 2734, 596, 552, 2740, 2738, 2742, 8024, 8474, 2378
6651, 433, 442, 443, 6849, 2193, 446, 2197, 9278, 8915, 8914
6652, 443, 434, 433, 6849, 2196, 437, 2197, 8914, 9374, 9278
6653, 6118, 1581, 1593, 1580, 7764, 4574, 6281, 7663, 1587, 4587
6654, 1143, 1045, 3501, 1142, 3601, 8396, 3549, 1149, 3599, 3548
6655, 1086, 3201, 1059, 1087, 3248, 9375, 3613, 1093, 3249, 3616
6656, 77, 775, 1059, 6898, 777, 8344, 9376, 9377, 8346, 7710
6657, 4660, 4542, 4538, 6816, 7429, 4581, 7010, 7543, 8261, 8020
6658, 517, 497, 6355, 516, 9378, 9379, 8880, 520, 9044, 8740
6659, 271, 4888, 5306, 6838, 7842, 9380, 5308, 8730, 7847, 8732
6660, 989, 3507, 3364, 1113, 8000, 7198, 3376, 3382, 8866, 3383
6661, 2301, 58, 59, 3151, 2368, 549, 2369, 9381, 9383, 9382
6662, 3205, 2840, 992, 6866, 8611, 2984, 8998, 8447, 9385, 9384
6663, 2059, 2107, 5970, 6045, 6062, 8626, 8815, 6056, 6063, 7081
6664, 110, 1047, 3072, 6863, 1054, 3082, 3076, 7331, 7290, 7288
6665, 5872, 1420, 1440, 5600, 8202, 4270, 7365, 8352, 9386, 5690
6666, 5366, 5364, 5354, 6903, 5397, 5413, 5424, 7811, 6914, 7884
6667, 1729, 1577, 1730, 5436, 4870, 4873, 1736, 5458, 7316, 5459
6668, 1839, 1833, 1840, 5363, 5062, 5064, 1842, 9352, 8665, 9357
6669, 1072, 1112, 3365, 6837, 7676, 3374, 8348, 7509, 7866, 8351
6670, 5607, 1413, 1412, 335, 9387, 1422, 8555, 7440, 9388, 8214
6671, 6110, 6103, 6122, 6840, 6352, 6345, 6353, 8676, 7653, 7654
6672, 1083, 3199, 1056, 1084, 3239, 7122, 3607, 1090, 3240, 3610
6673, 1139, 3499, 1042, 1140, 3539, 9389, 3593, 1146, 3540, 3596
6674, 1097, 3286, 1028, 1098, 3324, 6968, 3579, 1104, 3325, 3582
6675, 5365, 1211, 1833, 6887, 8760, 9390, 8666, 8533, 8719, 8728
6676, 332, 480, 489, 6356, 9391, 2230, 9392, 9393, 8797, 9088
6677, 1126, 1070, 3411, 1125, 3624, 8493, 3450, 1132, 3621, 3449
6678, 5868, 1801, 5885, 6836, 9028, 9027, 5930, 9394, 7936, 9036
6679, 1330, 4118, 153, 6868, 4121, 4120, 1331, 7483, 8278, 9395
6680, 497, 517, 6355, 496, 9378, 8880, 9379, 500, 9397, 9396
6681, 1112, 115, 3632, 6888, 1118, 3634, 3633, 7678, 8326, 8269
6682, 5598, 5612, 6890, 6899, 5778, 9094, 8643, 7959, 9398, 8644
6683, 154, 1325, 4112, 6841, 1326, 4115, 4114, 8964, 9399, 8182
6684, 6492, 6487, 6466, 6853, 6626, 6737, 6706, 9038, 9046, 9047
6685, 6, 365, 6456, 2, 2145, 9252, 6501, 386, 369, 6500
6686, 336, 5444, 6047, 5605, 5449, 8428, 8429, 5629, 8889, 8887
6687, 292, 271, 1770, 4888, 1936, 5317, 1771, 4934, 7842, 4901
6688, 3412, 3407, 1005, 2844, 3447, 3446, 3442, 8982, 8495, 3001
6689, 2296, 2277, 835, 6889, 2428, 9270, 8803, 7855, 8124, 8805
6690, 1944, 335, 1832, 5365, 1946, 7468, 8601, 5377, 5376, 8603
6691, 1070, 1071, 793, 3155, 1077, 7532, 8494, 3182, 3181, 8133
6692, 3641, 6845, 3712, 6892, 7737, 7738, 3847, 7914, 9400, 8007
6693, 284, 285, 4887, 6833, 1745, 8281, 9401, 9402, 8282, 7797
6694, 1755, 1754, 6109, 6840, 1761, 9212, 9403, 9404, 9349, 8675
6695, 3713, 3650, 126, 6842, 3805, 3804, 3800, 6905, 6906, 9405
6696, 6459, 6449, 6469, 6861, 6747, 6756, 6755, 9199, 9200, 9406
6697, 2109, 6082, 2110, 6904, 6088, 6089, 2116, 7277, 7799, 8695
6698, 801, 800, 2855, 111, 810, 9313, 8999, 9210, 9407, 7547
6699, 739, 57, 56, 2283, 2663, 547, 2664, 9353, 2363, 2362
6700, 55, 54, 745, 2284, 545, 2672, 2671, 2357, 2356, 9408
6701, 2298, 2290, 648, 2261, 2414, 9114, 8930, 2506, 2524, 8608
6702, 1638, 1634, 6822, 6849, 4620, 9334, 9409, 8381, 8296, 9232
6703, 3282, 1101, 1031, 1100, 3334, 3588, 9410, 3333, 1107, 3586
6704, 2033, 1947, 5962, 2032, 5577, 9411, 5985, 2039, 5575, 5984
6705, 3283, 1098, 1099, 1029, 3327, 1105, 3328, 8186, 3581, 3583
6706, 6100, 6136, 6107, 6850, 6349, 6348, 6344, 8520, 8566, 8218
6707, 330, 515, 2272, 6357, 8785, 2403, 8967, 6389, 9077, 7984
6708, 288, 6112, 6117, 4891, 6237, 6239, 6235, 4918, 7701, 7116
6709, 801, 6830, 1074, 6857, 9000, 7630, 8641, 9001, 7206, 9131
6710, 5363, 1705, 1839, 1709, 9185, 5269, 9352, 5369, 4771, 9412
6711, 1754, 6098, 6109, 6826, 9213, 6232, 9212, 8404, 8573, 8571
6712, 2110, 5798, 5596, 6844, 8568, 7094, 9413, 9037, 7893, 7894
6713, 3688, 3710, 3712, 6892, 3957, 3849, 3926, 8005, 7916, 8007
6714, 1085, 1084, 1057, 3191, 1091, 3609, 3612, 3243, 3242, 8073
6715, 1141, 1043, 3491, 1140, 3597, 9414, 3543, 1147, 3595, 3542
6716, 2847, 3365, 1112, 6837, 9415, 3374, 8507, 8509, 8351, 7866
6717, 962, 3202, 2838, 2830, 3213, 7455, 2938, 2874, 7934, 2940
6718, 801, 898, 899, 2855, 2773, 908, 2756, 8999, 2931, 2930
6719, 2294, 2288, 2259, 6898, 2519, 2518, 2520, 8818, 7636, 7960
6720, 3681, 3695, 3643, 6835, 3856, 3855, 3751, 9416, 9238, 8664
6721, 1390, 4190, 141, 6850, 4193, 4192, 1391, 9417, 9419, 9418
6722, 1779, 1755, 6109, 6840, 4938, 9403, 6233, 9194, 9404, 8675
6723, 1832, 1412, 1800, 6124, 8808, 8213, 7467, 6253, 9420, 9101
6724, 2290, 517, 35, 6900, 2305, 521, 2306, 8442, 8703, 9265
6725, 5602, 2072, 5878, 5873, 5746, 5918, 9215, 8584, 5914, 5919
6726, 1086, 3197, 1085, 1058, 3246, 3245, 1092, 3614, 7135, 3611
6727, 1142, 1044, 3497, 1141, 3600, 8560, 3546, 1148, 3598, 3545
6728, 6808, 6825, 6812, 6895, 8733, 7980, 9188, 8693, 8512, 8854
6729, 390, 399, 1834, 6887, 2160, 9421, 9422, 9423, 9424, 7437
6730, 1812, 6124, 1800, 1799, 6252, 9101, 4999, 5006, 9425, 1806
6731, 4671, 4681, 4697, 6884, 4808, 4845, 4846, 7641, 6954, 7419
6732, 766, 48, 47, 3113, 2673, 538, 2674, 9426, 9428, 9427
6733, 5331, 5332, 1941, 6833, 5341, 5335, 5339, 9429, 9260, 9258
6734, 3716, 3715, 2298, 1153, 3827, 9141, 8920, 3781, 3830, 9082
6735, 4892, 4886, 4888, 6838, 4948, 4933, 4905, 8088, 8013, 7847
6736, 631, 111, 86, 748, 9430, 9431, 2580, 9432, 8517, 750
6737, 5798, 2110, 2062, 6043, 8568, 6077, 7814, 6939, 6079, 6076
6738, 1812, 2119, 6124, 1799, 6152, 6286, 6252, 5006, 9433, 9425
6739, 1642, 1638, 6822, 6849, 4623, 9409, 9434, 8411, 8381, 9232
6740, 6119, 4184, 6093, 6850, 9435, 9305, 6200, 9436, 9307, 8969
6741, 496, 488, 487, 6355, 2238, 491, 2235, 9396, 9340, 9341
6742, 496, 488, 6355, 497, 2238, 9340, 9396, 500, 2240, 9379
6743, 2273, 2272, 646, 6359, 2405, 8712, 9268, 8458, 8968, 6399
6744, 5790, 1756, 1978, 1979, 8413, 5525, 5823, 5824, 5526, 1985
6745, 1951, 2036, 5960, 2037, 5583, 5996, 8055, 5585, 2043, 5997
6746, 3071, 2296, 852, 853, 7725, 8932, 8931, 8617, 8729, 859
6747, 6128, 171, 4124, 6105, 6171, 4125, 8486, 6176, 6175, 8477
6748, 6465, 6439, 6440, 6843, 6548, 6647, 6717, 9281, 7850, 9283
6749, 742, 88, 56, 2258, 744, 823, 2667, 8898, 8897, 2360
6750, 52, 53, 2276, 751, 543, 2352, 2350, 2680, 2679, 8696
6751, 6475, 6453, 6485, 6832, 6661, 6772, 6682, 8856, 8795, 8796
6752, 218, 219, 6355, 1491, 1500, 9437, 9438, 4354, 4351, 6375
6753, 794, 793, 2851, 110, 803, 8978, 9439, 9440, 9063, 7857
6754, 6121, 168, 6091, 4112, 6166, 6162, 6167, 8187, 4117, 9293
6755, 1414, 1950, 5618, 6890, 8910, 7022, 9121, 8913, 7141, 9117
6756, 1453, 415, 406, 6849, 9441, 2172, 9442, 7801, 9443, 9217
6757, 4678, 1712, 1566, 4293, 4768, 4765, 4704, 7841, 7969, 8319
6758, 150, 5790, 1350, 1193, 8229, 8230, 1352, 4053, 9445, 9444
6759, 3413, 2751, 94, 3405, 8556, 2753, 9446, 3428, 8455, 8015
6760, 3113, 3111, 866, 6898, 3135, 9447, 8397, 8400, 7711, 8402
6761, 2063, 2062, 6043, 5594, 2069, 6076, 6075, 5738, 5737, 7789
6762, 993, 3362, 2838, 992, 3395, 7454, 2982, 999, 3396, 2981
6763, 3403, 1073, 1074, 6830, 8251, 1080, 8200, 8596, 8257, 7630
6764, 1412, 1186, 1185, 136, 4248, 1197, 4246, 9448, 4020, 4019
6765, 55, 87, 742, 2258, 825, 743, 2668, 2359, 8933, 8898
6766, 2260, 2272, 646, 2273, 2443, 8712, 8491, 2523, 2405, 9268
6767, 5617, 6826, 5614, 6844, 9347, 9449, 5679, 8425, 8407, 8832
6768, 6480, 6484, 6438, 6854, 6716, 6711, 6715, 7000, 8268, 8850
6769, 344, 348, 5559, 6138, 2015, 5562, 5561, 6256, 6255, 9450
6770, 50, 757, 51, 3109, 2686, 2685, 541, 8716, 8994, 8995
6771, 1032, 3030, 3027, 6864, 3064, 3056, 3067, 8613, 9025, 8615
6772, 1071, 1072, 3402, 6837, 1078, 8204, 8185, 7510, 7509, 8876
6773, 3697, 3677, 3649, 6875, 3880, 3881, 3796, 9451, 9453, 9452
6774, 4142, 1757, 4136, 4895, 8956, 8424, 9454, 8957, 4941, 9455
6775, 801, 899, 3407, 2844, 2756, 7602, 9456, 9457, 2934, 8495
6776, 4696, 4542, 6816, 6856, 7430, 8261, 7544, 7806, 8936, 7695
6777, 4966, 302, 4076, 303, 4990, 9458, 9459, 4989, 1798, 9460
6778, 748, 53, 85, 2264, 2676, 829, 749, 8518, 2353, 7657
6779, 6355, 6356, 6357, 516, 6415, 6388, 6414, 8740, 8460, 8461
6780, 5596, 5594, 5787, 2062, 5713, 7433, 7095, 5740, 5737, 7815
6781, 1029, 796, 2271, 649, 7310, 8334, 8101, 8102, 9358, 8104
6782, 3670, 3718, 3695, 6848, 3962, 3964, 3956, 9280, 8835, 8836
6783, 794, 891, 2851, 793, 2758, 2891, 9439, 803, 2759, 8978
6784, 1413, 5607, 1412, 1432, 9387, 8555, 1422, 4272, 5647, 4273
6785, 6424, 351, 2022, 6439, 6585, 2024, 9461, 6591, 6590, 7836
6786, 5798, 2110, 5783, 6844, 8568, 9462, 5846, 7893, 9037, 9463
6787, 5973, 5956, 1414, 1948, 6017, 9464, 9465, 8210, 8211, 8709
6788, 763, 49, 48, 867, 2677, 539, 2678, 8678, 8677, 9466
6789, 5600, 5877, 5883, 6829, 9055, 5950, 8038, 8041, 9256, 8043
6790, 631, 111, 800, 801, 9430, 9407, 2641, 2642, 9210, 810
6791, 864, 2275, 2299, 6893, 9172, 2472, 8367, 8370, 8545, 7671
6792, 433, 424, 243, 6849, 2186, 9467, 9276, 9278, 9468, 8339
6793, 2300, 2266, 2288, 6855, 2438, 2509, 2525, 8022, 8689, 7232
6794, 1950, 5965, 2035, 1949, 7021, 5991, 5581, 1956, 9291, 5582
6795, 1950, 2036, 5967, 1951, 5584, 5994, 8199, 1957, 5583, 8304
6796, 1127, 1071, 1072, 3402, 3626, 1078, 3625, 3453, 8185, 8204
6797, 1415, 1414, 5618, 6890, 1424, 9121, 9469, 9470, 8913, 9117
6798, 3665, 3703, 3666, 6825, 3929, 3934, 3947, 8966, 7719, 8674
6799, 2035, 5967, 5965, 1950, 5993, 5995, 5991, 5581, 8199, 7021
6800, 3655, 6842, 3668, 6892, 8331, 7793, 3913, 8682, 8961, 7832
6801, 245, 5068, 6116, 6825, 5071, 8858, 9471, 7979, 8943, 8944
6802, 5319, 5320, 1938, 6833, 5330, 5323, 5327, 9472, 8963, 9473
6803, 794, 793, 110, 623, 803, 9063, 9440, 2628, 2626, 9474
6804, 6112, 4894, 6105, 6868, 9475, 8384, 6238, 7702, 8114, 8385
6805, 3703, 3656, 6825, 6895, 3896, 7675, 7719, 7883, 7699, 8512
6806, 6357, 515, 2272, 516, 9077, 2403, 7984, 8461, 519, 2404
6807, 2274, 2297, 854, 6888, 2462, 8744, 9084, 8300, 8126, 9086
6808, 852, 572, 2256, 851, 2715, 2449, 8741, 858, 2717, 7374
6809, 4694, 272, 4686, 6838, 4740, 4742, 4744, 7292, 8731, 7705
6810, 1130, 1074, 1075, 3409, 3631, 1081, 3622, 3462, 8201, 8639
6811, 297, 295, 6092, 6820, 1791, 6242, 6241, 8469, 8807, 7776
6812, 1951, 2107, 5970, 5967, 7683, 8626, 8303, 8304, 9301, 6034
6813, 3278, 1032, 1101, 1102, 7258, 3587, 3336, 3337, 3589, 1108
6814, 2109, 5605, 5599, 2061, 8888, 5705, 8642, 6072, 5736, 5734
6815, 991, 2849, 1115, 2843, 2980, 8747, 3392, 2978, 2957, 8499
6816, 882, 2301, 59, 3151, 9476, 2369, 9477, 9478, 9381, 9382
6817, 896, 897, 799, 2861, 906, 2772, 2768, 2918, 2917, 8861
6818, 3110, 97, 2276, 868, 7018, 7016, 7017, 9098, 875, 9479
6819, 1948, 2034, 5956, 1949, 5580, 5988, 8211, 1955, 5579, 9480
6820, 3402, 1127, 3410, 1072, 3453, 3455, 3457, 8204, 3625, 8203
6821, 3492, 2839, 2841, 989, 7261, 2971, 8417, 8001, 2961, 2969
6822, 2075, 5872, 5600, 5877, 5927, 8352, 5757, 5923, 5928, 9055
6823, 1073, 1129, 3403, 1074, 3629, 3459, 8251, 1080, 3630, 8200
6824, 3672, 3675, 3718, 6848, 3971, 3973, 3963, 8658, 8837, 8835
6825, 1073, 3410, 1128, 1072, 8252, 3456, 3627, 1079, 8203, 3628
6826, 1949, 5965, 2034, 5956, 9291, 5990, 5579, 9480, 5992, 5988
6827, 3632, 1117, 1116, 6893, 3635, 1123, 3639, 8271, 8547, 8605
6828, 1591, 1172, 131, 3690, 6145, 1176, 6146, 9051, 3822, 3821
6829, 1801, 362, 2106, 6847, 9049, 2112, 8078, 8465, 7421, 8018
6830, 748, 54, 53, 2264, 2675, 544, 2676, 8518, 2354, 2353
6831, 273, 272, 5295, 6838, 1699, 5297, 5296, 9003, 8731, 9005
6832, 5966, 5972, 5969, 5965, 6036, 6040, 6030, 9481, 6019, 6038
6833, 766, 48, 3113, 80, 2673, 9428, 9426, 768, 828, 9482
6834, 1704, 1944, 5366, 5023, 9483, 5373, 9242, 8320, 8766, 7808
6835, 1780, 1756, 1755, 6126, 4939, 1762, 4940, 6185, 8842, 8634
6836, 6357, 2272, 2293, 516, 7984, 2408, 8713, 8461, 2404, 2409
6837, 2839, 3364, 988, 989, 7599, 3377, 2960, 2961, 3376, 995
6838, 5595, 2059, 6045, 2058, 5717, 6056, 7639, 5716, 2065, 6057
6839, 1128, 3403, 3410, 1073, 3458, 3460, 3456, 3627, 8251, 8252
6840, 6115, 6091, 167, 4106, 6164, 6163, 6159, 8945, 9059, 4111
6841, 3208, 1057, 3191, 1116, 8074, 8073, 3257, 8446, 7877, 9366
6842, 742, 56, 55, 2258, 2667, 546, 2668, 8898, 2360, 2359
6843, 6123, 1415, 1578, 6890, 9484, 9485, 8938, 8940, 9470, 8939
6844, 1045, 1143, 3501, 1046, 3601, 3549, 8396, 1052, 3602, 8588
6845, 1060, 1059, 3201, 1087, 1066, 9375, 9486, 3615, 3616, 3249
6846, 416, 407, 406, 6849, 2175, 410, 2176, 8439, 8438, 9217
6847, 2266, 3027, 840, 839, 8809, 8683, 8810, 9285, 9284, 846
6848, 1754, 1753, 287, 285, 1760, 4912, 4911, 7945, 7944, 1750
6849, 6453, 6427, 6486, 6832, 6662, 6664, 6663, 8795, 8781, 8779
6850, 228, 1658, 227, 6879, 1659, 4634, 1537, 9234, 8929, 9487
6851, 263, 4684, 1840, 310, 4715, 9488, 5264, 9073, 9072, 1843
6852, 398, 390, 389, 6887, 2162, 393, 2163, 9489, 9423, 8109
6853, 398, 399, 390, 6887, 402, 2160, 2162, 9489, 9424, 9423
6854, 3507, 3501, 1046, 1113, 3572, 8588, 8590, 8866, 9361, 7620
6855, 5615, 5432, 5620, 6897, 7427, 8291, 5704, 8420, 8418, 9207
6856, 15, 6812, 13, 6876, 9490, 8868, 432, 9491, 8872, 8870
6857, 1030, 1029, 3700, 649, 1036, 7993, 7994, 9492, 8102, 9493
6858, 1084, 3199, 1056, 1057, 3240, 7122, 3610, 3609, 8072, 1063
6859, 1140, 3499, 1042, 1043, 3540, 9389, 3596, 3595, 9494, 1049
6860, 1098, 3286, 1028, 1029, 3325, 6968, 3582, 3581, 7090, 1035
6861, 6105, 172, 4130, 1781, 6174, 4131, 8383, 6179, 6178, 8340
6862, 1070, 1126, 3411, 1071, 3624, 3450, 8493, 1077, 3623, 7534
6863, 2861, 798, 2858, 6894, 9364, 9495, 2923, 8833, 9365, 8423
6864, 2061, 6047, 5604, 2060, 6065, 9288, 5729, 2067, 6066, 5728
6865, 255, 1658, 256, 6871, 4636, 1660, 1661, 9496, 7910, 9497
6866, 255, 1654, 1658, 6871, 1656, 4635, 4636, 9496, 7911, 7910
6867, 303, 1987, 5879, 1799, 5529, 5891, 9498, 1805, 5530, 9499
6868, 1170, 6135, 3682, 1171, 6262, 9336, 3832, 1174, 6263, 3831
6869, 245, 244, 6808, 6812, 1608, 9500, 8764, 7976, 8673, 9188
6870, 6128, 6112, 6105, 6868, 6333, 6238, 6176, 8487, 7702, 8385
6871, 416, 406, 415, 6849, 2176, 2172, 419, 8439, 9217, 9443
6872, 5440, 5598, 5619, 1961, 7013, 5698, 7903, 5454, 5697, 5694
6873, 3029, 3700, 1029, 649, 7992, 7993, 3061, 8103, 9493, 8102
6874, 1991, 5875, 1803, 1992, 5910, 8387, 5538, 1998, 5911, 5540
6875, 1754, 1418, 5789, 5617, 9501, 9134, 7344, 7346, 9136, 6922
6876, 227, 1658, 1654, 6879, 4634, 4635, 1655, 9487, 8929, 9128
6877, 5874, 362, 1802, 5882, 9502, 7565, 8578, 5938, 9214, 8579
6878, 47, 766, 3113, 79, 2674, 9426, 9427, 826, 767, 9503
6879, 645, 1070, 3156, 6477, 8895, 3163, 7990, 9504, 9505, 9009
6880, 2274, 3068, 854, 853, 8299, 9085, 9084, 9506, 9248, 860
6881, 523, 3716, 2298, 2290, 3766, 8920, 2412, 2307, 8921, 2414
6882, 2074, 5877, 5609, 5871, 5924, 9105, 5751, 5920, 5925, 9106
6883, 3361, 3418, 115, 2853, 8254, 9013, 3368, 9032, 8973, 9224
6884, 6358, 6355, 6357, 516, 6379, 6414, 6403, 8739, 8740, 8461
6885, 3651, 3653, 3654, 6895, 3874, 3893, 3892, 7881, 7496, 7274
6886, 3706, 6817, 6842, 6895, 7550, 8433, 7229, 7495, 8574, 8467
6887, 5970, 2107, 2059, 6852, 8626, 6062, 8815, 7539, 7756, 8935
6888, 3199, 1057, 3208, 1116, 8072, 8074, 3259, 8506, 7877, 8446
6889, 1144, 1046, 3496, 1143, 3603, 8589, 3552, 1150, 3602, 3551
6890, 3196, 1088, 1060, 1087, 3252, 3617, 9507, 3251, 1094, 3615
6891, 1991, 1802, 5870, 1990, 5539, 8580, 5908, 1997, 5536, 5907
6892, 8, 399, 10, 6828, 2159, 403, 404, 9326, 9508, 8570
6893, 399, 8, 390, 6828, 2159, 394, 2160, 9508, 9326, 9509
6894, 4682, 4662, 4683, 6865, 4811, 4759, 4812, 7148, 7107, 9014
6895, 1686, 4684, 263, 6823, 4716, 4715, 1688, 7971, 9076, 9074
6896, 5609, 6041, 362, 5882, 9221, 6048, 9220, 9107, 8720, 9214
6897, 1031, 1032, 1101, 3282, 1038, 3587, 3588, 9410, 9510, 3334
6898, 2033, 1947, 1948, 5962, 5577, 1954, 5578, 5985, 9411, 8212
6899, 1099, 3283, 1029, 1030, 3328, 8186, 3583, 3584, 9511, 1036
6900, 6449, 6469, 6861, 6862, 6756, 9406, 9200, 7113, 7114, 9512
6901, 2275, 2269, 2299, 6893, 2501, 2385, 2472, 8545, 7767, 7671
6902, 571, 572, 850, 2261, 578, 2714, 2712, 2445, 2444, 8393
6903, 6044, 2106, 5603, 6836, 6054, 8782, 9513, 9035, 7503, 8838
6904, 524, 3700, 3029, 649, 3775, 7992, 8937, 9225, 9493, 8103
6905, 4130, 4124, 171, 6105, 8476, 4125, 4135, 8383, 8477, 6175
6906, 181, 4190, 6119, 6094, 4195, 9514, 6198, 6202, 9515, 6203
6907, 299, 301, 4964, 1802, 1797, 4983, 7879, 7878, 4982, 4984
6908, 3191, 1057, 1085, 1058, 8073, 3612, 3243, 7545, 1064, 3611
6909, 1043, 1141, 3491, 1044, 3597, 3543, 9414, 1050, 3598, 9516
6910, 1566, 1712, 5353, 4293, 4765, 5387, 9517, 8319, 7969, 7970
6911, 4196, 1395, 141, 1417, 4199, 1397, 4200, 9518, 9520, 9519
6912, 1004, 3406, 3412, 2853, 3439, 3444, 3443, 2995, 9124, 8972
6913, 299, 301, 300, 6815, 1797, 1795, 4957, 8521, 9273, 9272
6914, 993, 3361, 106, 2853, 3373, 3369, 1000, 2882, 9032, 2883
6915, 41, 784, 42, 6864, 2650, 2649, 532, 9521, 9522, 8814
6916, 273, 6815, 4686, 6838, 8379, 7731, 4743, 9003, 8069, 7705
6917, 1832, 1839, 1944, 5363, 5063, 9523, 8601, 8602, 9352, 5372
6918, 2839, 3500, 1019, 2860, 7260, 3535, 3008, 2963, 7517, 3009
6919, 836, 835, 2277, 3032, 842, 9270, 8151, 8152, 9178, 8123
6920, 5366, 1714, 278, 1704, 5370, 1721, 5371, 9242, 4762, 4761
6921, 6096, 299, 297, 6820, 6244, 1794, 6245, 7039, 8537, 8469
6922, 5599, 5432, 5444, 6897, 8292, 5489, 8976, 7982, 8418, 9524
6923, 852, 2277, 2296, 6889, 9206, 2428, 8932, 8743, 8124, 7855
6924, 3403, 1074, 1129, 3409, 8200, 3630, 3459, 3463, 8201, 3461
6925, 1059, 3197, 1086, 1058, 9322, 3246, 3613, 1065, 7135, 3614
6926, 1142, 1044, 1045, 3497, 3600, 1051, 3599, 3546, 8560, 7056
6927, 1045, 6901, 2862, 6902, 7132, 8864, 7060, 8553, 9177, 8552
6928, 73, 784, 41, 6864, 785, 2650, 813, 9525, 9522, 9521
6929, 1188, 1189, 137, 1415, 1200, 4023, 4022, 4253, 4254, 9526
6930, 3281, 2843, 2849, 980, 7168, 2957, 8748, 3300, 2958, 2877
6931, 3416, 2844, 3412, 6830, 7626, 8982, 3486, 7631, 7629, 8974
6932, 1335, 4124, 152, 6868, 4127, 4126, 1336, 9527, 8478, 8649
6933, 6477, 3156, 645, 552, 9009, 7990, 9504, 6553, 8025, 9182
6934, 2848, 3367, 990, 991, 9528, 3386, 2972, 2973, 3385, 997
6935, 57, 89, 736, 2263, 821, 737, 2660, 2365, 7221, 8700
6936, 225, 6879, 6822, 6880, 9529, 9530, 9531, 9532, 9534, 9533
6937, 1074, 3150, 1075, 801, 3190, 3189, 1081, 8641, 9535, 8640
6938, 5594, 5794, 2045, 5787, 7432, 5807, 5708, 7433, 5829, 5828
6939, 1832, 335, 136, 5365, 7468, 9536, 9537, 8603, 5376, 8761
6940, 6127, 6110, 177, 4166, 6191, 6190, 6186, 8127, 8128, 4171
6941, 2846, 3420, 3414, 6837, 8484, 3490, 9294, 9538, 9151, 9115
6942, 3711, 3691, 3649, 6831, 3884, 3799, 3882, 9145, 8586, 9147
6943, 2275, 863, 3114, 864, 9275, 9274, 9120, 9172, 870, 8959
6944, 1099, 3283, 1030, 3276, 3328, 9511, 3584, 3330, 3332, 9539
6945, 798, 1032, 2859, 6894, 9540, 7256, 8426, 9365, 7746, 7747
6946, 112, 93, 98, 6477, 9541, 9542, 9017, 9543, 6552, 9544
6947, 106, 2852, 3365, 988, 2880, 8954, 3370, 994, 2881, 3372
6948, 3507, 1113, 989, 6860, 8866, 3382, 8000, 8002, 7619, 8004
6949, 6044, 2106, 2058, 5603, 6054, 6058, 6052, 9513, 8782, 5721
6950, 1979, 5790, 1756, 1757, 5824, 8413, 5526, 5517, 8231, 1763
6951, 4672, 4683, 5360, 6865, 4785, 9545, 8190, 7824, 9014, 8086
6952, 2842, 2863, 3287, 975, 2950, 8377, 8164, 2949, 2946, 3298
6953, 1412, 5603, 5607, 6836, 9546, 5652, 8555, 8215, 8838, 7442
6954, 1704, 1714, 4683, 5023, 4762, 4772, 4758, 8320, 8901, 8824
6955, 880, 2275, 2295, 6886, 9056, 2468, 9180, 8482, 8544, 7717
6956, 2847, 3365, 988, 1112, 9415, 3372, 2965, 8507, 3374, 3378
6957, 891, 794, 2851, 892, 2758, 9439, 2891, 901, 2760, 2890
6958, 1432, 1433, 1413, 5607, 1442, 4275, 4272, 5647, 5646, 9387
6959, 3680, 1, 4, 6858, 3721, 378, 3722, 9012, 9236, 9175
6960, 6139, 6825, 6116, 6858, 7978, 8944, 6223, 8266, 8267, 9547
6961, 2273, 515, 2272, 6359, 2309, 2403, 2405, 8458, 8726, 8968
6962, 1658, 228, 229, 6877, 1659, 1541, 4637, 8928, 9233, 9548
6963, 41, 787, 73, 6864, 2645, 789, 813, 9521, 9549, 9525
6964, 2033, 5956, 5962, 1948, 5987, 5989, 5985, 5578, 8211, 8212
6965, 6458, 2121, 2120, 6133, 6611, 2124, 6612, 9201, 6302, 6299
6966, 3286, 1098, 3283, 1029, 3325, 3327, 3329, 7090, 3581, 8186
6967, 4885, 268, 5320, 6833, 8260, 5321, 9550, 7635, 8893, 8963
6968, 1662, 257, 256, 6869, 1664, 1665, 4639, 9551, 9553, 9552
6969, 297, 296, 294, 6838, 1789, 1790, 4955, 9154, 9155, 9332
6970, 6447, 6449, 6839, 6862, 6744, 9554, 7997, 8623, 7113, 8264
6971, 1031, 614, 67, 3031, 8456, 615, 9555, 3062, 8274, 9211
6972, 301, 299, 1803, 1802, 1797, 8688, 4981, 4982, 7878, 1809
6973, 3411, 1126, 3402, 1071, 3450, 3452, 3454, 7534, 3623, 8185
6974, 3669, 3688, 3655, 6892, 3917, 3909, 3915, 7833, 8005, 8682
6975, 1031, 3282, 1100, 3276, 9410, 3333, 3586, 9556, 3335, 3331
6976, 4693, 4659, 4884, 4692, 4735, 7712, 8421, 4795, 4794, 7713
6977, 3193, 104, 2830, 3202, 3209, 2873, 7935, 3216, 3214, 7934
6978, 1951, 2036, 5967, 5960, 5583, 5994, 8304, 8055, 5996, 5998
6979, 40, 787, 41, 6864, 2646, 2645, 531, 9024, 9549, 9521
6980, 1415, 1434, 1435, 5618, 4277, 1444, 4279, 9469, 5659, 5658
6981, 1434, 1415, 1414, 5618, 4277, 1424, 4276, 5659, 9469, 9121
6982, 1658, 229, 1662, 6877, 4637, 1663, 4638, 8928, 9548, 9190
6983, 1116, 1115, 3632, 6893, 1122, 3638, 3639, 8605, 7477, 8271
6984, 167, 4100, 6115, 4106, 4101, 8947, 6159, 4111, 8946, 8945
6985, 1057, 1084, 3199, 3191, 3609, 3240, 8072, 8073, 3242, 3244
6986, 3491, 3499, 1140, 1043, 3544, 3540, 3542, 9414, 9494, 3595
6987, 346, 1834, 345, 6807, 8514, 9103, 2012, 9557, 9296, 9295
6988, 6044, 2058, 357, 5608, 6052, 2064, 6050, 9061, 5637, 5636
6989, 5783, 1754, 5795, 6844, 9050, 7345, 5843, 9463, 8406, 8132
6990, 1059, 3197, 3201, 1086, 9322, 3250, 9375, 3613, 3246, 3248
6991, 3497, 1142, 3501, 1045, 3546, 3548, 3550, 7056, 3599, 8396
6992, 434, 425, 424, 6849, 2189, 428, 2190, 9374, 9558, 9468
6993, 433, 434, 424, 6849, 437, 2190, 2186, 9278, 9374, 9468
6994, 6471, 6819, 6443, 6861, 7177, 7126, 6666, 9314, 9559, 9316
6995, 110, 646, 793, 6863, 8527, 8825, 9063, 7331, 8100, 8135
6996, 6481, 6828, 6484, 6854, 7412, 8504, 6621, 6998, 7413, 8268
6997, 1365, 147, 4160, 1755, 1367, 4164, 4163, 9362, 9369, 8632
6998, 2089, 5964, 5616, 5595, 6012, 8240, 5765, 5764, 7348, 5719
6999, 364, 371, 363, 1454, 2140, 2137, 367, 9319, 8235, 9320
7000, 3027, 3030, 839, 6864, 3056, 9560, 9284, 8615, 9025, 9286
7001, 896, 799, 798, 2861, 2768, 808, 2769, 2918, 8861, 9364
7002, 4669, 4668, 4670, 6896, 4829, 4834, 4833, 7169, 8034, 8483
7003, 1056, 3362, 1117, 1116, 6937, 3401, 7303, 9561, 3398, 1123
7004, 1112, 3364, 1047, 1113, 3379, 7408, 7586, 1119, 3383, 9562
7005, 646, 2273, 6359, 6363, 9268, 8458, 6399, 6398, 7840, 6400
7006, 1582, 6104, 1581, 239, 9317, 7648, 1588, 4572, 6219, 4573
7007, 1756, 1978, 5785, 5790, 5525, 5821, 9563, 8413, 5823, 5825
7008, 3700, 37, 2265, 837, 3774, 2314, 8195, 9564, 9566, 9565
7009, 6443, 6483, 6428, 6861, 6669, 6668, 6667, 9316, 9567, 9315
7010, 1755, 6127, 6110, 1779, 8131, 6191, 8130, 4938, 6285, 6283
7011, 882, 2263, 3150, 881, 9568, 7130, 9569, 888, 9071, 8827
7012, 3712, 6845, 3657, 6892, 7738, 7423, 3925, 8007, 9400, 8006
7013, 1752, 1753, 2111, 6904, 1759, 9570, 7917, 9363, 8882, 7996
7014, 151, 1340, 4130, 1757, 1341, 4133, 4132, 9571, 9572, 8111
7015, 1033, 3028, 109, 1115, 3041, 3035, 1040, 8524, 7475, 8457
7016, 3191, 1085, 3197, 1058, 3243, 3245, 3247, 7545, 3611, 7135
7017, 3491, 3497, 1044, 1141, 3547, 8560, 9516, 3543, 3545, 3598
7018, 5596, 5588, 6042, 6844, 5739, 7593, 9573, 7894, 7595, 7594
7019, 372, 1454, 371, 364, 8236, 8235, 375, 2142, 9319, 2140
7020, 598, 878, 2297, 879, 2744, 9574, 2481, 2745, 885, 9168
7021, 295, 290, 4890, 4886, 1788, 4929, 7560, 9054, 4925, 4930
7022, 730, 60, 59, 3151, 2651, 550, 2652, 9575, 9576, 9382
7023, 4293, 5358, 5353, 1455, 7161, 5416, 7970, 4312, 8522, 7967
7024, 2855, 2845, 801, 6830, 2937, 9577, 8999, 7546, 8217, 9000
7025, 6134, 345, 1834, 6854, 9183, 9103, 6259, 9578, 9297, 9298
7026, 2062, 2110, 5798, 5596, 6077, 8568, 7814, 5740, 9413, 7094
7027, 3663, 6874, 6875, 6900, 7176, 9579, 7816, 8453, 8776, 8513
7028, 1153, 649, 3715, 648, 6405, 9143, 3830, 6404, 654, 9300
7029, 2018, 6809, 6832, 6885, 8092, 9580, 9581, 8490, 8194, 9582
7030, 6108, 6121, 6091, 6841, 6309, 6167, 6310, 8075, 8188, 9060
7031, 645, 646, 2127, 6494, 651, 6394, 6395, 9583, 9584, 6618
7032, 6041, 2063, 5609, 357, 6053, 5638, 9221, 6049, 2070, 5639
7033, 796, 1029, 6889, 6901, 7310, 9585, 8335, 9586, 7804, 7322
7034, 247, 248, 1627, 6870, 1626, 1629, 4612, 9587, 9110, 9111
7035, 6102, 6841, 6129, 6882, 8358, 8359, 6338, 8736, 9588, 8799
7036, 5970, 2107, 1951, 5960, 8626, 7683, 8303, 6033, 8627, 8055
7037, 238, 2109, 6047, 5444, 7466, 6074, 9360, 9359, 8890, 8428
7038, 306, 275, 4959, 1819, 1926, 8146, 5005, 1821, 5270, 4971
7039, 214, 220, 1627, 6878, 1505, 4610, 1628, 9108, 9589, 8237
7040, 3278, 1033, 1032, 1102, 7156, 1039, 7258, 3337, 3580, 3589
7041, 3663, 3652, 3696, 6875, 3897, 3790, 3871, 7816, 9590, 7818
7042, 1101, 1032, 3278, 3282, 3587, 7258, 3336, 3334, 9510, 3338
7043, 214, 6362, 189, 6878, 6372, 7872, 9591, 9108, 8238, 9592
7044, 6486, 6832, 6469, 6862, 8779, 8780, 6665, 7115, 9593, 7114
7045, 1826, 6120, 1804, 1825, 6155, 9350, 5012, 1828, 6287, 5011
7046, 1627, 1623, 247, 6870, 4611, 1625, 4612, 9111, 9594, 9587
7047, 2857, 1029, 796, 6901, 7088, 7310, 7308, 7803, 7804, 9586
7048, 3682, 6785, 1171, 1454, 9337, 9595, 3831, 9596, 9597, 6268
7049, 3073, 2293, 849, 850, 8538, 9006, 8044, 8542, 8541, 856
7050, 1623, 1627, 220, 6878, 4611, 4610, 1624, 9598, 8237, 9589
7051, 4214, 1580, 1592, 1579, 9599, 4585, 9600, 9601, 1586, 4586
7052, 736, 58, 57, 2263, 2659, 548, 2660, 8700, 2366, 2365
7053, 6119, 6093, 6107, 6850, 6200, 6320, 6319, 9436, 8969, 8218
7054, 424, 425, 416, 6849, 428, 2184, 2182, 9468, 9558, 8439
7055, 424, 416, 415, 6849, 2182, 419, 2179, 9468, 8439, 9443
7056, 273, 4686, 272, 6838, 4743, 4742, 1699, 9003, 7705, 8731
7057, 1375, 4172, 144, 6840, 4175, 4174, 1376, 9228, 8687, 9191
7058, 880, 599, 2275, 2255, 2747, 2491, 9056, 8479, 2486, 2492
7059, 4190, 6119, 6094, 6850, 9514, 6203, 9515, 9419, 9436, 8096
7060, 839, 2281, 2266, 6864, 9602, 2435, 9285, 9286, 9204, 8366
7061, 1781, 6105, 288, 4894, 6179, 6236, 1785, 4922, 8384, 4919
7062, 2835, 2853, 3412, 6830, 3000, 8972, 9603, 9604, 8975, 8974
7063, 6821, 6871, 253, 6872, 7352, 9605, 9606, 9607, 9609, 9608
7064, 254, 1654, 255, 6871, 4633, 1656, 1657, 9610, 7911, 9496
7065, 254, 1650, 1654, 6871, 1652, 4632, 4633, 9610, 9611, 7911
7066, 2840, 964, 3198, 3205, 2942, 3229, 8471, 8611, 3224, 3231
7067, 1002, 3408, 3414, 2846, 3433, 3438, 3437, 2990, 8485, 9294
7068, 1582, 2109, 5444, 6897, 7588, 8890, 9612, 8992, 8054, 9524
7069, 227, 1650, 226, 6879, 4631, 1651, 1533, 9487, 9149, 9613
7070, 227, 1654, 1650, 6879, 1655, 4632, 4631, 9487, 9128, 9149
7071, 1072, 115, 1112, 6888, 9007, 1118, 7676, 7886, 8326, 7678
7072, 6099, 6826, 6100, 6850, 8415, 8206, 6306, 8219, 9346, 8520
7073, 1802, 6041, 2111, 6829, 8721, 6055, 7940, 8723, 8724, 8430
7074, 3663, 6874, 3717, 6875, 7176, 7174, 3899, 7816, 9579, 9304
7075, 299, 300, 298, 6815, 4957, 1796, 1792, 8521, 9272, 9614
7076, 349, 6423, 6422, 6819, 6583, 6582, 6581, 9615, 7501, 7507
7077, 3646, 3696, 120, 1615, 3787, 3786, 3784, 8548, 8598, 4606
7078, 1757, 1781, 4136, 4895, 4944, 8343, 8424, 4941, 4945, 9455
7079, 5365, 136, 1833, 1211, 8761, 9616, 8666, 8760, 1213, 9390
7080, 6119, 4184, 180, 6093, 9435, 4189, 6199, 6200, 9305, 6195
7081, 2295, 2275, 863, 6886, 2468, 9275, 8767, 7717, 8544, 9026
7082, 1754, 6826, 5617, 6844, 8404, 9347, 7346, 8406, 8407, 8425
7083, 1375, 145, 4172, 6840, 1377, 4176, 4175, 9228, 9617, 8687
7084, 212, 126, 243, 6831, 1486, 4601, 1606, 9095, 9096, 9618
7085, 93, 61, 98, 6477, 815, 9619, 9542, 6552, 6551, 9544
7086, 435, 6807, 444, 6828, 9620, 9621, 2195, 9622, 9624, 9623
7087, 2860, 3494, 1019, 2831, 7515, 3515, 3009, 3010, 7849, 2887
7088, 1580, 1592, 6125, 4214, 4585, 6213, 7662, 9599, 9600, 9625
7089, 46, 45, 772, 6898, 536, 2666, 2665, 8829, 9627, 9626
7090, 5306, 4888, 5305, 6838, 9380, 9628, 5315, 8732, 7847, 9368
7091, 3205, 992, 1116, 6866, 8998, 3397, 8445, 8447, 9384, 7819
7092, 1046, 1144, 3496, 1047, 3603, 3552, 8589, 1053, 3594, 7167
7093, 3196, 1088, 1061, 1060, 3252, 3608, 9629, 9507, 3617, 1067
7094, 166, 4100, 6106, 6115, 4105, 9630, 6156, 6160, 8947, 6161
7095, 727, 93, 98, 112, 729, 9542, 9018, 9016, 9541, 9017
7096, 6464, 6490, 6460, 6843, 6780, 6628, 6782, 9292, 8628, 9247
7097, 6104, 1593, 1581, 239, 6220, 4574, 7648, 6219, 1597, 4573
7098, 3501, 1143, 3496, 1046, 3549, 3551, 3553, 8588, 3602, 8589
7099, 3201, 3196, 1060, 1087, 3253, 9507, 9486, 3249, 3251, 3615
7100, 2037, 5960, 1951, 1952, 5997, 8055, 5585, 5576, 7924, 1958
7101, 2304, 2289, 46, 6898, 2341, 2337, 2339, 8401, 9240, 8829
7102, 6473, 6839, 6445, 6853, 7215, 7387, 6735, 7446, 9631, 9048
7103, 294, 295, 297, 6838, 1786, 1791, 4955, 9332, 9333, 9154
7104, 6427, 6453, 6475, 6832, 6662, 6661, 6574, 8781, 8795, 8856
7105, 835, 95, 3033, 910, 841, 8363, 8804, 2777, 2776, 3038
7106, 59, 730, 3151, 91, 2652, 9575, 9382, 817, 731, 9632
7107, 479, 488, 6356, 6355, 2232, 9089, 8798, 9058, 9340, 6415
7108, 6448, 6450, 6449, 6862, 6749, 6748, 6745, 8624, 8280, 7113
7109, 129, 3644, 3645, 6817, 3809, 3815, 3814, 9633, 7549, 7280
7110, 3288, 1115, 109, 3281, 8525, 8457, 9634, 3305, 8526, 9635
7111, 3493, 108, 2850, 3502, 3509, 2885, 7064, 3516, 3514, 9636
7112, 5433, 5436, 5441, 6899, 5496, 5492, 5511, 7650, 7651, 9637
7113, 1670, 232, 1674, 6824, 4646, 1675, 4647, 9138, 9638, 9139
7114, 6082, 2111, 2110, 6904, 6085, 2117, 6089, 7799, 7996, 8695
7115, 1947, 1211, 5361, 1948, 8762, 8909, 5399, 1954, 9639, 5398
7116, 1454, 1212, 137, 5356, 8234, 1215, 9640, 7623, 7876, 8846
7117, 98, 882, 2302, 3151, 889, 9641, 9642, 9020, 9478, 9643
7118, 257, 1666, 258, 6869, 4642, 1668, 1669, 9553, 9645, 9644
7119, 257, 1662, 1666, 6869, 1664, 4641, 4642, 9553, 9551, 9645
7120, 44, 775, 45, 6898, 2662, 2661, 535, 8979, 8346, 9627
7121, 79, 47, 769, 3113, 826, 2669, 771, 9503, 9427, 9646
7122, 6470, 6843, 6455, 6862, 8630, 8669, 6771, 7029, 9647, 7031
7123, 6090, 6098, 283, 6826, 6229, 6228, 6224, 8208, 8573, 8247
7124, 892, 3502, 1014, 3495, 9648, 3513, 2899, 7255, 3523, 3522
7125, 1962, 5613, 5619, 6899, 5699, 5700, 5695, 8434, 9649, 8435
7126, 6356, 6355, 497, 516, 6415, 9379, 9042, 8460, 8740, 9044
7127, 2106, 5616, 2058, 5603, 8223, 5718, 6058, 8782, 5722, 5721
7128, 1112, 988, 2847, 2860, 3378, 2965, 8507, 8138, 2962, 2966
7129, 5366, 278, 1944, 1704, 5371, 1945, 5373, 9242, 4761, 9483
7130, 1933, 272, 5306, 6838, 1934, 5307, 5310, 9367, 8731, 8732
7131, 45, 77, 772, 6898, 822, 773, 2666, 9627, 9377, 9626
7132, 3663, 3717, 3652, 6875, 3899, 3898, 3897, 7816, 9304, 9590
7133, 5870, 5875, 1803, 1991, 5912, 8387, 8386, 5908, 5910, 5538
7134, 229, 230, 1666, 6877, 1545, 1667, 4640, 9548, 9650, 9197
7135, 1662, 229, 1666, 6877, 1663, 4640, 4641, 9190, 9548, 9197
7136, 3714, 3660, 3659, 6876, 3930, 3921, 3931, 9651, 9125, 9652
7137, 2845, 3361, 993, 2853, 9653, 3373, 2988, 2987, 9032, 2882
7138, 1755, 1779, 1780, 6126, 4938, 1783, 4940, 8634, 6282, 6185
7139, 730, 60, 3151, 92, 2651, 9576, 9575, 732, 814, 9654
7140, 95, 100, 109, 3033, 2775, 1027, 7757, 8363, 3037, 3036
7141, 98, 103, 112, 3156, 2817, 1069, 9017, 9655, 3160, 3159
7142, 98, 112, 103, 3151, 9017, 1069, 2817, 9020, 3158, 3157
7143, 109, 100, 95, 3028, 1027, 2775, 7757, 3035, 3034, 7669
7144, 273, 1930, 6815, 6838, 1931, 8312, 8379, 9003, 9004, 8069
7145, 42, 784, 74, 6864, 2649, 786, 816, 8814, 9522, 9656
7146, 2108, 1577, 4543, 238, 7324, 4550, 7783, 9208, 1583, 4562
7147, 3507, 1046, 3496, 1113, 8590, 8589, 3571, 8866, 7620, 8867
7148, 248, 308, 6365, 6870, 9657, 9262, 6382, 9110, 9264, 9109
7149, 2267, 64, 97, 583, 2396, 862, 8443, 2395, 589, 2721
7150, 1802, 5874, 5870, 1990, 8578, 5909, 8580, 5536, 5905, 5907
7151, 769, 47, 46, 3113, 2669, 537, 2670, 9646, 9427, 8828
7152, 2256, 2277, 573, 852, 2454, 2453, 2448, 8741, 9206, 2716
7153, 5885, 362, 1801, 5874, 8849, 9049, 9027, 5931, 9502, 9029
7154, 39, 790, 40, 3030, 2644, 2643, 530, 9068, 9658, 9022
7155, 5601, 2063, 5609, 6041, 5744, 5638, 5743, 9659, 6053, 9221
7156, 3687, 3705, 3704, 6858, 3948, 3843, 3945, 9011, 9257, 9660
7157, 1171, 6135, 3682, 1454, 6263, 9336, 3831, 6268, 6267, 9596
7158, 877, 98, 3156, 949, 883, 9655, 7035, 2819, 2818, 3161
7159, 45, 775, 77, 6898, 2661, 777, 822, 9627, 8346, 9377
7160, 6128, 4118, 170, 6095, 8496, 4119, 6172, 6173, 8180, 6168
7161, 96, 923, 3074, 849, 2790, 3079, 7362, 855, 2791, 7716
7162, 1754, 1779, 1755, 6109, 4915, 4938, 1761, 9212, 6233, 9403
7163, 1834, 344, 2008, 5547, 6257, 2010, 6254, 9104, 5553, 5555
7164, 3701, 3684, 6891, 6900, 4004, 8305, 8306, 9156, 9157, 9661
7165, 6044, 1801, 2106, 6836, 9034, 8078, 6054, 9035, 7936, 7503
7166, 727, 61, 60, 98, 2647, 551, 2648, 9018, 9619, 9662
7167, 1733, 1580, 5430, 1732, 4879, 9663, 5468, 1739, 4876, 5467
7168, 6439, 6440, 6843, 6885, 6647, 9283, 7850, 7854, 8176, 7853
7169, 3688, 3655, 6892, 6895, 3909, 8682, 8005, 7273, 7860, 8962
7170, 1990, 1801, 5874, 1989, 5537, 9029, 5905, 1996, 5534, 5904
7171, 39, 614, 68, 3030, 2528, 616, 617, 9068, 8275, 9664
7172, 6479, 6138, 6480, 6854, 7942, 9665, 6615, 9666, 9667, 7000
7173, 1567, 1461, 1566, 4695, 4537, 4532, 1569, 4763, 8903, 4764
7174, 572, 852, 2256, 573, 2715, 8741, 2449, 579, 2716, 2448
7175, 4663, 267, 4690, 6833, 4725, 4727, 4729, 7813, 8894, 6991
7176, 838, 614, 38, 39, 8272, 2529, 9668, 9069, 2528, 529
7177, 4178, 180, 4184, 6093, 4179, 4189, 9306, 7740, 6195, 9305
7178, 3716, 2290, 35, 6900, 8921, 2306, 3767, 9266, 8442, 9265
7179, 281, 1734, 1582, 5444, 1741, 4871, 4867, 5448, 5452, 9612
7180, 266, 5332, 267, 6833, 5334, 5333, 1693, 9259, 9260, 8894
7181, 6047, 5604, 5605, 2061, 9288, 5630, 8887, 6065, 5729, 5736
7182, 6046, 5589, 2059, 6852, 8652, 5723, 6061, 8671, 8670, 8935
7183, 280, 279, 4540, 6816, 1727, 9669, 8660, 8659, 9670, 8389
7184, 6498, 6451, 6448, 6862, 6752, 6751, 6741, 7106, 8322, 8624
7185, 1208, 6468, 2119, 2131, 7395, 6560, 9671, 6794, 6558, 6610
7186, 352, 6474, 6424, 6885, 6592, 6594, 6587, 9672, 7998, 8019
7187, 111, 97, 102, 3115, 7103, 2803, 1055, 3118, 8444, 3119
7188, 110, 96, 101, 3074, 7327, 2789, 1041, 3077, 7362, 3078
7189, 1731, 1578, 5428, 1730, 4875, 9673, 5462, 1737, 4872, 5461
7190, 102, 97, 111, 3110, 2803, 7103, 1055, 3116, 7018, 3117
7191, 101, 96, 110, 3072, 2789, 7327, 1041, 3075, 8860, 3076
7192, 757, 51, 3110, 83, 2685, 8996, 8997, 759, 833, 9674
7193, 68, 790, 39, 3030, 791, 2644, 617, 9664, 9658, 9068
7194, 992, 2832, 3363, 6866, 2977, 7927, 3390, 9384, 8951, 7820
7195, 6483, 6447, 6459, 6861, 6733, 6746, 6670, 9567, 9198, 9199
7196, 5612, 1415, 5618, 6890, 9675, 9469, 5670, 9094, 9470, 9117
7197, 5319, 4885, 5320, 6833, 9676, 9550, 5330, 9472, 7635, 8963
7198, 2262, 597, 878, 2278, 2483, 2743, 8612, 2394, 2485, 8891
7199, 583, 97, 2267, 863, 2721, 8443, 2395, 2723, 869, 8768
7200, 1800, 304, 1801, 6903, 4998, 4997, 1807, 6913, 9102, 7937
7201, 4963, 304, 4962, 6903, 5003, 4995, 5004, 8466, 9102, 7810
7202, 6450, 6451, 6452, 6862, 6750, 6758, 6757, 8280, 8322, 7030
7203, 599, 879, 2255, 880, 2746, 9130, 2486, 2747, 886, 8479
7204, 599, 879, 598, 2255, 2746, 2745, 605, 2486, 9130, 2487
7205, 1991, 1802, 1803, 5870, 5539, 1809, 5538, 5908, 8580, 8386
7206, 1417, 6826, 5617, 6840, 9677, 9347, 9678, 8290, 9271, 9348
7207, 751, 52, 84, 3110, 2680, 831, 752, 8697, 8698, 9679
7208, 3280, 105, 2848, 3287, 3294, 2875, 9100, 3301, 3299, 8802
7209, 5609, 2074, 5871, 2073, 5751, 5920, 9106, 5750, 2080, 5921
7210, 3367, 2848, 2849, 991, 9528, 2879, 9680, 3385, 2973, 2980
7211, 284, 282, 285, 6833, 1746, 4882, 1745, 9402, 9372, 8282
7212, 1976, 1753, 5783, 1975, 5521, 8952, 5815, 1982, 5519, 5814
7213, 6820, 6841, 6102, 6882, 8620, 8358, 7038, 9226, 9588, 8736
7214, 727, 93, 61, 98, 729, 815, 2647, 9018, 9542, 9619
7215, 97, 863, 936, 3115, 869, 2805, 2804, 8444, 8769, 3120
7216, 3366, 2833, 989, 6860, 7862, 2967, 3381, 7906, 8819, 8004
7217, 137, 1455, 1454, 5356, 9079, 1458, 9640, 8846, 7968, 7623
7218, 1593, 1581, 6114, 6104, 4574, 7647, 6278, 6220, 7648, 6277
7219, 1803, 1825, 6111, 301, 4985, 6250, 7041, 4981, 1827, 6247
7220, 954, 3150, 953, 881, 3178, 3177, 960, 2829, 8827, 2827
7221, 6116, 3658, 3665, 6825, 8941, 3819, 7529, 8944, 7721, 8966
7222, 182, 6113, 4196, 6094, 6205, 8093, 4201, 6201, 6206, 8094
7223, 911, 835, 3032, 910, 2780, 9178, 3043, 917, 2777, 3042
7224, 285, 282, 283, 6833, 4882, 1742, 1747, 8282, 9372, 9373
7225, 96, 575, 2278, 854, 2705, 2391, 8859, 861, 2709, 8746
7226, 5437, 5442, 1436, 5431, 5503, 9681, 7120, 5485, 5504, 9682
7227, 4100, 4106, 156, 6841, 8946, 4110, 4102, 8949, 8950, 9683
7228, 40, 39, 3030, 2292, 530, 9068, 9022, 2319, 2318, 9021
7229, 1046, 1112, 1047, 1113, 8532, 7586, 1053, 7620, 1119, 9562
7230, 1057, 1056, 1117, 1116, 1063, 7303, 8511, 7877, 9561, 1123
7231, 5306, 292, 5305, 4888, 5309, 5314, 5315, 9380, 4934, 9628
7232, 6489, 6843, 6440, 6885, 9282, 9283, 6721, 7248, 7853, 8176
7233, 913, 837, 3031, 912, 2784, 9684, 3049, 919, 2781, 3048
7234, 287, 284, 4887, 286, 4883, 9401, 4907, 1748, 1749, 4906
7235, 2108, 5598, 5604, 2060, 8463, 5696, 9087, 6067, 5731, 5728
7236, 990, 1114, 2848, 2842, 3387, 8801, 2972, 2975, 8165, 2948
7237, 772, 78, 46, 6898, 774, 824, 2665, 9626, 9685, 8829
7238, 798, 6855, 1032, 6894, 9686, 8061, 9540, 9365, 7460, 7746
7239, 923, 3073, 849, 924, 3083, 8044, 2791, 930, 3084, 2794
7240, 1581, 6826, 1582, 6897, 8600, 8248, 1588, 8813, 8993, 8992
7241, 926, 851, 3069, 925, 2798, 7376, 3090, 932, 2795, 3089
7242, 292, 271, 4888, 5306, 1936, 7842, 4934, 5309, 5308, 9380
7243, 733, 91, 59, 3151, 735, 817, 2655, 9687, 9632, 9382
7244, 3720, 3709, 3692, 6891, 3854, 3988, 4006, 8307, 7932, 8865
7245, 3406, 1004, 1003, 2853, 3439, 1010, 3440, 9124, 2995, 2994
7246, 733, 59, 58, 3151, 2655, 549, 2656, 9687, 9382, 9383
7247, 51, 754, 52, 3110, 2684, 2683, 542, 8996, 9688, 8698
7248, 239, 4544, 280, 6883, 4571, 9689, 1728, 9342, 7403, 8661
7249, 1074, 3150, 801, 6857, 3190, 9535, 8641, 9131, 7139, 9001
7250, 1578, 6123, 1591, 1216, 8938, 6217, 4551, 9690, 9692, 9691
7251, 40, 790, 72, 3030, 2643, 792, 812, 9022, 9658, 9693
7252, 6124, 1412, 1800, 1799, 9420, 8213, 9101, 9425, 9694, 1806
7253, 2270, 2262, 597, 878, 2484, 2483, 2480, 7784, 8612, 2743
7254, 839, 838, 2292, 3030, 845, 9695, 9696, 9560, 8276, 9021
7255, 6115, 6130, 6129, 6882, 6354, 6351, 6313, 9697, 8735, 8799
7256, 836, 558, 2265, 2271, 2695, 2429, 7773, 7774, 2430, 2416
7257, 866, 939, 3113, 940, 2811, 3133, 8397, 2814, 946, 3134
7258, 5428, 1730, 1578, 5436, 5461, 4872, 9673, 5463, 5459, 9698
7259, 1802, 1803, 5870, 6829, 1809, 8386, 8580, 8723, 8042, 9181
7260, 6487, 6457, 6473, 6853, 6623, 6634, 6738, 9046, 9150, 7446
7261, 1117, 993, 3362, 2854, 3400, 3395, 3401, 7304, 2986, 7172
7262, 6043, 2111, 2063, 5610, 6081, 6080, 6075, 7024, 8158, 5742
7263, 3205, 3198, 2840, 6866, 3231, 8471, 8611, 8447, 7900, 9385
7264, 6485, 6430, 6832, 6885, 6681, 8857, 8796, 7363, 7393, 9582
7265, 5878, 5608, 5590, 6836, 8284, 5752, 9699, 9112, 9062, 9700
7266, 83, 754, 51, 3110, 755, 2684, 833, 9674, 9688, 8996
7267, 2109, 6047, 5605, 2061, 6074, 8887, 8888, 6072, 6065, 5736
7268, 42, 781, 43, 6864, 2654, 2653, 533, 8814, 9701, 9205
7269, 6786, 6458, 2120, 1833, 9702, 6612, 9703, 9704, 9705, 6298
7270, 3113, 47, 46, 2304, 9427, 537, 8828, 8399, 2340, 2339
7271, 1436, 5445, 5438, 5431, 9706, 5506, 7831, 9682, 5505, 5482
7272, 877, 3155, 950, 949, 7034, 3166, 2822, 2819, 3165, 956
7273, 3504, 1016, 3498, 2837, 3528, 3529, 3530, 8646, 2906, 8986
7274, 1115, 3367, 2849, 991, 3394, 9680, 8747, 3392, 3385, 2980
7275, 950, 878, 951, 3154, 2821, 2824, 957, 3168, 8668, 3169
7276, 953, 880, 3153, 952, 2828, 9179, 3175, 959, 2825, 3174
7277, 6479, 6426, 6436, 6854, 6659, 6646, 6579, 9666, 8577, 9166
7278, 5611, 289, 1419, 5586, 8372, 8371, 8373, 5688, 9708, 9707
7279, 6126, 6127, 1755, 1779, 6188, 8131, 8634, 6282, 6285, 4938
7280, 1779, 6110, 1755, 6840, 6283, 8130, 4938, 9194, 8676, 9404
7281, 1976, 1977, 5789, 1754, 1983, 5818, 5817, 5520, 5522, 7344
7282, 307, 6813, 308, 6861, 9709, 9710, 1830, 8497, 9711, 8118
7283, 882, 601, 65, 2302, 2739, 608, 2735, 9641, 2402, 2376
7284, 98, 882, 65, 2302, 889, 2735, 876, 9642, 9641, 2376
7285, 928, 3068, 927, 853, 3096, 3095, 934, 2801, 9248, 2799
7286, 912, 836, 3029, 911, 2782, 7772, 3046, 918, 2779, 3045
7287, 952, 879, 3152, 951, 2826, 9129, 3172, 958, 2823, 3171
7288, 3113, 866, 867, 2304, 8397, 873, 9712, 8399, 8398, 9713
7289, 1753, 4890, 4889, 6904, 4936, 4937, 4914, 8882, 8246, 7827
7290, 6429, 6827, 6819, 6854, 7091, 8224, 7055, 8328, 9193, 9167
7291, 3071, 852, 926, 927, 8931, 2797, 3092, 3093, 2800, 933
7292, 2852, 2834, 3414, 6837, 2996, 9714, 8357, 8955, 9715, 9115
7293, 941, 3109, 940, 867, 3137, 3136, 947, 2815, 8680, 2813
7294, 2279, 95, 62, 840, 8416, 834, 2381, 7963, 847, 2688
7295, 298, 296, 297, 6815, 1793, 1789, 4956, 9614, 9153, 9152
7296, 863, 936, 3114, 937, 2805, 3124, 9274, 2808, 943, 3125
7297, 355, 1952, 5971, 2037, 5572, 7923, 5976, 2044, 5576, 5980
7298, 914, 838, 3030, 913, 2786, 8276, 3052, 920, 2783, 3051
7299, 3692, 6874, 3679, 6891, 8449, 7790, 3993, 8865, 8749, 8874
7300, 1350, 1757, 150, 4142, 8232, 8233, 1352, 4145, 8956, 4146
7301, 4888, 4886, 294, 6838, 4933, 9331, 9716, 7847, 8013, 9332
7302, 1577, 1578, 1730, 5436, 1584, 4872, 4873, 7316, 9698, 5459
7303, 1335, 153, 4124, 6868, 1337, 4128, 4127, 9527, 9395, 8478
7304, 5434, 5428, 1731, 1579, 5466, 5462, 5464, 9717, 9718, 4874
7305, 2259, 2289, 2294, 6898, 2338, 2479, 2520, 7960, 9240, 8818
7306, 267, 1938, 5320, 6833, 1939, 5323, 5322, 8894, 9473, 8963
7307, 1833, 1832, 136, 5365, 1836, 9537, 9616, 8666, 8603, 8761
7308, 866, 865, 2294, 3111, 872, 8896, 9719, 9447, 8873, 8817
7309, 925, 850, 3070, 924, 2796, 8171, 3087, 931, 2793, 3086
7310, 6813, 6819, 345, 6861, 9092, 9329, 9327, 9711, 9559, 9720
7311, 6480, 6138, 6134, 6854, 9665, 6260, 9721, 7000, 9667, 9578
7312, 801, 2844, 1074, 6830, 9457, 7628, 8641, 9000, 7629, 7630
7313, 6454, 6485, 6832, 6885, 6773, 8796, 8794, 6933, 7363, 9582
7314, 915, 839, 3027, 914, 2787, 9284, 3055, 921, 2785, 3054
7315, 938, 864, 3112, 937, 2810, 8369, 3128, 944, 2807, 3127
7316, 939, 865, 3111, 938, 2812, 8873, 3131, 945, 2809, 3130
7317, 3685, 6835, 3686, 6891, 8662, 8663, 3857, 7931, 9722, 7933
7318, 4685, 1567, 1462, 235, 4700, 4536, 8690, 4699, 1570, 4535
7319, 1804, 160, 1300, 4965, 9723, 1302, 7692, 4994, 9318, 9161
7320, 6139, 246, 4589, 1610, 6222, 4600, 9045, 6221, 1612, 4599
7321, 6447, 6839, 6448, 6862, 7997, 7685, 6739, 8623, 8264, 8624
7322, 865, 3112, 864, 2279, 8143, 8369, 871, 8262, 7552, 8631
7323, 2062, 6042, 5596, 5588, 6070, 9573, 5740, 5733, 7593, 5739
7324, 6461, 6464, 6460, 6843, 6783, 6782, 6541, 9724, 9292, 9247
7325, 3675, 3686, 6848, 6891, 3986, 8834, 8837, 7270, 7933, 9137
7326, 3702, 3701, 3699, 6900, 4003, 4002, 3942, 9158, 9156, 9725
7327, 2837, 2841, 2862, 6860, 3006, 3019, 2907, 9726, 9132, 7870
7328, 1834, 1840, 1833, 6887, 5047, 5064, 1837, 7437, 9727, 8728
7329, 4892, 4887, 4893, 6834, 4947, 4952, 4951, 7718, 7796, 7391
7330, 798, 790, 72, 628, 9728, 792, 9729, 2637, 8753, 2549
7331, 733, 801, 90, 632, 9730, 9731, 734, 8752, 2625, 2589
7332, 6489, 6464, 6465, 6843, 6778, 6784, 6720, 9282, 9292, 9281
7333, 5794, 5586, 5610, 5594, 7485, 5767, 7486, 7432, 5710, 5741
7334, 629, 778, 798, 76, 8757, 9732, 2636, 2558, 780, 9733
7335, 381, 380, 389, 6887, 384, 2155, 2156, 9734, 8108, 8109
7336, 3150, 954, 882, 881, 3178, 2820, 9569, 8827, 2829, 888
7337, 335, 355, 5957, 5968, 5573, 5975, 9735, 9736, 5978, 5981
7338, 1977, 5785, 1755, 1978, 5820, 9737, 5523, 1984, 5821, 5524
7339, 3156, 112, 98, 6477, 3159, 9017, 9655, 9009, 9543, 9544
7340, 953, 880, 881, 3153, 2828, 887, 2827, 3175, 9179, 8656
7341, 835, 911, 3032, 836, 2780, 3043, 9178, 842, 2779, 8152
7342, 299, 1803, 6111, 301, 8688, 7041, 6248, 1797, 4981, 6247
7343, 389, 390, 381, 6887, 393, 2153, 2156, 8109, 9423, 9734
7344, 6811, 6814, 496, 6900, 9738, 9739, 9740, 9741, 9743, 9742
7345, 837, 836, 3029, 912, 843, 7772, 9744, 2781, 2782, 3046
7346, 4892, 4884, 4887, 6834, 4904, 4946, 4947, 7718, 7714, 7796
7347, 6355, 488, 6356, 497, 9340, 9089, 6415, 9379, 2240, 9042
7348, 5881, 5878, 5602, 6836, 5952, 9215, 8315, 8317, 9112, 8316
7349, 838, 837, 3031, 913, 844, 9684, 8273, 2783, 2784, 3049
7350, 52, 754, 84, 3110, 2683, 756, 831, 8698, 9688, 9679
7351, 840, 562, 2300, 2266, 2692, 2437, 7962, 8810, 2433, 2438
7352, 74, 781, 42, 6864, 782, 2654, 816, 9656, 9701, 8814
7353, 5019, 313, 312, 6873, 5050, 1846, 5051, 9745, 9747, 9746
7354, 850, 849, 3073, 924, 856, 8044, 8542, 2793, 2794, 3084
7355, 1754, 285, 6098, 6826, 7945, 6227, 9213, 8404, 9748, 8573
7356, 1754, 6826, 6109, 6840, 8404, 8571, 9212, 9349, 9271, 8675
7357, 498, 331, 329, 6809, 9749, 1867, 9750, 9751, 9308, 8090
7358, 851, 926, 3069, 852, 2798, 3090, 7376, 858, 2797, 8742
7359, 3697, 3708, 3677, 6875, 3900, 3995, 3880, 9451, 9302, 9453
7360, 238, 2108, 1577, 5439, 9208, 7324, 1583, 9752, 8875, 7315
7361, 575, 96, 2278, 63, 2705, 8859, 2391, 582, 848, 2390
7362, 6093, 4178, 179, 6131, 7740, 4183, 6196, 6197, 7741, 6192
7363, 1577, 1578, 5436, 6899, 1584, 9698, 7316, 8059, 9195, 7651
7364, 559, 2265, 37, 837, 2316, 2314, 2315, 2700, 9565, 9566
7365, 2862, 6860, 2833, 6901, 7870, 8819, 3020, 8864, 7201, 7864
7366, 287, 284, 285, 4887, 4883, 1745, 1750, 4907, 9401, 8281
7367, 1073, 3361, 115, 1117, 8255, 3368, 8625, 7461, 3375, 1124
7368, 3365, 1072, 115, 1112, 8348, 9007, 3371, 3374, 7676, 1118
7369, 3660, 3714, 3705, 6876, 3930, 3844, 3937, 9125, 9651, 9127
7370, 3710, 3688, 3669, 6892, 3957, 3917, 3958, 7916, 8005, 7833
7371, 3113, 866, 940, 867, 8397, 2814, 3134, 9712, 873, 2813
7372, 2832, 6866, 2861, 6894, 8951, 7899, 3015, 7929, 7369, 8833
7373, 850, 925, 3070, 851, 2796, 3087, 8171, 857, 2795, 8391
7374, 1455, 1415, 6123, 6890, 9753, 9484, 6216, 9118, 9470, 8940
7375, 6129, 6108, 6091, 6841, 6311, 6310, 6312, 8359, 8075, 9060
7376, 865, 939, 3111, 866, 2812, 3131, 8873, 872, 2811, 9447
7377, 1804, 1803, 5875, 1992, 1810, 8387, 9067, 5531, 5540, 5911
7378, 196, 4289, 195, 6881, 4321, 4320, 1468, 9754, 9756, 9755
7379, 15, 6845, 6812, 6876, 9757, 8853, 9490, 9491, 9758, 8872
7380, 4076, 302, 4965, 303, 9458, 4987, 9759, 9460, 1798, 4988
7381, 2022, 351, 6424, 2018, 2024, 6585, 9461, 5565, 5566, 9760
7382, 6492, 6419, 6487, 6853, 6625, 6622, 6626, 9038, 9039, 9046
7383, 950, 878, 3155, 877, 2821, 7785, 3166, 2822, 884, 7034
7384, 1988, 1989, 5868, 1800, 1995, 5902, 5901, 5532, 5535, 9761
7385, 879, 951, 878, 3154, 2823, 2824, 885, 9169, 3169, 8668
7386, 1753, 1975, 1752, 5791, 5519, 5518, 1759, 8302, 5812, 7220
7387, 5789, 1755, 1418, 1754, 9762, 9763, 9134, 7344, 1761, 9501
7388, 1582, 280, 283, 6826, 9764, 1744, 7590, 8248, 9765, 8247
7389, 3672, 3670, 3671, 6848, 3960, 3952, 3961, 8658, 9280, 8084
7390, 562, 2279, 62, 840, 2382, 2381, 569, 2692, 7963, 2688
7391, 2062, 5596, 6042, 6844, 5740, 9573, 6070, 9766, 7894, 7594
7392, 6839, 6853, 6473, 6862, 9631, 7446, 7215, 8264, 9113, 7105
7393, 5444, 1734, 1582, 5435, 5452, 4871, 9612, 5473, 5471, 9767
7394, 3068, 928, 854, 853, 3096, 2792, 9085, 9248, 2801, 860
7395, 879, 952, 3152, 880, 2826, 3172, 9129, 886, 2825, 8480
7396, 1045, 3069, 6889, 6902, 3103, 8226, 7788, 8553, 8227, 7464
7397, 2299, 95, 62, 2279, 7668, 834, 2386, 2387, 8416, 2381
7398, 927, 3071, 852, 853, 3093, 8931, 2800, 2799, 8617, 859
7399, 3109, 941, 868, 867, 3137, 2806, 9099, 8680, 2815, 874
7400, 5619, 5440, 1961, 5433, 7903, 5454, 5694, 7904, 5476, 5475
7401, 1754, 287, 1779, 6109, 4911, 1782, 4915, 9212, 6230, 6233
7402, 6785, 3682, 6135, 1454, 9337, 9336, 9335, 9597, 9596, 6267
7403, 1834, 6807, 417, 6854, 9296, 9768, 8984, 9298, 9299, 9769
7404, 6120, 1825, 6106, 6882, 6287, 6288, 6158, 9770, 9772, 9771
7405, 937, 3114, 863, 864, 3125, 9274, 2808, 2807, 8959, 870
7406, 839, 838, 3030, 914, 845, 8276, 9560, 2785, 2786, 3052
7407, 4589, 6139, 1453, 244, 9045, 6273, 9773, 4596, 8672, 8515
7408, 297, 299, 298, 6815, 1794, 1792, 4956, 9152, 8521, 9614
7409, 866, 3111, 2294, 6898, 9447, 8817, 9719, 8402, 7711, 8818
7410, 1582, 2109, 238, 5444, 7588, 7466, 1589, 9612, 8890, 9359
7411, 6118, 6125, 184, 4202, 6212, 6211, 6207, 7659, 7660, 4203
7412, 5366, 5360, 4683, 6865, 5395, 9545, 8823, 7828, 8086, 9014
7413, 2846, 2847, 793, 6837, 2895, 9267, 9203, 9538, 8509, 8977
7414, 6498, 6448, 6839, 6862, 6741, 7685, 7214, 7106, 8624, 8264
7415, 4959, 300, 4961, 6815, 4979, 4976, 4980, 8192, 9272, 8060
7416, 553, 36, 2273, 6495, 556, 2308, 2310, 6547, 6546, 8557
7417, 915, 839, 840, 3027, 2787, 846, 2778, 3055, 9284, 8683
7418, 938, 864, 865, 3112, 2810, 871, 2809, 3128, 8369, 8143
7419, 5798, 1753, 5783, 2110, 8953, 8952, 5846, 8568, 8881, 9462
7420, 5609, 5877, 5591, 6829, 9105, 9774, 5756, 9222, 9256, 9775
7421, 290, 295, 291, 4886, 1788, 4954, 1766, 4925, 9054, 4926
7422, 6099, 6840, 6826, 6850, 7655, 9271, 8415, 8219, 8737, 9346
7423, 6130, 1825, 1803, 6882, 6290, 4985, 7042, 8735, 9772, 8734
7424, 3194, 3196, 800, 3200, 3267, 9776, 9777, 3238, 3268, 9778
7425, 1732, 5430, 5434, 1580, 5467, 5469, 5465, 4876, 9663, 9779
7426, 1674, 233, 1678, 6824, 4649, 1679, 4650, 9139, 9780, 9165
7427, 1674, 232, 233, 6824, 1675, 1557, 4649, 9139, 9638, 9780
7428, 371, 1, 363, 6858, 2136, 366, 2137, 9174, 9236, 9237
7429, 371, 4, 1, 6858, 374, 378, 2136, 9174, 9175, 9236
7430, 645, 2270, 6494, 552, 7988, 9781, 9583, 9182, 2421, 6604
7431, 2270, 2282, 6494, 552, 2422, 8980, 9781, 2421, 2418, 6604
7432, 628, 781, 74, 798, 8754, 782, 2553, 2637, 9783, 9782
7433, 742, 801, 632, 88, 9784, 2625, 8756, 744, 9785, 2585
7434, 2267, 881, 600, 2295, 8655, 2750, 2497, 2467, 8800, 2489
7435, 1678, 261, 260, 6823, 1680, 1681, 4651, 8026, 9787, 9786
7436, 260, 1674, 1678, 6823, 1676, 4650, 4651, 9786, 8046, 8026
7437, 1045, 1044, 3069, 6902, 1051, 3104, 3103, 8553, 8561, 8227
7438, 4890, 290, 295, 1752, 4929, 1788, 7560, 4928, 4927, 7561
7439, 1211, 1212, 372, 5361, 1214, 6803, 6804, 8909, 7875, 9788
7440, 2840, 2838, 3205, 992, 2943, 7240, 8611, 2984, 2981, 8998
7441, 1615, 6875, 6811, 6900, 8599, 9789, 9790, 8550, 8513, 9741
7442, 1434, 5966, 5972, 5961, 9791, 6036, 9792, 9793, 6008, 6037
7443, 1582, 5435, 1581, 6897, 9767, 8812, 1588, 8992, 8621, 8813
7444, 6443, 6839, 6483, 6861, 7195, 7394, 6669, 9316, 9794, 9567
7445, 798, 2859, 2858, 6894, 8426, 2921, 9495, 9365, 7747, 8423
7446, 3109, 51, 50, 868, 8995, 541, 8716, 9099, 9097, 9795
7447, 4088, 165, 4094, 6120, 4089, 4099, 9796, 9797, 6153, 9798
7448, 6813, 6807, 6827, 6839, 9328, 9345, 9091, 9093, 9799, 8551
7449, 1734, 1581, 5435, 1733, 4880, 8812, 5471, 1740, 4878, 5470
7450, 346, 6813, 345, 6861, 9800, 9327, 2012, 9801, 9711, 9720
7451, 1833, 6458, 2120, 6133, 9705, 6612, 6298, 6296, 9201, 6299
7452, 2856, 6901, 796, 6902, 8492, 9586, 9802, 9176, 9177, 8567
7453, 3692, 3676, 6874, 6891, 3983, 7616, 8449, 8865, 7271, 8749
7454, 1975, 1753, 5783, 5791, 5519, 8952, 5814, 5812, 8302, 5816
7455, 838, 3030, 39, 2292, 8276, 9068, 9069, 9695, 9021, 2318
7456, 1418, 5617, 1754, 6840, 9136, 7346, 9501, 8289, 9348, 9349
7457, 4136, 151, 4130, 1757, 4140, 4132, 8342, 8424, 9571, 8111
7458, 3687, 3704, 3664, 6858, 3945, 3733, 3944, 9011, 9660, 9010
7459, 2110, 5798, 1753, 5791, 8568, 8953, 8881, 8569, 5845, 8302
7460, 1420, 5600, 1803, 6829, 9386, 8040, 9065, 9803, 8041, 8042
7461, 280, 283, 279, 6816, 1744, 4881, 1727, 8659, 9290, 9670
7462, 6041, 1802, 2111, 362, 8721, 7940, 6055, 6048, 7565, 2118
7463, 3701, 6891, 3699, 6900, 8306, 9804, 4002, 9156, 9661, 9725
7464, 3656, 6845, 6825, 6895, 7424, 8852, 7675, 7699, 8821, 8512
7465, 880, 600, 881, 2295, 2748, 2750, 887, 9180, 2489, 8800
7466, 5294, 5295, 1933, 6838, 5304, 5298, 5302, 9324, 9005, 9367
7467, 5444, 5435, 1582, 6897, 5473, 9767, 9612, 9524, 8621, 8992
7468, 3660, 3666, 6825, 6876, 3935, 8674, 7673, 9125, 9126, 9805
7469, 2059, 5589, 5597, 6852, 5723, 5726, 5725, 8935, 8670, 7541
7470, 850, 571, 2261, 2286, 2712, 2445, 8393, 8173, 2447, 2446
7471, 1978, 5785, 1755, 1756, 5821, 9737, 5524, 5525, 9563, 1762
7472, 6494, 2282, 553, 552, 8980, 2419, 6603, 6604, 2418, 555
7473, 279, 283, 282, 6816, 4881, 1742, 1743, 9670, 9290, 9371
7474, 3698, 3699, 6874, 6900, 3940, 7791, 7175, 8775, 9725, 8776
7475, 364, 380, 381, 6887, 2149, 384, 2148, 9806, 8108, 9734
7476, 2296, 2268, 574, 853, 2427, 2457, 2451, 8729, 8616, 2719
7477, 5881, 1800, 5868, 6836, 8314, 9761, 5933, 8317, 7086, 9394
7478, 623, 646, 645, 793, 2594, 651, 2591, 2626, 8825, 9287
7479, 562, 839, 561, 2266, 2703, 2702, 568, 2433, 9285, 2434
7480, 878, 598, 2297, 597, 2744, 2481, 9574, 2743, 604, 2482
7481, 5295, 272, 1933, 6838, 5297, 1934, 5298, 9005, 8731, 9367
7482, 1412, 335, 136, 1832, 8214, 9536, 9448, 8808, 7468, 9537
7483, 415, 244, 1453, 6812, 9807, 8515, 9441, 9808, 8673, 9030
7484, 3109, 1061, 757, 3110, 3148, 9809, 8994, 3139, 3123, 8997
7485, 283, 6098, 285, 6826, 6228, 6227, 1747, 8247, 8573, 9748
7486, 1686, 1682, 234, 6824, 4656, 1683, 4655, 8011, 9090, 9810
7487, 623, 645, 622, 793, 2591, 2541, 634, 2626, 9287, 2624
7488, 115, 1073, 3152, 1072, 8625, 3185, 8323, 9007, 1079, 3186
7489, 5608, 357, 362, 5871, 5636, 2105, 8848, 8285, 9811, 8847
7490, 364, 381, 365, 6887, 2148, 2146, 368, 9806, 9734, 9812
7491, 839, 560, 561, 2292, 2701, 567, 2702, 9696, 2320, 2432
7492, 115, 106, 3406, 2852, 1111, 9813, 8878, 8879, 2880, 8355
7493, 238, 1729, 5439, 1577, 4869, 5451, 9752, 1583, 4870, 7315
7494, 262, 1682, 1686, 6823, 1684, 4656, 4657, 9814, 7972, 7971
7495, 373, 372, 365, 6887, 376, 2141, 2139, 8717, 8718, 9812
7496, 364, 365, 372, 6887, 368, 2141, 2142, 9806, 9812, 8718
7497, 1801, 5868, 5874, 1989, 9028, 5906, 9029, 5534, 5902, 5904
7498, 1840, 1705, 4684, 263, 5263, 4717, 9488, 5264, 1708, 4715
7499, 2297, 878, 597, 2278, 9574, 2743, 2482, 2463, 8891, 2485
7500, 221, 1630, 1623, 6822, 1631, 4614, 4613, 9815, 9230, 9229
7501, 5617, 1417, 5614, 6826, 9678, 9816, 5679, 9347, 9677, 9449
7502, 349, 361, 345, 6819, 2103, 5955, 2017, 9615, 9817, 9329
7503, 3361, 2853, 2845, 6830, 9032, 2987, 9653, 8258, 8975, 8217
7504, 6119, 6136, 6094, 6850, 6327, 6326, 6203, 9436, 8566, 8096
7505, 1032, 3030, 790, 1031, 3064, 9658, 9818, 1038, 3065, 9819
7506, 989, 2833, 2841, 6860, 2967, 2970, 2969, 8004, 8819, 9132
7507, 5429, 6047, 5604, 336, 9289, 9288, 7567, 5446, 8429, 5626
7508, 6455, 6843, 6489, 6885, 8669, 9282, 6777, 6931, 7853, 7248
7509, 1839, 1704, 5363, 1709, 5268, 9820, 9352, 9412, 4760, 5369
7510, 2275, 583, 863, 584, 2465, 2723, 9275, 2464, 590, 2725
7511, 863, 2275, 584, 864, 9275, 2464, 2725, 870, 9172, 2726
7512, 35, 523, 2290, 3716, 525, 2307, 2306, 3767, 3766, 8921
7513, 2037, 5971, 5960, 1952, 5980, 5999, 5997, 5576, 7923, 7924
7514, 2840, 2832, 992, 6866, 2983, 2977, 2984, 9385, 8951, 9384
7515, 266, 267, 4663, 6833, 1693, 4725, 4724, 9259, 8894, 7813
7516, 335, 2032, 5968, 1947, 5574, 5979, 9736, 1953, 5575, 9821
7517, 129, 245, 128, 6817, 1864, 5074, 1168, 9633, 8765, 9822
7518, 5880, 2071, 187, 4265, 5894, 5622, 9823, 8057, 7955, 4268
7519, 1208, 136, 6132, 1412, 1210, 9824, 9825, 9826, 9448, 9827
7520, 351, 2022, 6439, 6363, 2024, 7836, 6590, 6392, 6391, 7839
7521, 234, 1678, 233, 6824, 4652, 1679, 1561, 9810, 9165, 9780
7522, 234, 1682, 1678, 6824, 1683, 4653, 4652, 9810, 9090, 9165
7523, 3674, 6848, 6874, 6891, 7382, 9828, 7615, 7269, 9137, 8749
7524, 1976, 5789, 5783, 1754, 5817, 5819, 5815, 5520, 7344, 9050
7525, 5874, 1802, 1801, 1990, 8578, 1808, 9029, 5905, 5536, 5537
7526, 562, 839, 2266, 840, 2703, 9285, 2433, 2692, 846, 8810
7527, 1194, 1330, 153, 6868, 7481, 1331, 4060, 7482, 7483, 9395
7528, 308, 6813, 339, 6861, 9710, 9829, 2000, 8118, 9711, 8117
7529, 2838, 3362, 993, 2854, 7454, 3395, 2982, 2985, 7172, 2986
7530, 5610, 2063, 6043, 5594, 5742, 6075, 7024, 5741, 5738, 7789
7531, 1941, 266, 6816, 6833, 1942, 8699, 8505, 9258, 9259, 7707
7532, 3683, 6831, 3673, 6848, 8585, 8892, 3967, 8085, 9830, 7384
7533, 6492, 6466, 6827, 6853, 6706, 7342, 7343, 9038, 9047, 9831
7534, 1682, 262, 261, 6823, 1684, 1685, 4654, 7972, 9814, 9787
7535, 261, 1678, 1682, 6823, 1680, 4653, 4654, 9787, 8026, 7972
7536, 6120, 1804, 1825, 6882, 9350, 5011, 6287, 9770, 9832, 9772
7537, 6418, 6472, 6484, 6828, 6517, 6620, 6619, 8503, 9833, 8504
7538, 6445, 6827, 6466, 6853, 7856, 7342, 6698, 9048, 9831, 9047
7539, 291, 295, 294, 4886, 4954, 1786, 1787, 4926, 9054, 9331
7540, 835, 2277, 557, 836, 9270, 2425, 2696, 842, 8151, 2694
7541, 2830, 3202, 2838, 2854, 7934, 7455, 2940, 3011, 7171, 2985
7542, 1001, 2751, 99, 3413, 7957, 2754, 2866, 3425, 8556, 9834
7543, 838, 839, 2292, 560, 845, 9696, 9695, 2699, 2701, 2320
7544, 6463, 6818, 6488, 6862, 8543, 8051, 6764, 7104, 9835, 8321
7545, 6447, 6839, 6449, 6861, 7997, 9554, 6744, 9198, 9794, 9200
7546, 280, 6090, 283, 6826, 6225, 6224, 1744, 9765, 8208, 8247
7547, 3404, 1130, 1075, 3409, 3430, 3622, 9836, 3464, 3462, 8639
7548, 2255, 879, 2297, 6888, 9130, 9168, 2488, 7835, 9170, 8126
7549, 4148, 1756, 4142, 4895, 9837, 9159, 9838, 9839, 4942, 8957
7550, 3668, 6848, 3670, 6892, 9279, 9280, 3951, 7832, 9840, 7834
7551, 796, 2856, 2857, 6901, 9802, 2912, 7308, 9586, 8492, 7803
7552, 2274, 2255, 2297, 6888, 2504, 2488, 2462, 8300, 7835, 8126
7553, 5871, 5608, 5609, 2073, 8285, 5640, 9106, 5921, 5753, 5750
7554, 270, 4888, 271, 4661, 4902, 7842, 1697, 4736, 7844, 4737
7555, 558, 557, 2277, 836, 564, 2425, 2424, 2695, 2694, 8151
7556, 3671, 3668, 6842, 6848, 3953, 7793, 7285, 8084, 9279, 9202
7557, 2302, 60, 98, 3151, 2372, 9662, 9642, 9643, 9576, 9020
7558, 5271, 1927, 298, 6815, 5279, 1929, 5277, 7557, 7555, 9614
7559, 1577, 1729, 5439, 5436, 4870, 5451, 7315, 7316, 5458, 5460
7560, 6139, 245, 6116, 6825, 7977, 9471, 6223, 7978, 7979, 8944
7561, 2271, 3715, 524, 649, 9142, 3825, 2415, 8104, 9143, 9225
7562, 1705, 1840, 4684, 6887, 5263, 9488, 4717, 9186, 9727, 8310
7563, 627, 797, 614, 67, 2634, 9841, 8750, 2533, 9842, 615
7564, 5604, 6047, 2108, 2060, 9288, 6069, 9087, 5728, 6066, 6067
7565, 5600, 5591, 5877, 6829, 5758, 9774, 9055, 8041, 9775, 9256
7566, 5605, 5604, 6047, 336, 5630, 9288, 8887, 5629, 5626, 8429
7567, 2751, 94, 99, 3413, 2753, 890, 2754, 8556, 9446, 9834
7568, 2298, 524, 3715, 523, 2413, 3825, 9141, 2412, 526, 3826
7569, 1171, 6785, 6137, 1454, 9595, 9843, 6265, 6268, 9597, 6269
7570, 6480, 6479, 2121, 6138, 6615, 6578, 6616, 9665, 7942, 6261
7571, 6132, 6786, 2120, 1833, 9844, 9703, 6297, 6292, 9704, 6298
7572, 772, 77, 1059, 6898, 773, 9376, 9845, 9626, 9377, 7710
7573, 1731, 1578, 1579, 5428, 4875, 1585, 4874, 5462, 9673, 9718
7574, 990, 1114, 3367, 2848, 3387, 3389, 3386, 2972, 8801, 9528
7575, 5589, 5618, 6852, 6890, 5776, 7754, 8670, 8654, 9117, 7472
7576, 5606, 5607, 335, 1413, 5657, 7440, 8394, 9846, 9387, 9388
7577, 2852, 3406, 1003, 2853, 8355, 3440, 2997, 2884, 9124, 2994
7578, 372, 1211, 5361, 6887, 6804, 8909, 9788, 8718, 8719, 7083
7579, 949, 98, 3156, 103, 2818, 9655, 3161, 955, 2817, 3160
7580, 1755, 5789, 5785, 1977, 9762, 5822, 9737, 5523, 5818, 5820
7581, 910, 95, 3033, 100, 2776, 8363, 3038, 916, 2775, 3037
7582, 1951, 2107, 5967, 6852, 7683, 9301, 8304, 7755, 7756, 8926
7583, 435, 426, 6807, 6828, 2188, 9847, 9620, 9622, 9848, 9624
7584, 3713, 126, 6831, 6842, 3800, 9096, 8587, 6905, 9405, 8883
7585, 2845, 2853, 2835, 6830, 2987, 3000, 3024, 8217, 8975, 9604
7586, 137, 1216, 6137, 1415, 1217, 9849, 9850, 9526, 9852, 9851
7587, 1949, 1212, 1948, 5356, 8844, 7874, 1955, 5401, 7876, 5402
7588, 6443, 6819, 6839, 6861, 7126, 8965, 7195, 9316, 9559, 9794
7589, 5602, 1412, 1800, 6836, 8908, 8213, 8313, 8316, 8215, 7086
7590, 1045, 6889, 6901, 6902, 7788, 7322, 7132, 8553, 7464, 9177
7591, 5601, 6041, 5609, 6829, 9659, 9221, 5743, 8489, 8724, 9222
7592, 6134, 6480, 2121, 6138, 9721, 6616, 6303, 6260, 9665, 6261
7593, 1581, 1734, 5435, 1582, 4880, 5471, 8812, 1588, 4871, 9767
7594, 648, 626, 649, 796, 2597, 2548, 654, 9355, 2632, 9358
7595, 2272, 849, 570, 2260, 8045, 2713, 2442, 2443, 7715, 2388
7596, 648, 626, 796, 625, 2597, 2632, 9355, 2596, 637, 2631
7597, 6116, 6825, 3665, 6858, 8944, 8966, 7529, 9547, 8267, 9219
7598, 880, 599, 2295, 2275, 2747, 2490, 9180, 9056, 2491, 2468
7599, 574, 854, 2274, 575, 2720, 9084, 2456, 581, 2709, 2455
7600, 854, 574, 2274, 853, 2720, 2456, 9084, 860, 2719, 9506
7601, 798, 1032, 6855, 6864, 9540, 8061, 9686, 9853, 8613, 8614
7602, 1757, 4136, 150, 4142, 8424, 4138, 8233, 8956, 9454, 4146
7603, 3659, 3719, 3694, 6876, 3923, 3933, 3932, 9652, 9310, 9311
7604, 3717, 3708, 3652, 6875, 3902, 3901, 3898, 9304, 9302, 9590
7605, 1938, 5332, 5331, 6833, 5336, 5341, 5340, 9473, 9260, 9429
7606, 1711, 1566, 1461, 4695, 4766, 4532, 8902, 4767, 4764, 8903
7607, 109, 1033, 1115, 3288, 1040, 8524, 8457, 9634, 7157, 8525
7608, 4178, 4184, 143, 6850, 9306, 4188, 4180, 8970, 9307, 9854
7609, 3491, 3498, 3508, 795, 3555, 3558, 3557, 9855, 8988, 9856
7610, 2110, 2111, 1753, 6904, 2117, 9570, 8881, 8695, 7996, 8882
7611, 280, 240, 4540, 279, 4866, 4568, 8660, 1727, 1726, 9669
7612, 2260, 63, 96, 2704, 2389, 848, 7328, 7558, 2707, 2706
7613, 3281, 114, 109, 3288, 3296, 3577, 9635, 3305, 3304, 9634
7614, 116, 1075, 3404, 1130, 3618, 9836, 3431, 1137, 3622, 3430
7615, 103, 882, 3151, 954, 2816, 9478, 3157, 961, 2820, 3162
7616, 267, 5332, 1938, 6833, 5333, 5336, 1939, 8894, 9260, 9473
7617, 928, 101, 3072, 854, 935, 3075, 3080, 2792, 2788, 8745
7618, 6451, 6450, 6448, 6862, 6750, 6749, 6751, 8322, 8280, 8624
7619, 1799, 2119, 6124, 1208, 9433, 6286, 9425, 9857, 9671, 9858
7620, 2262, 96, 63, 2278, 7677, 848, 2393, 2394, 8859, 2390
7621, 102, 868, 3110, 941, 2802, 9098, 3116, 948, 2806, 3121
7622, 5601, 1420, 5611, 6820, 9859, 9223, 5693, 8488, 8361, 8374
7623, 923, 96, 3074, 101, 2790, 7362, 3079, 929, 2789, 3078
7624, 936, 102, 97, 3115, 942, 2803, 2804, 3120, 3119, 8444
7625, 97, 588, 64, 2276, 2722, 595, 862, 7016, 2351, 2397
7626, 1642, 224, 225, 6822, 1643, 1525, 4625, 9434, 9860, 9531
7627, 6493, 6459, 6469, 6861, 6672, 6755, 6568, 9861, 9199, 9406
7628, 3670, 3672, 3718, 6848, 3960, 3963, 3962, 9280, 8658, 8835
7629, 4082, 159, 1300, 1804, 4084, 1301, 4085, 9160, 7691, 7692
7630, 362, 1801, 2106, 6044, 9049, 8078, 2112, 6051, 9034, 6054
7631, 4672, 4682, 4683, 6865, 4848, 4812, 4785, 7824, 7148, 9014
7632, 5604, 5598, 5440, 1961, 5696, 7013, 7566, 5627, 5697, 5454
7633, 4542, 1574, 4540, 6856, 4561, 4570, 4583, 8936, 7723, 8388
7634, 5271, 306, 5272, 4959, 5281, 5276, 5282, 8714, 5005, 8263
7635, 3494, 117, 110, 3503, 3511, 3591, 7505, 3520, 3519, 7506
7636, 113, 111, 3194, 3203, 3605, 9862, 3211, 3219, 9863, 3220
7637, 5608, 6044, 2058, 5603, 9061, 6052, 5637, 5720, 9513, 5721
7638, 1320, 156, 4106, 6841, 1322, 4110, 4109, 9864, 9683, 8950
7639, 3698, 3662, 3699, 6900, 3939, 3941, 3940, 8775, 8454, 9725
7640, 95, 62, 2268, 2269, 834, 2380, 7779, 7766, 2384, 2383
7641, 1592, 185, 6125, 4214, 6144, 6210, 6213, 9600, 4217, 9625
7642, 5444, 5432, 5435, 6897, 5489, 5508, 5473, 9524, 8418, 8621
7643, 100, 840, 3028, 915, 2774, 7964, 3034, 922, 2778, 3039
7644, 1056, 3199, 1083, 3193, 7122, 3239, 3607, 7128, 3241, 3217
7645, 1139, 1042, 3499, 3493, 3593, 9389, 3539, 3517, 9865, 3541
7646, 1028, 3286, 1097, 3280, 6968, 3324, 3579, 7380, 3326, 3302
7647, 1753, 1754, 5783, 6844, 1760, 9050, 8952, 9866, 8406, 9463
7648, 1987, 303, 5879, 338, 5529, 9498, 5891, 1993, 5528, 5890
7649, 346, 417, 1834, 6807, 9867, 8984, 8514, 9557, 9768, 9296
7650, 3660, 6825, 3659, 6876, 7673, 7674, 3921, 9125, 9805, 9652
7651, 4130, 1419, 1340, 6868, 9868, 9869, 4133, 8112, 9116, 8650
7652, 252, 1646, 253, 6821, 4627, 1648, 1649, 9870, 8409, 9606
7653, 1642, 1646, 252, 6821, 4626, 4627, 1644, 8410, 8409, 9870
7654, 373, 1833, 1211, 6887, 9871, 9390, 6796, 8717, 8728, 8719
7655, 5875, 5884, 1804, 1992, 5913, 9872, 9067, 5911, 5892, 5531
7656, 1799, 4966, 6468, 303, 4993, 9002, 9873, 1805, 4989, 9874
7657, 3365, 2852, 2847, 988, 8954, 2964, 9415, 3372, 2881, 2965
7658, 853, 573, 2296, 852, 2718, 2452, 8729, 859, 2716, 8932
7659, 1704, 1839, 1705, 1709, 5268, 5269, 1707, 4760, 9412, 4771
7660, 3150, 953, 881, 3153, 3177, 2827, 8827, 3179, 3175, 8656
7661, 5601, 1420, 6820, 6829, 9859, 8361, 8488, 8489, 9803, 8431
7662, 3412, 2844, 2835, 6830, 8982, 3002, 9603, 8974, 7629, 9604
7663, 2268, 2303, 574, 853, 2459, 2458, 2457, 8616, 9325, 2719
7664, 4100, 6106, 6115, 6882, 9630, 6161, 8947, 9875, 9771, 9697
7665, 98, 882, 3151, 103, 889, 9478, 9020, 2817, 2816, 3157
7666, 4142, 4136, 173, 4895, 9454, 4137, 4147, 8957, 9455, 9876
7667, 2851, 794, 110, 2850, 9439, 9440, 7857, 2901, 9877, 7065
7668, 1185, 136, 1208, 1412, 4019, 1210, 4018, 4246, 9448, 9826
7669, 303, 160, 4076, 1292, 9878, 4078, 9460, 9879, 1293, 4079
7670, 878, 597, 2270, 877, 2743, 2480, 7784, 884, 2741, 7036
7671, 975, 2863, 3287, 3277, 2946, 8377, 3298, 3307, 7537, 3308
7672, 97, 868, 588, 2276, 875, 2724, 2722, 7016, 9479, 2351
7673, 1046, 1113, 3501, 6860, 7620, 9361, 8588, 7199, 7619, 8971
7674, 6480, 6134, 6133, 6854, 9721, 6300, 7898, 7000, 9578, 8071
7675, 3031, 912, 837, 3029, 3048, 2781, 9684, 3050, 3046, 9744
7676, 5877, 5591, 2075, 2074, 9774, 5755, 5923, 5924, 5754, 2081
7677, 115, 3410, 1073, 1072, 9343, 8252, 8625, 9007, 8203, 1079
7678, 988, 1112, 3364, 2860, 3378, 3379, 3377, 2962, 8138, 7516
7679, 2058, 6045, 5616, 2106, 6057, 8067, 5718, 6058, 6059, 8223
7680, 1004, 3412, 1005, 2835, 3443, 3442, 1011, 2998, 9603, 2999
7681, 3657, 6892, 6845, 6895, 8006, 9400, 7423, 7272, 8962, 8821
7682, 866, 2294, 2289, 6898, 9719, 2479, 9239, 8402, 8818, 9240
7683, 279, 1723, 4854, 6816, 1725, 4865, 4857, 9670, 7735, 7736
7684, 3287, 2848, 2842, 975, 8802, 2948, 8164, 3298, 2876, 2949
7685, 193, 1462, 1562, 235, 1465, 4534, 1564, 9880, 4535, 1563
7686, 1923, 263, 1840, 310, 1924, 5264, 5265, 1925, 9073, 1843
7687, 2071, 5880, 5873, 4265, 5894, 5916, 5915, 7955, 8057, 7518
7688, 5600, 5591, 2075, 5877, 5758, 5755, 5757, 9055, 9774, 5923
7689, 4100, 156, 1315, 6882, 4102, 1316, 4103, 9875, 9882, 9881
7690, 111, 800, 2855, 2830, 9407, 9313, 7547, 9883, 9884, 2932
7691, 1420, 5601, 5600, 6829, 9859, 5691, 9386, 9803, 8489, 8041
7692, 2835, 3412, 1005, 2844, 9603, 3442, 2999, 3002, 8982, 3001
7693, 6842, 6892, 3655, 6895, 8961, 8682, 8331, 8467, 8962, 7860
7694, 3191, 1116, 1057, 6866, 9366, 7877, 8073, 8451, 7819, 7368
7695, 5020, 5021, 309, 6871, 5043, 5042, 5035, 9885, 7191, 9886
7696, 70, 730, 94, 92, 8751, 9887, 2621, 2545, 732, 9888
7697, 4963, 4960, 304, 6903, 5002, 5001, 5003, 8466, 8528, 9102
7698, 2856, 2862, 2833, 6901, 2914, 3020, 3021, 8492, 8864, 7864
7699, 6461, 6465, 6464, 6843, 6545, 6784, 6783, 9724, 9281, 9292
7700, 840, 100, 3028, 95, 2774, 3034, 7964, 847, 2775, 7669
7701, 2846, 3414, 2834, 6837, 9294, 9714, 2993, 9538, 9115, 9715
7702, 851, 3069, 925, 3070, 7376, 3089, 2795, 8391, 3091, 3087
7703, 239, 1582, 6104, 280, 4572, 9317, 6219, 1728, 9764, 6218
7704, 293, 4885, 5320, 5319, 4935, 9550, 5324, 5329, 9676, 5330
7705, 801, 2845, 2844, 6830, 9577, 2935, 9457, 9000, 8217, 7629
7706, 280, 240, 239, 4540, 4866, 1598, 1728, 8660, 4568, 4567
7707, 4965, 1804, 160, 303, 4994, 9723, 9318, 4988, 1811, 9878
7708, 586, 865, 2294, 866, 2729, 8896, 2473, 2732, 872, 9719
7709, 4291, 4290, 190, 6879, 4309, 4302, 4307, 8792, 9890, 9889
7710, 3113, 939, 866, 3111, 3133, 2811, 8397, 3135, 3131, 9447
7711, 1208, 6468, 1799, 2119, 7395, 9873, 9857, 9671, 6560, 9433
7712, 2285, 64, 97, 2267, 2399, 862, 7435, 2401, 2396, 8443
7713, 3155, 878, 950, 3154, 7785, 2821, 3166, 3170, 8668, 3168
7714, 6465, 36, 6439, 6843, 6544, 6549, 6548, 9281, 9891, 7850
7715, 3695, 3670, 6848, 6892, 3956, 9280, 8836, 8119, 7834, 9840
7716, 278, 1944, 1704, 5363, 1945, 9483, 4761, 5368, 5372, 9820
7717, 101, 96, 3072, 854, 2789, 8860, 3075, 2788, 861, 8745
7718, 1360, 148, 4154, 1756, 1362, 4158, 4157, 8991, 9892, 8840
7719, 102, 868, 97, 3110, 2802, 875, 2803, 3116, 9098, 7018
7720, 346, 1834, 2008, 5547, 8514, 6254, 5558, 5556, 9104, 5555
7721, 3153, 952, 880, 3152, 3174, 2825, 9179, 3176, 3172, 8480
7722, 3152, 951, 879, 3154, 3171, 2823, 9129, 3173, 3169, 9169
7723, 911, 836, 3029, 3032, 2779, 7772, 3045, 3043, 8152, 3047
7724, 5435, 1733, 1581, 5430, 5470, 4878, 8812, 5472, 5468, 9133
7725, 1752, 290, 295, 4891, 4927, 1788, 7561, 4923, 4921, 8806
7726, 5608, 5878, 5590, 2073, 8284, 9699, 5752, 5753, 5917, 5748
7727, 1610, 4589, 1453, 244, 4599, 9773, 6214, 4598, 4596, 8515
7728, 41, 2291, 2281, 6864, 2324, 2326, 2322, 9521, 8365, 9204
7729, 266, 4663, 6816, 6833, 4724, 7263, 8699, 9259, 7813, 7707
7730, 3068, 3071, 927, 853, 3097, 3093, 3095, 9248, 8617, 2799
7731, 137, 1216, 6785, 6137, 1217, 6802, 6801, 9850, 9849, 9843
7732, 6115, 6841, 4100, 6882, 8948, 8949, 8947, 9697, 9588, 9875
7733, 2858, 2832, 2861, 6894, 3018, 3015, 2923, 8423, 7929, 8833
7734, 245, 246, 6116, 5068, 1609, 6140, 9471, 5071, 5072, 8858
7735, 913, 838, 3030, 3031, 2783, 8276, 3051, 3049, 8273, 3053
7736, 852, 926, 3069, 3071, 2797, 3090, 8742, 8931, 3092, 3094
7737, 1801, 304, 4960, 6903, 4997, 5001, 5000, 7937, 9102, 8528
7738, 6362, 189, 188, 214, 7872, 1451, 8083, 6372, 9591, 9893
7739, 1826, 4082, 162, 4965, 9235, 4087, 6149, 4992, 9162, 9894
7740, 2269, 95, 62, 2299, 7766, 834, 2384, 2385, 7668, 2386
7741, 940, 3109, 3113, 867, 3136, 3138, 3134, 2813, 8680, 9712
7742, 346, 6807, 345, 6813, 9557, 9295, 2012, 9800, 9328, 9327
7743, 2298, 3715, 524, 2271, 9141, 3825, 2413, 2417, 9142, 2415
7744, 1804, 1803, 1825, 6882, 1810, 4985, 5011, 9832, 8734, 9772
7745, 924, 3073, 850, 3070, 3084, 8542, 2793, 3086, 3088, 8171
7746, 778, 798, 76, 6855, 9732, 9733, 780, 9895, 9686, 9896
7747, 864, 937, 3114, 3112, 2807, 3125, 8959, 8369, 3127, 3129
7748, 6472, 6437, 6484, 6828, 6712, 6710, 6620, 9833, 9897, 8504
7749, 839, 3027, 914, 3030, 9284, 3054, 2785, 9560, 3056, 3052
7750, 2260, 96, 63, 2262, 7328, 848, 2389, 2392, 7677, 2393
7751, 865, 586, 2294, 585, 2729, 2473, 8896, 2728, 592, 2474
7752, 881, 600, 2280, 2267, 2750, 2496, 8826, 8655, 2497, 2498
7753, 882, 59, 2302, 3151, 9477, 2371, 9641, 9478, 9382, 9643
7754, 6120, 4082, 164, 1826, 9351, 4083, 6154, 6155, 9235, 6150
7755, 3673, 6831, 3711, 6848, 8892, 9145, 3975, 7384, 9830, 7383
7756, 118, 6364, 3661, 1618, 6369, 7949, 3783, 1619, 6370, 7950
7757, 234, 235, 1686, 6824, 1565, 1687, 4655, 9810, 9080, 8011
7758, 865, 938, 3112, 3111, 2809, 3128, 8143, 8873, 3130, 3132
7759, 2834, 3414, 1003, 2852, 9714, 3436, 2992, 2996, 8357, 2997
7760, 4214, 132, 1580, 1579, 4216, 9898, 9599, 9601, 9899, 1586
7761, 281, 1582, 238, 5444, 4867, 1589, 4868, 5448, 9612, 9359
7762, 2277, 558, 836, 2271, 2424, 2695, 8151, 2431, 2430, 7774
7763, 262, 1686, 263, 6823, 4657, 1688, 1689, 9814, 7971, 9074
7764, 1947, 2032, 5968, 5962, 5575, 5979, 9821, 9411, 5984, 5986
7765, 1208, 136, 6786, 6132, 1210, 6797, 6798, 9825, 9824, 9844
7766, 853, 573, 574, 2296, 2718, 580, 2719, 8729, 2452, 2451
7767, 5362, 1713, 4679, 4678, 5390, 4783, 8009, 7356, 4779, 4784
7768, 1705, 4684, 4675, 6887, 4717, 4775, 4774, 9186, 8310, 8332
7769, 3203, 3196, 800, 3194, 3254, 9776, 9900, 3220, 3267, 9777
7770, 2072, 5878, 5590, 5602, 5918, 9699, 5747, 5746, 9215, 5749
7771, 1432, 5602, 5603, 6836, 5648, 5651, 5650, 9901, 8316, 8838
7772, 2852, 3365, 2847, 6837, 8954, 9415, 2964, 8955, 8351, 8509
7773, 1102, 1033, 114, 3288, 3580, 3576, 1109, 3303, 7157, 3304
7774, 1102, 3278, 1033, 3288, 3337, 7156, 3580, 3303, 3339, 7157
7775, 5589, 5612, 5618, 6890, 5777, 5670, 5776, 8654, 9094, 9117
7776, 3497, 795, 1044, 6902, 8987, 9902, 8560, 8554, 9903, 8561
7777, 221, 222, 1634, 6822, 1513, 1635, 4616, 9815, 9904, 9334
7778, 1634, 1630, 221, 6822, 4617, 1631, 4616, 9334, 9230, 9815
7779, 1634, 250, 249, 6821, 1636, 1637, 4618, 8294, 9906, 9905
7780, 249, 1630, 1634, 6821, 1632, 4617, 4618, 9905, 8295, 8294
7781, 117, 1047, 3503, 1144, 3590, 7165, 3519, 1151, 3594, 3518
7782, 113, 1061, 3203, 1088, 3604, 9907, 3219, 1095, 3608, 3218
7783, 1350, 149, 1756, 4142, 1351, 9908, 8414, 4145, 4144, 9159
7784, 118, 6364, 1153, 3716, 6369, 6368, 1155, 3780, 8918, 3781
7785, 2277, 2296, 573, 852, 2428, 2452, 2453, 9206, 8932, 2716
7786, 599, 600, 880, 2295, 606, 2748, 2747, 2490, 2489, 9180
7787, 2302, 59, 60, 3151, 2371, 550, 2372, 9643, 9382, 9576
7788, 2256, 851, 572, 2261, 7374, 2717, 2449, 2450, 7377, 2444
7789, 289, 1974, 5784, 1752, 5515, 5805, 7244, 1758, 5516, 7245
7790, 2121, 6491, 6480, 6133, 6613, 6617, 6616, 6302, 7006, 7898
7791, 1803, 6820, 1420, 6829, 7846, 8361, 9065, 8042, 8431, 9803
7792, 137, 1216, 1415, 1189, 1217, 9852, 9526, 4023, 4025, 4254
7793, 882, 600, 601, 2263, 2749, 607, 2739, 9568, 2494, 2493
7794, 882, 600, 2263, 881, 2749, 2494, 9568, 888, 2750, 9071
7795, 6106, 4094, 165, 6120, 9909, 4099, 6157, 6158, 9798, 6153
7796, 2127, 351, 6495, 6363, 2130, 6589, 6588, 6393, 6392, 8558
7797, 6112, 288, 6105, 4894, 6237, 6236, 6238, 9475, 4919, 8384
7798, 5591, 5601, 5609, 6829, 5780, 5743, 5756, 9775, 8489, 9222
7799, 864, 585, 2279, 584, 2727, 2469, 8631, 2726, 591, 2470
7800, 585, 864, 2279, 865, 2727, 8631, 2469, 2728, 871, 8262
7801, 4589, 1453, 6139, 1610, 9773, 6273, 9045, 4599, 6214, 6221
7802, 6813, 6839, 6819, 6861, 9093, 8965, 9092, 9711, 9794, 9559
7803, 4683, 4672, 5360, 1714, 4785, 8190, 9545, 4772, 4780, 5393
7804, 4542, 4540, 6816, 6856, 4583, 8389, 8261, 8936, 8388, 7695
7805, 270, 4884, 4892, 4661, 4896, 4904, 4903, 4736, 8500, 7986
7806, 3496, 3503, 1047, 1144, 3554, 7165, 7167, 3552, 3518, 3594
7807, 3196, 1088, 3203, 1061, 3252, 3218, 3254, 9629, 3608, 9907
7808, 347, 339, 6813, 6861, 2014, 9829, 9910, 8178, 8117, 9711
7809, 307, 6365, 248, 308, 8031, 6382, 9911, 1830, 9262, 9657
7810, 4685, 4675, 4684, 6887, 4852, 4775, 4770, 7188, 8332, 8310
7811, 308, 326, 325, 6870, 5029, 1859, 5031, 9264, 9913, 9912
7812, 2846, 3414, 1002, 2834, 9294, 3437, 2990, 2993, 9714, 2991
7813, 4693, 4884, 270, 4661, 8421, 4896, 4734, 4738, 8500, 4736
7814, 223, 224, 1642, 6822, 1521, 1643, 4622, 9914, 9860, 9434
7815, 1781, 1780, 174, 4895, 1784, 6182, 6180, 4945, 4943, 9915
7816, 208, 209, 189, 6878, 1481, 4294, 4298, 9916, 9917, 9592
7817, 176, 6127, 4160, 6126, 6187, 8633, 4165, 6183, 6188, 8635
7818, 2108, 2109, 6047, 238, 2115, 6074, 6069, 9208, 7466, 9360
7819, 4076, 4965, 160, 303, 9759, 9318, 4078, 9460, 4988, 9878
7820, 137, 1415, 1455, 6890, 9526, 9753, 9079, 9119, 9470, 9118
7821, 5788, 2050, 1439, 5800, 5839, 5632, 7197, 5842, 5809, 9918
7822, 867, 866, 586, 2304, 873, 2732, 2730, 9713, 8398, 2477
7823, 1753, 1976, 5783, 1754, 5521, 5815, 8952, 1760, 5520, 9050
7824, 6134, 345, 344, 5547, 9183, 2011, 6258, 9184, 5554, 5553
7825, 1642, 1638, 223, 6822, 4623, 1639, 4622, 9434, 9409, 9914
7826, 351, 350, 6424, 2018, 2021, 6586, 6585, 5566, 2020, 9760
7827, 1755, 1418, 1754, 6840, 9763, 9501, 1761, 9404, 8289, 9349
7828, 794, 3499, 3493, 3495, 9919, 3541, 9920, 9921, 3566, 3565
7829, 1825, 6130, 6106, 6882, 6290, 6289, 6288, 9772, 8735, 9771
7830, 5360, 4672, 1713, 1714, 8190, 4781, 5392, 5393, 4780, 1720
7831, 3680, 1170, 3687, 6858, 3835, 3833, 3836, 9012, 9922, 9011
7832, 1642, 252, 251, 6821, 1644, 1645, 4624, 8410, 9870, 9923
7833, 251, 1638, 1642, 6821, 1640, 4623, 4624, 9923, 8380, 8410
7834, 3289, 3279, 978, 895, 3319, 3318, 3312, 7665, 7250, 2915
7835, 849, 2293, 570, 850, 9006, 2441, 2713, 856, 8541, 2711
7836, 6786, 6132, 136, 1833, 9844, 9824, 6797, 9704, 6292, 9616
7837, 1952, 355, 5971, 335, 5572, 5976, 7923, 1959, 5573, 9924
7838, 344, 1834, 6134, 5547, 6257, 6259, 6258, 5553, 9104, 9184
7839, 279, 4854, 4538, 6816, 4857, 8209, 9925, 9670, 7736, 8020
7840, 3284, 1030, 3283, 797, 9926, 9511, 3342, 7253, 9928, 9927
7841, 3646, 119, 118, 1615, 3778, 1158, 3779, 8548, 1616, 4603
7842, 5609, 362, 357, 5871, 9220, 2105, 5639, 9106, 8847, 9811
7843, 3640, 3704, 3705, 6876, 3736, 3843, 3842, 9929, 9930, 9127
7844, 5609, 5591, 5877, 2074, 5756, 9774, 9105, 5751, 5754, 5924
7845, 106, 115, 3406, 2853, 1111, 8878, 9813, 2883, 9224, 9124
7846, 6421, 6818, 6463, 6853, 8705, 8543, 6636, 7448, 9931, 7447
7847, 2835, 1004, 3412, 2853, 2998, 3443, 9603, 3000, 2995, 8972
7848, 5603, 5608, 6044, 6836, 5720, 9061, 9513, 8838, 9062, 9035
7849, 4958, 4664, 276, 4959, 7452, 4752, 4969, 4972, 8191, 4970
7850, 6487, 6419, 6457, 6853, 6622, 6526, 6623, 9046, 9039, 9150
7851, 2734, 98, 61, 6477, 2736, 9619, 8472, 8473, 9544, 6551
7852, 1634, 222, 1638, 6822, 1635, 4619, 4620, 9334, 9904, 9409
7853, 222, 223, 1638, 6822, 1517, 1639, 4619, 9904, 9914, 9409
7854, 864, 2275, 584, 2299, 9172, 2464, 2726, 8367, 2472, 2471
7855, 6132, 1832, 136, 1833, 6293, 9537, 9824, 6292, 1836, 9616
7856, 250, 1634, 1638, 6821, 1636, 4620, 4621, 9906, 8294, 8380
7857, 1638, 251, 250, 6821, 1640, 1641, 4621, 8380, 9923, 9906
7858, 867, 586, 587, 2304, 2730, 593, 2731, 9713, 2477, 2344
7859, 646, 623, 110, 793, 2594, 9474, 8527, 8825, 2626, 9063
7860, 6472, 6497, 6437, 6828, 6713, 6705, 6712, 9833, 9932, 9897
7861, 3704, 6858, 3705, 6876, 9660, 9257, 3843, 9930, 9933, 9127
7862, 178, 177, 6110, 4166, 1368, 6190, 6189, 4167, 4171, 8128
7863, 6115, 6129, 6841, 6882, 6313, 8359, 8948, 9697, 8799, 9588
7864, 1602, 4538, 264, 242, 4579, 7009, 4853, 1604, 4580, 1690
7865, 1580, 1733, 5430, 1581, 4879, 5468, 9663, 1587, 4878, 9133
7866, 2838, 3195, 3202, 962, 7239, 3223, 7455, 2938, 3222, 3213
7867, 4214, 1580, 132, 1409, 9599, 9898, 4216, 4218, 9934, 1410
7868, 6808, 6814, 6811, 6874, 9935, 9738, 9936, 9937, 9939, 9938
7869, 2110, 5596, 2062, 6844, 9413, 5740, 6077, 9037, 7894, 9766
7870, 1989, 1801, 5868, 1800, 5534, 9028, 5902, 5535, 1807, 9761
7871, 345, 6819, 6807, 6854, 9329, 9330, 9295, 9297, 9167, 9299
7872, 6116, 130, 3658, 5068, 6141, 3812, 8941, 8858, 5070, 8942
7873, 109, 1114, 3367, 1115, 8619, 3389, 9940, 8457, 1121, 3394
7874, 6119, 6107, 6136, 6850, 6319, 6348, 6327, 9436, 8218, 8566
7875, 242, 4542, 4689, 4680, 4558, 7428, 4712, 4708, 8048, 4714
7876, 2850, 794, 110, 3493, 9877, 9440, 7065, 7064, 9920, 7066
7877, 6426, 6479, 6478, 6854, 6659, 6660, 6658, 8577, 9666, 8330
7878, 6811, 6875, 6874, 6900, 9789, 9579, 9938, 9741, 8513, 8776
7879, 524, 3700, 649, 1154, 3775, 9493, 9225, 3828, 3777, 6367
7880, 352, 6424, 2018, 6885, 6587, 9760, 5568, 9672, 8019, 8490
7881, 6455, 6862, 6843, 6885, 7031, 9647, 8669, 6931, 8049, 7853
7882, 4885, 4884, 269, 4659, 4900, 4897, 4898, 7633, 7712, 4731
7883, 596, 2270, 877, 552, 2420, 7036, 2742, 2378, 2421, 8024
7884, 6477, 645, 2126, 552, 9504, 6366, 6555, 6553, 9182, 6605
7885, 4136, 1781, 173, 4895, 8343, 6177, 4137, 9455, 4945, 9876
7886, 5363, 1704, 278, 1709, 9820, 4761, 5368, 5369, 4760, 1715
7887, 137, 6137, 6785, 1454, 9850, 9843, 6801, 9640, 6269, 9597
7888, 1755, 5789, 1977, 1754, 9762, 5818, 5523, 1761, 7344, 5522
7889, 5784, 1752, 1974, 5791, 7245, 5516, 5805, 5813, 7220, 5811
7890, 793, 645, 1070, 3155, 9287, 8895, 8494, 8133, 7989, 3182
7891, 1433, 5957, 2084, 5963, 9941, 5982, 5655, 7159, 6002, 6001
7892, 78, 772, 1059, 6898, 774, 9845, 9942, 9685, 9626, 7710
7893, 346, 347, 6807, 6813, 2013, 9943, 9557, 9800, 9910, 9328
7894, 186, 1208, 1185, 135, 9944, 4018, 4244, 4243, 4011, 1196
7895, 2264, 97, 64, 2276, 7015, 862, 2398, 2355, 7016, 2397
7896, 5957, 5606, 335, 1413, 9945, 8394, 9735, 9946, 9846, 9388
7897, 1335, 1194, 153, 6868, 9947, 4060, 1337, 9527, 7482, 9395
7898, 5021, 6821, 309, 6871, 7001, 7008, 5042, 7191, 7352, 9886
7899, 4196, 1417, 141, 6850, 9518, 9519, 4200, 8097, 9948, 9418
7900, 4136, 1345, 151, 1757, 4139, 1347, 4140, 8424, 9949, 9571
7901, 5018, 314, 5019, 6873, 5055, 5053, 5056, 9950, 9951, 9745
7902, 5590, 5602, 5878, 6836, 5749, 9215, 9699, 9700, 8316, 9112
7903, 155, 4112, 1325, 6841, 4116, 4115, 1327, 9952, 8182, 9399
7904, 346, 347, 6813, 6861, 2013, 9910, 9800, 9801, 8178, 9711
7905, 837, 2265, 3700, 3029, 9565, 8195, 9564, 9744, 7771, 7992
7906, 197, 4288, 4289, 6881, 4324, 4326, 4323, 9953, 9954, 9756
7907, 6814, 6874, 6848, 6891, 9939, 9828, 9955, 9956, 8749, 9137
7908, 3413, 1001, 2751, 3408, 3425, 7957, 8556, 3435, 3434, 7406
7909, 6137, 137, 1455, 1454, 9850, 9079, 6275, 6269, 9640, 1458
7910, 4214, 1592, 131, 1579, 9600, 6143, 4215, 9601, 4586, 9957
7911, 2086, 5966, 1434, 5961, 6007, 9791, 5660, 6003, 6008, 9793
7912, 95, 62, 2687, 2268, 834, 2690, 2689, 7779, 2380, 7780
7913, 3683, 6842, 6831, 6848, 6907, 8883, 8585, 8085, 9202, 9830
7914, 2109, 4544, 1582, 238, 7704, 4566, 7588, 7466, 4565, 1589
7915, 4888, 270, 4892, 4661, 4902, 4903, 4905, 7844, 4736, 7986
7916, 5868, 1800, 1801, 6836, 9761, 1807, 9028, 9394, 7086, 7936
7917, 1385, 143, 4184, 6850, 1387, 4188, 4187, 9958, 9854, 9307
7918, 116, 3415, 3404, 94, 3423, 3432, 3431, 8016, 6951, 6952
7919, 1803, 1804, 1420, 6882, 1810, 9064, 9065, 8734, 9832, 9959
7920, 1419, 4130, 1340, 1757, 9868, 4133, 9869, 9960, 8111, 9572
7921, 3717, 6874, 3678, 6875, 7174, 7706, 3998, 9304, 9579, 9303
7922, 1453, 6139, 6135, 6858, 6273, 6274, 6272, 9031, 8266, 9339
7923, 600, 2280, 2263, 881, 2496, 2495, 2494, 2750, 8826, 9071
7924, 6808, 6848, 6814, 6874, 9961, 9955, 9935, 9937, 9828, 9939
7925, 4962, 304, 305, 5023, 4995, 1815, 4996, 7807, 5025, 5024
7926, 3502, 794, 2850, 3493, 9962, 9877, 9636, 3516, 9920, 7064
7927, 3689, 3719, 6845, 6876, 3928, 7618, 7739, 9309, 9310, 9758
7928, 507, 515, 498, 516, 2250, 9963, 2244, 2253, 519, 9043
7929, 6044, 357, 362, 5608, 6050, 2105, 6051, 9061, 5636, 8848
7930, 6046, 2059, 2107, 6852, 6061, 6062, 6064, 8671, 8935, 7756
7931, 5283, 1930, 296, 6815, 5291, 1932, 5289, 8308, 8312, 9153
7932, 150, 1345, 4136, 1757, 1346, 4139, 4138, 8233, 9949, 8424
7933, 988, 3364, 2839, 2860, 3377, 7599, 2960, 2962, 7516, 2963
7934, 5595, 6045, 5616, 2058, 7639, 8067, 5719, 5716, 6057, 5718
7935, 2861, 2832, 2840, 6866, 3015, 2983, 3016, 7899, 8951, 9385
7936, 3681, 3695, 6835, 6892, 3856, 9238, 9416, 7915, 8119, 9964
7937, 1415, 1578, 6890, 6899, 9485, 8939, 9470, 9965, 9195, 8644
7938, 130, 3665, 6116, 3658, 3818, 7529, 6141, 3812, 3819, 8941
7939, 2841, 2833, 2862, 6860, 2970, 3020, 3019, 9132, 8819, 7870
7940, 1800, 304, 6124, 1812, 4998, 6251, 9101, 4999, 1814, 6252
7941, 497, 506, 516, 517, 2247, 2254, 9044, 9378, 2252, 520
7942, 506, 498, 516, 507, 2246, 9043, 2254, 510, 2244, 2253
7943, 2852, 115, 106, 3365, 8879, 1111, 2880, 8954, 3371, 3370
7944, 3714, 3659, 3694, 6876, 3931, 3932, 3840, 9651, 9652, 9311
7945, 800, 3196, 3203, 1061, 9776, 3254, 9900, 9966, 9629, 9907
7946, 766, 1060, 3113, 1059, 9967, 3146, 9426, 9968, 1066, 3147
7947, 2087, 5959, 2088, 5597, 6010, 6009, 2094, 5760, 7218, 5761
7948, 849, 570, 2293, 2272, 2713, 2441, 9006, 8045, 2442, 2408
7949, 1188, 1415, 137, 6890, 4253, 9526, 4022, 9969, 9470, 9119
7950, 505, 497, 517, 506, 2245, 9378, 2251, 509, 2247, 2252
7951, 497, 505, 517, 496, 2245, 2251, 9378, 500, 2242, 9397
7952, 506, 498, 497, 516, 2246, 501, 2247, 2254, 9043, 9044
7953, 1310, 1195, 158, 1420, 9970, 4071, 1312, 9971, 4247, 8243
7954, 1191, 1395, 140, 1417, 9972, 1396, 4031, 4258, 9520, 8242
7955, 837, 3700, 3031, 3029, 9564, 8905, 9684, 9744, 7992, 3050
7956, 4130, 1757, 1419, 6868, 8111, 9960, 9868, 8112, 8113, 9116
7957, 1180, 1216, 1172, 1179, 6793, 9973, 3839, 1182, 6805, 3838
7958, 1208, 2131, 2119, 2132, 6794, 6610, 9671, 6806, 2134, 6608
7959, 2264, 64, 97, 2285, 2398, 862, 7015, 2400, 2399, 7435
7960, 799, 1059, 77, 775, 9323, 9376, 9974, 9975, 8344, 777
7961, 4888, 291, 294, 4886, 4931, 1787, 9716, 4933, 4926, 9331
7962, 3659, 6845, 3719, 6876, 7425, 7618, 3923, 9652, 9758, 9310
7963, 3493, 3502, 794, 3495, 3516, 9962, 9920, 3565, 3523, 9921
7964, 45, 2289, 2259, 6898, 2336, 2338, 2334, 9627, 9240, 7960
7965, 1028, 109, 1114, 3280, 1034, 8619, 7604, 7380, 9976, 8167
7966, 3196, 1061, 760, 1060, 9629, 9977, 9978, 9507, 1067, 9979
7967, 562, 2300, 2279, 840, 2437, 2439, 2382, 2692, 7962, 7963
7968, 110, 1139, 3493, 1042, 3592, 3517, 7066, 1048, 3593, 9865
7969, 111, 1083, 3193, 1056, 3606, 3217, 9980, 1062, 3607, 7128
7970, 109, 1028, 1097, 3280, 1034, 3579, 3578, 9976, 7380, 3302
7971, 1832, 1944, 1839, 5023, 8601, 9523, 5063, 5026, 8766, 5027
7972, 2046, 5792, 2047, 5596, 5831, 5830, 2053, 5711, 7050, 5712
7973, 324, 309, 325, 6870, 5040, 5032, 1858, 9981, 9370, 9912
7974, 191, 6123, 1591, 1578, 6215, 6217, 1594, 4547, 8938, 4551
7975, 1417, 1437, 5617, 5614, 4284, 5674, 9678, 9816, 5678, 5679
7976, 1154, 1153, 649, 3715, 1156, 6405, 6367, 3829, 3830, 9143
7977, 1710, 1711, 5357, 4695, 1717, 5384, 5383, 4777, 4767, 7954
7978, 190, 207, 208, 6878, 4306, 1480, 4297, 9982, 9983, 9916
7979, 381, 1833, 365, 6887, 9984, 9985, 2146, 9734, 8728, 9812
7980, 111, 800, 1061, 3110, 9407, 9966, 1068, 3117, 9986, 3123
7981, 6453, 6832, 6486, 6862, 8795, 8779, 6663, 8279, 9593, 7115
7982, 5271, 298, 4959, 6815, 5277, 9987, 8714, 7557, 9614, 8192
7983, 1753, 5783, 2110, 6844, 8952, 9462, 8881, 9866, 9463, 9037
7984, 307, 328, 462, 6813, 1862, 8028, 8032, 9709, 9989, 9988
7985, 596, 2270, 597, 877, 2420, 2480, 603, 2742, 7036, 2741
7986, 373, 1833, 136, 1211, 9871, 9616, 6795, 6796, 9390, 1213
7987, 1212, 1454, 137, 371, 8234, 9640, 1215, 6800, 8235, 6799
7988, 2127, 2126, 645, 6494, 2129, 6366, 6395, 6618, 6606, 9583
7989, 4664, 4662, 4958, 276, 4756, 7108, 7452, 4752, 4754, 4969
7990, 3708, 3697, 3652, 6875, 3900, 3793, 3901, 9302, 9451, 9590
7991, 837, 836, 2265, 3029, 843, 7773, 9565, 9744, 7772, 7771
7992, 41, 42, 2291, 6864, 532, 2325, 2324, 9521, 8814, 8365
7993, 1208, 186, 134, 135, 9944, 9990, 1209, 4011, 4243, 1184
7994, 5589, 5618, 5597, 6852, 5776, 5775, 5726, 8670, 7754, 7541
7995, 1390, 142, 4190, 6850, 1392, 4194, 4193, 9417, 9991, 9419
7996, 238, 1729, 281, 5439, 4869, 1735, 4868, 9752, 5451, 5450
7997, 335, 2032, 355, 5968, 5574, 2038, 5573, 9736, 5979, 5978
7998, 6483, 6839, 6447, 6861, 7394, 7997, 6733, 9567, 9794, 9198
7999, 2297, 2255, 598, 879, 2488, 2487, 2481, 9168, 9130, 2745
8000, 406, 415, 1453, 6812, 2172, 9441, 9442, 9992, 9808, 9030
8001, 373, 365, 1833, 6887, 2139, 9985, 9871, 8717, 9812, 8728
8002, 417, 6807, 426, 6828, 9768, 9847, 2181, 9993, 9624, 9848
8003, 2267, 2295, 583, 863, 2467, 2466, 2395, 8768, 8767, 2723
8004, 200, 4454, 1534, 6877, 4456, 4459, 1536, 9994, 9996, 9995
8005, 218, 487, 496, 6811, 9997, 2235, 9998, 9999, 10000, 9740
8006, 1417, 5615, 5614, 6897, 8259, 5677, 9816, 10001, 8420, 9078
8007, 1767, 5305, 292, 4888, 5313, 5314, 1769, 4932, 9628, 4934
8008, 264, 241, 4855, 4538, 1722, 4860, 4859, 7009, 4578, 7379
8009, 574, 2303, 2274, 853, 2458, 2460, 2456, 2719, 9325, 9506
8010, 6445, 6839, 6827, 6853, 7387, 8551, 7856, 9048, 9631, 9831
8011, 5366, 4683, 5360, 1714, 8823, 9545, 5395, 5370, 4772, 5393
8012, 1781, 174, 173, 4895, 6180, 1348, 6177, 4945, 9915, 9876
8013, 6479, 6480, 6438, 6854, 6615, 6715, 6714, 9666, 7000, 8850
8014, 1944, 1704, 1839, 5023, 9483, 5268, 9523, 8766, 8320, 5027
8015, 571, 850, 2293, 2286, 2712, 8541, 2440, 2447, 8173, 2410
8016, 347, 339, 453, 6813, 2014, 10002, 10003, 9910, 9829, 10004
8017, 3363, 1116, 992, 6866, 3399, 3397, 3390, 7820, 7819, 9384
8018, 3696, 120, 1615, 6875, 3786, 4606, 8598, 7818, 10005, 8599
8019, 218, 217, 487, 6811, 1499, 10006, 9997, 9999, 10007, 10000
8020, 1113, 3366, 989, 6860, 3384, 3381, 3382, 7619, 7906, 8004
8021, 5619, 5613, 5598, 6899, 5700, 5781, 5698, 8435, 9649, 7959
8022, 3700, 3031, 3029, 1030, 8905, 3050, 7992, 7994, 3063, 3060
8023, 2110, 2062, 6042, 6844, 6077, 6070, 6078, 9037, 9766, 7594
8024, 4540, 4538, 4542, 6816, 4577, 4581, 4583, 8389, 8020, 8261
8025, 317, 1902, 5186, 6869, 1904, 5195, 5193, 10008, 10010, 10009
8026, 469, 213, 210, 6811, 10011, 1489, 10012, 10013, 10015, 10014
8027, 1416, 1405, 138, 1580, 8647, 1406, 8648, 10016, 10018, 10017
8028, 293, 268, 5320, 4885, 1937, 5321, 5324, 4935, 8260, 9550
8029, 6827, 6839, 6807, 6853, 8551, 9799, 9345, 9831, 9631, 10019
8030, 308, 307, 462, 6813, 1830, 8032, 10020, 9710, 9709, 9988
8031, 6134, 2121, 6480, 6133, 6303, 6616, 9721, 6300, 6302, 7898
8032, 1802, 1801, 362, 5874, 1808, 9049, 7565, 8578, 9029, 9502
8033, 6785, 6137, 1216, 1179, 9843, 9849, 6802, 6792, 10021, 6805
8034, 1417, 5614, 6826, 6897, 9816, 9449, 9677, 10001, 9078, 8993
8035, 408, 1834, 417, 6854, 8983, 8984, 2174, 10022, 9298, 9769
8036, 867, 47, 3113, 2304, 10023, 9427, 9712, 9713, 2340, 8399
8037, 5020, 5018, 5021, 6869, 5060, 5067, 5043, 10024, 10025, 7189
8038, 2841, 3492, 1017, 1018, 8417, 3533, 3004, 3005, 3532, 1024
8039, 5353, 1461, 4293, 1455, 8777, 4313, 7970, 7967, 4335, 4312
8040, 1799, 6124, 1412, 1208, 9425, 9420, 9694, 9857, 9858, 9826
8041, 478, 487, 216, 6811, 2228, 10026, 10027, 10028, 10000, 10029
8042, 6137, 1172, 1179, 1171, 6266, 3838, 10021, 6265, 1175, 3837
8043, 217, 216, 487, 6811, 1498, 10026, 10006, 10007, 10029, 10000
8044, 2295, 583, 863, 2275, 2466, 2723, 8767, 2468, 2465, 9275
8045, 4148, 1756, 149, 4142, 9837, 9908, 4152, 9838, 9159, 4144
8046, 37, 3700, 3031, 837, 3774, 8905, 8906, 9566, 9564, 9684
8047, 3498, 1016, 3505, 893, 3529, 3524, 3531, 10030, 2904, 10031
8048, 4288, 4290, 4291, 6877, 4330, 4309, 4337, 10032, 10033, 8790
8049, 6819, 6827, 6807, 6854, 8224, 9345, 9330, 9167, 9193, 9299
8050, 1172, 6123, 1216, 1180, 6270, 9692, 9973, 3839, 10034, 6793
8051, 298, 1927, 5283, 6815, 1929, 5292, 5290, 9614, 7555, 8308
8052, 6467, 6497, 6472, 6828, 6709, 6713, 6520, 10035, 9932, 9833
8053, 5608, 5609, 357, 5871, 5640, 5639, 5636, 8285, 9106, 9811
8054, 155, 1320, 4106, 6841, 1321, 4109, 4108, 9952, 9864, 8950
8055, 5021, 5020, 6869, 6871, 5043, 10024, 7189, 7191, 9885, 7193
8056, 93, 112, 1070, 6477, 9541, 1076, 10036, 6552, 9543, 9505
8057, 1060, 3109, 81, 763, 3149, 8917, 10037, 10038, 8679, 765
8058, 4542, 264, 242, 4689, 8516, 1690, 4558, 7428, 4713, 4712
8059, 5594, 2045, 2046, 5787, 5708, 2052, 5709, 7433, 5828, 5827
8060, 2861, 2858, 798, 896, 2923, 9495, 9364, 2918, 2922, 2769
8061, 2132, 6132, 1208, 6786, 10039, 9825, 6806, 6789, 9844, 6798
8062, 5271, 1822, 306, 4959, 5280, 1823, 5281, 8714, 4978, 5005
8063, 6422, 6471, 361, 6819, 6602, 6600, 6580, 7507, 7177, 9817
8064, 2132, 2119, 6132, 2120, 6608, 6301, 10039, 6609, 2123, 6297
8065, 796, 6901, 6889, 6902, 9586, 7322, 8335, 8567, 9177, 7464
8066, 4291, 6877, 4290, 6879, 8790, 10033, 4309, 8792, 8793, 9890
8067, 15, 17, 6812, 6845, 441, 10040, 9490, 9757, 10041, 8853
8068, 5618, 5612, 1435, 1415, 5670, 5669, 5658, 9469, 9675, 4279
8069, 6138, 6479, 348, 6436, 7942, 6577, 6255, 10042, 6579, 6576
8070, 106, 3406, 2852, 2853, 9813, 8355, 2880, 2883, 9124, 2884
8071, 1419, 1757, 4894, 6868, 9960, 4924, 10043, 9116, 8113, 8114
8072, 5598, 5613, 5612, 6899, 5781, 5668, 5778, 7959, 9649, 9398
8073, 44, 45, 2259, 6898, 535, 2334, 2333, 8979, 9627, 7960
8074, 213, 6811, 216, 6875, 10015, 10029, 1497, 8148, 9789, 8150
8075, 5596, 5617, 5588, 6844, 5772, 5771, 5739, 7894, 8425, 7595
8076, 3204, 3192, 965, 897, 3234, 3233, 3227, 10044, 10045, 2926
8077, 1776, 4885, 293, 5319, 4908, 4935, 1777, 5328, 9676, 5329
8078, 40, 41, 2281, 6864, 531, 2322, 2321, 9024, 9521, 9204
8079, 4966, 302, 163, 4076, 4990, 6148, 8830, 9459, 9458, 4081
8080, 4142, 174, 4148, 4895, 4143, 4153, 9838, 8957, 9915, 9839
8081, 1415, 6890, 5612, 6899, 9470, 9094, 9675, 9965, 8644, 9398
8082, 3644, 128, 3693, 6817, 3810, 3806, 3811, 7549, 9822, 7551
8083, 3497, 3498, 3491, 795, 3556, 3555, 3547, 8987, 8988, 9855
8084, 306, 275, 5272, 4959, 1926, 5273, 5276, 5005, 8146, 8263
8085, 6106, 6130, 6115, 6882, 6289, 6354, 6161, 9771, 8735, 9697
8086, 3714, 3640, 3705, 6876, 3841, 3842, 3844, 9651, 9929, 9127
8087, 211, 188, 460, 6808, 1484, 8079, 8080, 10046, 10048, 10047
8088, 1839, 1704, 1944, 5363, 5268, 9483, 9523, 9352, 9820, 5372
8089, 6495, 351, 6439, 6363, 6589, 6590, 6550, 8558, 6392, 7839
8090, 359, 2089, 5971, 5587, 2096, 5983, 5977, 5644, 5643, 9356
8091, 325, 309, 308, 6870, 5032, 1831, 5031, 9912, 9370, 9264
8092, 46, 2289, 45, 6898, 2337, 2336, 536, 8829, 9240, 9627
8093, 4130, 171, 172, 6105, 4135, 1338, 4131, 8383, 6175, 6174
8094, 6808, 6811, 6831, 6874, 9936, 10049, 10050, 9937, 9938, 10051
8095, 190, 208, 189, 6878, 4297, 4298, 1452, 9982, 9916, 9592
8096, 6808, 6811, 211, 6831, 9936, 10052, 10046, 10050, 10049, 7897
8097, 1941, 5342, 282, 6816, 5351, 5349, 1943, 8505, 8502, 9371
8098, 5342, 1723, 279, 6816, 5350, 1725, 5348, 8502, 7735, 9670
8099, 781, 798, 6855, 6864, 9783, 9686, 10053, 9701, 9853, 8614
8100, 6459, 6428, 6483, 6861, 6671, 6668, 6670, 9199, 9315, 9567
8101, 1300, 186, 160, 1804, 7693, 8470, 1302, 7692, 7689, 9723
8102, 1192, 1370, 145, 6840, 10054, 1371, 4042, 8288, 10055, 9617
8103, 1075, 116, 3404, 112, 3618, 3431, 9836, 1082, 3619, 10056
8104, 471, 327, 334, 6809, 10057, 1871, 10058, 10059, 10061, 10060
8105, 5429, 5604, 5440, 336, 7567, 7566, 5457, 5446, 5626, 5455
8106, 212, 243, 6808, 6831, 1606, 10062, 10063, 9095, 9618, 10050
8107, 350, 352, 6424, 2018, 2026, 6587, 6586, 2020, 5568, 9760
8108, 3156, 1070, 112, 6477, 3163, 1076, 3159, 9009, 9505, 9543
8109, 6808, 6831, 6848, 6874, 10050, 9830, 9961, 9937, 10051, 9828
8110, 2838, 3195, 962, 963, 7239, 3222, 2938, 2939, 3221, 969
8111, 487, 496, 6811, 6814, 2235, 9740, 10000, 10064, 9739, 9738
8112, 332, 480, 333, 6809, 9391, 10065, 1869, 10066, 10068, 10067
8113, 5353, 1566, 1461, 1711, 9517, 4532, 8777, 5386, 4766, 8902
8114, 120, 119, 3646, 1615, 1159, 3778, 3784, 4606, 1616, 8548
8115, 289, 1974, 337, 5784, 5515, 1980, 5514, 7244, 5805, 5802
8116, 5966, 2087, 2086, 5593, 6006, 2093, 6007, 7613, 5759, 5662
8117, 837, 836, 559, 2265, 843, 2697, 2700, 9565, 7773, 2316
8118, 5612, 5613, 1435, 6899, 5668, 5667, 5669, 9398, 9649, 10069
8119, 4100, 6841, 156, 6882, 8949, 9683, 4102, 9875, 9588, 9882
8120, 280, 239, 1582, 4544, 1728, 4572, 9764, 9689, 4571, 4566
8121, 4965, 162, 302, 4076, 9894, 6147, 4987, 9759, 4077, 9458
8122, 559, 836, 558, 2265, 2697, 2695, 565, 2316, 7773, 2429
8123, 162, 164, 4082, 1826, 1298, 4083, 4087, 6149, 6150, 9235
8124, 188, 189, 460, 6808, 1451, 8886, 8079, 10048, 10070, 10047
8125, 362, 6041, 5609, 357, 6048, 9221, 9220, 2105, 6049, 5639
8126, 115, 106, 3361, 2853, 1111, 3369, 3368, 9224, 2883, 9032
8127, 2086, 5966, 5593, 1434, 6007, 7613, 5662, 5660, 9791, 5661
8128, 5018, 5021, 6869, 6873, 5067, 7189, 10025, 9950, 10072, 10071
8129, 2297, 575, 854, 2278, 2461, 2709, 8744, 2463, 2391, 8746
8130, 332, 489, 480, 6809, 9392, 2230, 9391, 10066, 10073, 10068
8131, 2048, 5786, 5592, 2047, 5833, 7601, 5683, 2054, 5834, 5714
8132, 6124, 1832, 1412, 6132, 6253, 8808, 9420, 6294, 6293, 9827
8133, 2300, 585, 865, 2294, 2475, 2728, 8142, 2476, 2474, 8896
8134, 6481, 12, 6418, 6828, 6510, 6512, 6514, 7412, 10074, 8503
8135, 3686, 6835, 3695, 6848, 8663, 9238, 3859, 8834, 10075, 8836
8136, 6135, 6139, 6116, 6858, 6274, 6223, 6264, 9339, 8266, 9547
8137, 4854, 4538, 4855, 241, 8209, 7379, 4862, 4861, 4578, 4860
8138, 4288, 6877, 4291, 6881, 10032, 8790, 4337, 9954, 10077, 10076
8139, 1832, 136, 1412, 6132, 9537, 9448, 8808, 6293, 9824, 9827
8140, 268, 4885, 269, 4659, 8260, 4898, 1695, 4730, 7633, 4731
8141, 5602, 2071, 5873, 4265, 5649, 5915, 8584, 7956, 7955, 7518
8142, 331, 332, 6356, 1875, 1868, 9393, 8221, 5083, 5084, 6384
8143, 1709, 5355, 4675, 1710, 5380, 7535, 4773, 1716, 5381, 4776
8144, 2852, 2847, 2834, 6837, 2964, 3023, 2996, 8955, 8509, 9715
8145, 3150, 89, 736, 801, 7222, 737, 8701, 9535, 10079, 10078
8146, 1966, 336, 5605, 5444, 1973, 5629, 5628, 5456, 5449, 8889
8147, 5599, 5615, 5620, 6897, 5782, 5704, 5707, 7982, 8420, 9207
8148, 3668, 6842, 6848, 6892, 7793, 9202, 9279, 7832, 8961, 9840
8149, 850, 2293, 570, 571, 8541, 2441, 2711, 2712, 2440, 577
8150, 118, 6364, 3716, 3661, 6369, 8918, 3780, 3783, 7949, 3771
8151, 68, 3030, 614, 1031, 9664, 8275, 616, 10080, 3065, 8456
8152, 175, 4154, 1780, 6126, 4159, 9354, 6181, 6184, 8841, 6185
8153, 897, 2861, 2836, 799, 2917, 2929, 2928, 2772, 8861, 9164
8154, 649, 3715, 524, 1154, 9143, 3825, 9225, 6367, 3829, 3828
8155, 6484, 6828, 6437, 6854, 8504, 9897, 6710, 8268, 7413, 8851
8156, 6438, 6478, 6479, 6854, 6703, 6660, 6714, 8850, 8330, 9666
8157, 2072, 5590, 5878, 2073, 5747, 9699, 5918, 2079, 5748, 5917
8158, 1385, 4184, 142, 6850, 4187, 4186, 1386, 9958, 9307, 9991
8159, 839, 561, 2266, 2281, 2702, 2434, 9285, 9602, 2436, 2435
8160, 212, 451, 189, 6808, 10081, 8885, 1487, 10063, 10082, 10070
8161, 5788, 1439, 1419, 5800, 7197, 4285, 8154, 5842, 9918, 8155
8162, 1961, 1962, 5619, 5433, 1968, 5695, 5694, 5475, 5474, 7904
8163, 327, 6809, 6813, 6832, 10061, 10083, 10084, 8610, 9580, 10085
8164, 5603, 5590, 5608, 6836, 5779, 5752, 5720, 8838, 9700, 9062
8165, 3699, 6891, 6874, 6900, 9804, 8749, 7791, 9725, 9661, 8776
8166, 6494, 2126, 645, 552, 6606, 6366, 9583, 6604, 6605, 9182
8167, 793, 891, 2851, 2847, 2759, 2891, 8978, 9267, 2894, 2896
8168, 1432, 5603, 5607, 1412, 5650, 5652, 5647, 4273, 9546, 8555
8169, 1033, 109, 114, 3288, 1040, 3577, 3576, 7157, 9634, 3304
8170, 6116, 6139, 246, 245, 6223, 6222, 6140, 9471, 7977, 1609
8171, 6825, 6845, 3659, 6876, 8852, 7425, 7674, 9805, 9758, 9652
8172, 6458, 6491, 2121, 6133, 6614, 6613, 6611, 9201, 7006, 6302
8173, 1061, 113, 3203, 111, 3604, 3219, 9907, 1068, 3605, 9863
8174, 117, 1047, 110, 3503, 3590, 1054, 3591, 3519, 7165, 7506
8175, 193, 4292, 1453, 6824, 4314, 4318, 4316, 10086, 8575, 7888
8176, 979, 2864, 3285, 980, 2954, 7281, 3321, 986, 2955, 3320
8177, 1713, 5362, 1712, 4678, 5390, 5389, 1719, 4779, 7356, 4768
8178, 964, 2840, 963, 3205, 2942, 2941, 970, 3224, 8611, 3225
8179, 310, 1834, 5022, 6823, 5046, 5048, 5045, 9075, 7227, 8597
8180, 451, 460, 189, 6808, 2208, 8886, 8885, 10082, 10047, 10070
8181, 835, 557, 2277, 2296, 2696, 2425, 9270, 8803, 2426, 2428
8182, 111, 631, 85, 748, 9430, 2578, 7656, 8517, 9432, 749
8183, 3277, 975, 2863, 976, 3307, 2946, 7537, 3306, 982, 2947
8184, 6137, 6123, 1455, 1415, 6271, 6216, 6275, 9851, 9484, 9753
8185, 868, 50, 3109, 867, 9795, 8716, 9099, 874, 10087, 8680
8186, 195, 4509, 1554, 6824, 4511, 4514, 1556, 10088, 10090, 10089
8187, 1418, 1755, 1370, 6840, 9763, 8784, 10091, 8289, 9404, 10055
8188, 6362, 188, 211, 214, 8083, 1484, 8082, 6372, 9893, 10092
8189, 6137, 1172, 1216, 1179, 6266, 9973, 9849, 10021, 3838, 6805
8190, 3414, 1003, 1002, 2834, 3436, 1009, 3437, 9714, 2992, 2991
8191, 3662, 3702, 3699, 6900, 3772, 3942, 3941, 8454, 9158, 9725
8192, 312, 1917, 5241, 6823, 1919, 5250, 5248, 10093, 10095, 10094
8193, 4538, 4540, 279, 6816, 4577, 9669, 9925, 8020, 8389, 9670
8194, 1455, 137, 6137, 1415, 9079, 9850, 6275, 9753, 9526, 9851
8195, 6493, 6428, 6459, 6861, 6565, 6671, 6672, 9861, 9315, 9199
8196, 88, 801, 739, 6857, 9785, 10096, 740, 8900, 9001, 10097
8197, 5294, 296, 1930, 6838, 5301, 1932, 5303, 9324, 9155, 9004
8198, 3109, 760, 1061, 1060, 8715, 9977, 3148, 3149, 9979, 1067
8199, 517, 496, 6814, 6900, 9397, 9739, 10098, 8703, 9742, 9743
8200, 4100, 1315, 157, 6882, 4103, 1317, 4104, 9875, 9881, 10099
8201, 3031, 66, 1031, 1030, 8907, 10100, 3062, 3063, 10101, 1037
8202, 1340, 1419, 152, 6868, 9869, 10102, 1342, 8650, 9116, 8649
8203, 3408, 1001, 2751, 2846, 3434, 7957, 7406, 8485, 2893, 7958
8204, 5606, 5607, 1413, 1433, 5657, 9387, 9846, 5656, 5646, 4275
8205, 794, 2851, 892, 2850, 9439, 2890, 2760, 9877, 2901, 2900
8206, 2279, 585, 865, 2300, 2469, 2728, 8262, 2439, 2475, 8142
8207, 6808, 6812, 6835, 6892, 9188, 10103, 10104, 8960, 10105, 9964
8208, 6449, 6861, 6839, 6862, 9200, 9794, 9554, 7113, 9512, 8264
8209, 5432, 5620, 1966, 1965, 8291, 5703, 5486, 5487, 5702, 1972
8210, 2299, 584, 864, 2279, 2471, 2726, 8367, 2387, 2470, 8631
8211, 1417, 6826, 1581, 6897, 9677, 8600, 10106, 10001, 8993, 8813
8212, 5618, 5593, 1414, 1434, 5663, 9123, 9121, 5659, 5661, 4276
8213, 5601, 1420, 1440, 5611, 9859, 4270, 5692, 5693, 9223, 5686
8214, 287, 1754, 285, 6109, 4911, 7945, 1750, 6230, 9212, 6231
8215, 4541, 192, 191, 4293, 4545, 1460, 4546, 7283, 4311, 4310
8216, 1412, 5602, 1432, 6836, 8908, 5648, 4273, 8215, 8316, 9901
8217, 3, 2132, 6786, 6458, 2135, 6789, 6788, 6503, 6502, 9702
8218, 302, 1826, 162, 4965, 1829, 6149, 6147, 4987, 4992, 9894
8219, 5592, 1418, 1438, 5617, 9135, 4282, 5684, 5685, 9136, 5673
8220, 1461, 1566, 5353, 4293, 4532, 9517, 8777, 4313, 8319, 7970
8221, 3031, 67, 1031, 610, 9211, 9555, 3062, 9015, 612, 10107
8222, 2301, 59, 2302, 882, 2369, 2371, 2373, 9476, 9477, 9641
8223, 1083, 111, 3193, 113, 3606, 9980, 3217, 1089, 3605, 3210
8224, 1139, 110, 3493, 117, 3592, 7066, 3517, 1145, 3591, 3510
8225, 114, 109, 1097, 3280, 3577, 3578, 1103, 3295, 9976, 3302
8226, 2294, 586, 866, 2289, 2473, 2732, 9719, 2479, 2478, 9239
8227, 1, 3680, 5, 6858, 3721, 3723, 387, 9236, 9012, 8563
8228, 1801, 4967, 1802, 362, 5008, 5007, 1808, 9049, 7420, 7565
8229, 277, 4958, 4662, 276, 4968, 7108, 4755, 1703, 4969, 4754
8230, 1059, 3113, 79, 769, 3147, 9503, 10108, 10109, 9646, 771
8231, 328, 6365, 248, 307, 8030, 6382, 10110, 1862, 8031, 9911
8232, 1070, 69, 93, 6477, 10111, 726, 10036, 9505, 6554, 6552
8233, 3504, 1016, 2837, 1017, 3528, 2906, 8646, 3527, 1023, 3003
8234, 4958, 4683, 277, 4662, 9243, 4757, 4968, 7108, 4759, 4755
8235, 4, 6785, 1179, 3682, 6790, 6792, 1181, 3724, 9337, 3725
8236, 1413, 335, 5957, 5968, 9388, 9735, 9946, 10112, 9736, 5981
8237, 4884, 269, 4659, 4693, 4897, 4731, 7712, 8421, 4733, 4735
8238, 1005, 3407, 1006, 2844, 3446, 3445, 1012, 3001, 8495, 2933
8239, 790, 3030, 68, 1031, 9658, 9664, 791, 9819, 3065, 10080
8240, 2274, 575, 854, 2297, 2455, 2709, 9084, 2462, 2461, 8744
8241, 3640, 3714, 3694, 6876, 3841, 3840, 3739, 9929, 9651, 9311
8242, 1061, 83, 757, 3110, 10113, 759, 9809, 3123, 9674, 8997
8243, 5615, 5599, 5614, 6897, 5782, 5773, 5677, 8420, 7982, 9078
8244, 5020, 316, 5018, 6869, 5059, 5057, 5060, 10024, 10114, 10025
8245, 1208, 2119, 6132, 2132, 9671, 6301, 9825, 6806, 6608, 10039
8246, 4118, 169, 170, 6095, 4123, 1328, 4119, 8180, 6169, 6168
8247, 6479, 6436, 6138, 6854, 6579, 10042, 7942, 9666, 9166, 9667
8248, 199, 4290, 4288, 6877, 4328, 4330, 4327, 10115, 10033, 10032
8249, 2132, 6786, 6458, 2120, 6789, 9702, 6502, 6609, 9703, 6612
8250, 1042, 794, 3499, 3493, 8582, 9919, 9389, 9865, 9920, 3541
8251, 2072, 5602, 2071, 5873, 5746, 5649, 2078, 5914, 8584, 5915
8252, 4589, 246, 6139, 245, 4600, 6222, 9045, 4597, 1609, 7977
8253, 1016, 3498, 2837, 893, 3529, 8986, 2906, 2904, 10030, 2905
8254, 3502, 892, 794, 3495, 9648, 2760, 9962, 3523, 7255, 9921
8255, 6813, 6818, 6807, 6839, 10116, 10117, 9328, 9093, 10118, 9799
8256, 277, 4962, 4683, 4958, 4974, 8822, 4757, 4968, 4975, 9243
8257, 3203, 800, 111, 3194, 9900, 9407, 9863, 3220, 9777, 9862
8258, 3677, 6831, 3649, 6875, 9146, 9147, 3881, 9453, 10119, 9452
8259, 1566, 5353, 1712, 1711, 9517, 5387, 4765, 4766, 5386, 1718
8260, 6427, 342, 6469, 6832, 6570, 6566, 6571, 8781, 8609, 8780
8261, 891, 793, 2846, 2847, 2759, 9203, 2892, 2894, 9267, 2895
8262, 3641, 3681, 19, 6892, 3748, 3747, 3743, 7914, 7915, 10120
8263, 1799, 186, 5879, 303, 10121, 8884, 9499, 1805, 10122, 9498
8264, 317, 316, 5020, 6869, 1850, 5059, 5058, 10008, 10114, 10024
8265, 5872, 5600, 2076, 2075, 8352, 5689, 5926, 5927, 5757, 2082
8266, 6462, 26, 6420, 6818, 6531, 6533, 6535, 8050, 10123, 8052
8267, 6832, 6861, 6469, 6862, 10124, 9406, 8780, 9593, 9512, 7114
8268, 1019, 3500, 2839, 1018, 3535, 7260, 3008, 1025, 3536, 3007
8269, 173, 172, 1781, 4136, 1343, 6178, 6177, 4137, 4141, 8343
8270, 345, 344, 5559, 6138, 2011, 5561, 5560, 10125, 6256, 9450
8271, 647, 3073, 1042, 1043, 8539, 3100, 7733, 8773, 3099, 1049
8272, 1219, 138, 1409, 1190, 1221, 1411, 4242, 4010, 4026, 10126
8273, 1292, 135, 160, 1288, 10127, 4017, 1293, 4075, 4013, 1289
8274, 1243, 146, 1370, 1192, 1245, 1372, 4234, 4043, 4044, 10054
8275, 1279, 1195, 158, 1310, 4070, 4071, 1281, 4222, 9970, 1312
8276, 1390, 1231, 142, 1191, 4238, 1233, 1392, 10128, 4034, 4035
8277, 152, 1194, 1264, 1335, 4058, 4059, 1265, 1336, 9947, 4227
8278, 154, 1330, 1267, 1194, 1332, 4226, 1269, 4062, 7481, 4061
8279, 1228, 1395, 140, 1191, 4239, 1396, 1229, 4032, 9972, 4031
8280, 1315, 1195, 156, 1276, 10129, 4067, 1316, 4223, 4068, 1277
8281, 144, 1240, 1375, 1192, 1241, 4235, 1376, 4040, 4041, 9227
8282, 1255, 150, 1350, 1193, 1257, 1352, 4230, 4052, 4053, 9444
8283, 148, 1252, 1355, 1193, 1253, 4231, 1356, 4049, 4050, 10130
8284, 478, 6811, 469, 6814, 10028, 10013, 2221, 10131, 9738, 10132
8285, 1412, 1432, 5603, 6836, 4273, 5650, 9546, 8215, 9901, 8838
8286, 899, 801, 2855, 2845, 2756, 8999, 2930, 2936, 9577, 2937
8287, 200, 4290, 199, 6877, 4329, 4328, 1472, 9994, 10033, 10115
8288, 1061, 82, 3196, 760, 10133, 10134, 9629, 9977, 762, 9978
8289, 6430, 354, 6475, 6832, 6596, 6572, 6598, 8857, 8534, 8856
8290, 289, 1419, 4894, 6868, 8371, 10043, 4920, 7752, 9116, 8114
8291, 3031, 3700, 66, 1030, 8905, 3773, 8907, 3063, 7994, 10101
8292, 313, 5230, 312, 6873, 5237, 5236, 1846, 9747, 10135, 9746
8293, 1418, 146, 1370, 1755, 10136, 1372, 10091, 9763, 8783, 8784
8294, 1001, 3408, 1002, 2846, 3434, 3433, 1008, 2893, 8485, 2990
8295, 5964, 2089, 2088, 5595, 6012, 2095, 6013, 7348, 5764, 5763
8296, 1949, 1414, 5956, 1948, 8911, 9464, 9480, 1955, 8709, 8211
8297, 1061, 754, 83, 3110, 10137, 755, 10113, 3123, 9688, 9674
8298, 964, 3204, 965, 2836, 3228, 3227, 971, 2944, 9269, 2927
8299, 195, 4498, 196, 6881, 4501, 4500, 1468, 9755, 10138, 9754
8300, 462, 453, 6813, 6818, 2209, 10004, 9988, 10139, 10140, 10116
8301, 5600, 1420, 1440, 5601, 9386, 4270, 5690, 5691, 9859, 5692
8302, 965, 3192, 966, 897, 3233, 3232, 972, 2926, 10045, 2924
8303, 1419, 1439, 5611, 5586, 4285, 5687, 8373, 9707, 5633, 5688
8304, 800, 898, 2855, 2830, 2770, 2931, 9313, 9884, 2872, 2932
8305, 3201, 1059, 1060, 799, 9375, 1066, 9486, 10141, 9323, 10142
8306, 4148, 1756, 148, 1355, 9837, 9892, 4150, 4151, 10143, 1356
8307, 487, 6811, 478, 6814, 10000, 10028, 2228, 10064, 9738, 10131
8308, 4100, 166, 167, 6115, 4105, 1313, 4101, 8947, 6160, 6159
8309, 3680, 3664, 7, 6858, 3730, 3729, 3727, 9012, 9010, 8562
8310, 71, 66, 3700, 1030, 656, 3773, 3776, 10144, 10101, 7994
8311, 795, 3491, 1044, 1043, 9855, 9516, 9902, 8772, 9414, 1050
8312, 1016, 1015, 3505, 893, 1022, 3525, 3524, 2904, 2897, 10031
8313, 149, 1756, 4148, 1355, 9908, 9837, 4152, 1357, 10143, 4151
8314, 332, 2018, 331, 6809, 10145, 5567, 1868, 10066, 8092, 9308
8315, 282, 5331, 1941, 6833, 5337, 5339, 1943, 9372, 9429, 9258
8316, 838, 37, 38, 3031, 10146, 528, 9668, 8273, 8906, 9083
8317, 3641, 19, 6845, 6892, 3743, 10147, 7737, 7914, 10120, 9400
8318, 1335, 152, 1419, 6868, 1336, 10102, 10148, 9527, 8649, 9116
8319, 1061, 757, 82, 3109, 9809, 758, 10133, 3148, 8994, 8927
8320, 145, 1375, 1192, 6840, 1377, 9227, 4042, 9617, 9228, 8288
8321, 1335, 1419, 1194, 6868, 10148, 4263, 9947, 9527, 9116, 7482
8322, 6463, 6853, 6818, 6862, 7447, 9931, 8543, 7104, 9113, 9835
8323, 4538, 279, 240, 4854, 9925, 1726, 4575, 8209, 4857, 4856
8324, 6123, 6137, 1172, 1216, 6271, 6266, 6270, 9692, 9849, 9973
8325, 1187, 1948, 1414, 1212, 8708, 8709, 4251, 4074, 7874, 10149
8326, 197, 4487, 1546, 6881, 4489, 4492, 1548, 9953, 10151, 10150
8327, 4190, 181, 182, 6094, 4195, 1388, 4191, 9515, 6202, 6201
8328, 180, 181, 4184, 6119, 1383, 4185, 4189, 6199, 6198, 9435
8329, 6091, 168, 167, 4106, 6162, 1318, 6163, 9059, 4107, 4111
8330, 296, 6815, 1930, 6838, 9153, 8312, 1932, 9155, 8069, 9004
8331, 835, 910, 3033, 3032, 2777, 3038, 8804, 9178, 3042, 3044
8332, 797, 3292, 3282, 3276, 10152, 3341, 10153, 10154, 3340, 3335
8333, 112, 69, 93, 1070, 10155, 726, 9541, 1076, 10111, 10036
8334, 308, 248, 326, 6870, 9657, 10156, 5029, 9264, 9110, 9913
8335, 189, 209, 214, 6878, 4294, 10157, 9591, 9592, 9917, 9108
8336, 170, 171, 4124, 6128, 1333, 4125, 4129, 6172, 6171, 8486
8337, 3691, 3713, 125, 6831, 3802, 3801, 3797, 8586, 8587, 7896
8338, 2836, 3204, 965, 897, 9269, 3227, 2927, 2928, 10044, 2926
8339, 4178, 179, 180, 6093, 4183, 1378, 4179, 7740, 6196, 6195
8340, 923, 849, 3073, 3074, 2791, 8044, 3083, 3079, 7716, 3085
8341, 5968, 5957, 1413, 5958, 5981, 9946, 10112, 6023, 6021, 10158
8342, 6826, 6840, 1417, 6850, 9271, 8290, 9677, 9346, 8737, 9948
8343, 3151, 954, 882, 3150, 3162, 2820, 9478, 3180, 3178, 9569
8344, 303, 4076, 161, 1292, 9460, 4080, 10159, 9879, 4079, 1294
8345, 877, 3156, 3155, 949, 7035, 3167, 7034, 2819, 3161, 3165
8346, 6809, 6818, 6813, 6862, 10160, 10116, 10083, 10161, 9835, 10162
8347, 801, 899, 2844, 2845, 2756, 2934, 9457, 9577, 2936, 2935
8348, 3113, 48, 47, 867, 9428, 538, 9427, 9712, 9466, 10023
8349, 6835, 6848, 3686, 6891, 10075, 8834, 8663, 9722, 9137, 7933
8350, 5601, 5591, 5600, 6829, 5780, 5758, 5691, 8489, 9775, 8041
8351, 314, 1911, 5219, 6873, 1913, 5228, 5226, 9951, 10164, 10163
8352, 801, 88, 742, 6857, 9785, 744, 9784, 9001, 8900, 8899
8353, 138, 1580, 4214, 1409, 10017, 9599, 4219, 1411, 9934, 4218
8354, 3491, 1044, 3497, 795, 9516, 8560, 3547, 9855, 9902, 8987
8355, 312, 5230, 1917, 6823, 5236, 5238, 1919, 10093, 10165, 10095
8356, 838, 837, 37, 3031, 844, 9566, 10146, 8273, 9684, 8906
8357, 4172, 178, 179, 6131, 4177, 1373, 4173, 8685, 6193, 6192
8358, 928, 3072, 3068, 854, 3080, 3098, 3096, 2792, 8745, 9085
8359, 1454, 6785, 137, 371, 9597, 6801, 9640, 8235, 6791, 6799
8360, 136, 6786, 1833, 373, 6797, 9704, 9616, 6795, 6787, 9871
8361, 1554, 4498, 195, 6824, 4502, 4501, 1556, 10089, 10166, 10088
8362, 294, 5305, 4888, 6838, 5312, 9628, 9716, 9332, 9368, 7847
8363, 941, 3110, 3109, 868, 3121, 3139, 3137, 2806, 9098, 9099
8364, 212, 6808, 189, 6831, 10063, 10070, 1487, 9095, 10050, 8820
8365, 1060, 3113, 80, 766, 3146, 9482, 10167, 9967, 9426, 768
8366, 1803, 1420, 6820, 6882, 9065, 8361, 7846, 8734, 9959, 9226
8367, 1216, 1578, 6123, 1415, 9690, 8938, 9692, 9852, 9485, 9484
8368, 778, 75, 798, 6855, 779, 10168, 9732, 9895, 10169, 9686
8369, 863, 936, 3115, 3114, 2805, 3120, 8769, 9274, 3124, 3126
8370, 868, 587, 588, 50, 2733, 594, 2724, 9795, 2346, 2348
8371, 868, 587, 50, 867, 2733, 2346, 9795, 874, 2731, 10087
8372, 561, 839, 2292, 2281, 2702, 9696, 2432, 2436, 9602, 2323
8373, 5961, 1434, 2086, 2085, 9793, 5660, 6003, 6004, 5653, 2092
8374, 1438, 2049, 5793, 2048, 5680, 5836, 10170, 5682, 2055, 5837
8375, 1581, 6826, 1417, 6850, 8600, 9677, 10106, 8519, 9346, 9948
8376, 298, 300, 5271, 4959, 1796, 5278, 5277, 9987, 4979, 8714
8377, 241, 4854, 4538, 1599, 4861, 8209, 4578, 1601, 4858, 4576
8378, 2834, 2847, 2846, 6837, 3023, 2895, 2993, 9715, 8509, 9538
8379, 2835, 2844, 2845, 6830, 3002, 2935, 3024, 9604, 7629, 8217
8380, 6785, 1179, 3682, 1171, 6792, 3725, 9337, 9595, 3837, 3831
8381, 3113, 79, 766, 1059, 9503, 767, 9426, 3147, 10108, 9968
8382, 915, 840, 3028, 3027, 2778, 7964, 3039, 3055, 8683, 3057
8383, 242, 4538, 264, 4542, 4580, 7009, 1690, 4558, 4581, 8516
8384, 6138, 345, 6134, 6854, 10125, 9183, 6260, 9667, 9297, 9578
8385, 6121, 169, 168, 4112, 6165, 1323, 6166, 8187, 4113, 4117
8386, 177, 176, 6127, 4160, 1363, 6187, 6186, 4161, 4165, 8633
8387, 313, 5219, 1914, 6873, 5225, 5227, 1916, 9747, 10163, 10171
8388, 6116, 1170, 6135, 6858, 6142, 6262, 6264, 9547, 9922, 9339
8389, 29, 6891, 3684, 6900, 10172, 8305, 3758, 10173, 9661, 9157
8390, 2119, 6132, 6124, 1208, 6301, 6294, 6286, 9671, 9825, 9858
8391, 1917, 1914, 5231, 6873, 5240, 5234, 5235, 10174, 10171, 10175
8392, 1908, 5209, 1911, 6873, 5212, 5213, 5218, 10176, 10177, 10164
8393, 797, 3283, 3284, 3276, 9927, 3342, 7253, 10154, 3332, 3343
8394, 4499, 1550, 1554, 6881, 4506, 4508, 4507, 10178, 10180, 10179
8395, 4477, 1542, 1546, 6881, 4484, 4486, 4485, 10181, 10182, 10150
8396, 1917, 5230, 1914, 6873, 5238, 5239, 5240, 10174, 10135, 10171
8397, 1908, 1911, 5208, 6873, 5218, 5216, 5217, 10176, 10164, 10183
8398, 29, 3684, 3702, 6900, 3758, 3763, 3762, 10173, 9157, 9158
8399, 1179, 6785, 6137, 1171, 6792, 9843, 10021, 3837, 9595, 6265
8400, 1412, 6124, 6132, 1208, 9420, 6294, 9827, 9826, 9858, 9825
8401, 5434, 5430, 5442, 1416, 5469, 5499, 5498, 10184, 10186, 10185
8402, 1755, 1418, 1360, 1756, 9763, 10187, 8990, 1762, 10188, 8991
8403, 1550, 4498, 1554, 6881, 4503, 4502, 4508, 10180, 10138, 10179
8404, 1542, 4476, 1546, 6881, 4481, 4480, 4486, 10182, 10189, 10150
8405, 270, 4888, 1770, 271, 4902, 4901, 1772, 1697, 7842, 5317
8406, 373, 6133, 1833, 365, 9250, 6296, 9871, 2139, 9251, 9985
8407, 6812, 6825, 6858, 6876, 7980, 8267, 8265, 8872, 9805, 9933
8408, 6809, 6813, 6832, 6862, 10083, 10085, 9580, 10161, 10162, 9593
8409, 4142, 173, 174, 4895, 4147, 1348, 4143, 8957, 9876, 9915
8410, 77, 1059, 799, 772, 9376, 9323, 9974, 773, 9845, 10190
8411, 75, 781, 798, 6855, 783, 9783, 10168, 10169, 10053, 9686
8412, 6786, 2132, 6132, 2120, 6789, 10039, 9844, 9703, 6609, 6297
8413, 311, 5241, 1920, 6823, 5247, 5249, 1922, 10191, 10094, 10192
8414, 1550, 4487, 196, 6881, 4491, 4490, 1552, 10180, 10151, 9754
8415, 6123, 6137, 1216, 1415, 6271, 9849, 9692, 9484, 9851, 9852
8416, 9, 3664, 3704, 6858, 3728, 3733, 3732, 10193, 9010, 9660
8417, 6809, 6843, 6862, 6885, 8193, 9647, 10161, 8194, 7853, 8049
8418, 5434, 5445, 5428, 1416, 5491, 5490, 5466, 10184, 10195, 10194
8419, 6811, 6874, 6814, 6900, 9938, 9939, 9738, 9741, 8776, 9743
8420, 1390, 141, 1417, 6850, 1391, 9519, 10196, 9417, 9418, 9948
8421, 730, 1075, 92, 3151, 10197, 10198, 732, 9575, 3164, 9654
8422, 1558, 4509, 194, 6824, 4513, 4512, 1560, 10199, 10090, 10200
8423, 3677, 6874, 6831, 6875, 7614, 10051, 9146, 9453, 9579, 10119
8424, 1418, 1755, 5785, 1756, 9763, 9737, 10201, 10188, 1762, 9563
8425, 6814, 6808, 6835, 6848, 9935, 10104, 10202, 9955, 9961, 10075
8426, 10, 12, 6481, 6828, 413, 6510, 6509, 8570, 10074, 7412
8427, 4959, 298, 300, 6815, 9987, 1796, 4979, 8192, 9614, 9272
8428, 4094, 165, 166, 6106, 4099, 1308, 4095, 9909, 6157, 6156
8429, 6809, 6862, 6832, 6885, 10161, 9593, 9580, 8194, 8049, 9582
8430, 801, 742, 87, 6857, 9784, 743, 10203, 9001, 8899, 8934
8431, 240, 279, 4538, 4540, 1726, 9925, 4575, 4568, 9669, 4577
8432, 91, 1075, 730, 3151, 10204, 10197, 731, 9632, 3164, 9575
8433, 1419, 289, 4894, 1757, 8371, 4920, 10043, 9960, 1764, 4924
8434, 517, 496, 505, 6814, 9397, 2242, 2251, 10098, 9739, 10205
8435, 630, 3196, 82, 760, 10206, 10134, 2571, 10207, 9978, 762
8436, 5800, 2050, 1439, 356, 5809, 5632, 9918, 5804, 2057, 5631
8437, 276, 4664, 275, 4959, 4752, 4751, 1702, 4970, 8191, 8146
8438, 6118, 184, 183, 4202, 6207, 1398, 6208, 7659, 4203, 4207
8439, 587, 47, 867, 2304, 2342, 10023, 2731, 2344, 2340, 9713
8440, 629, 799, 77, 775, 2638, 9974, 2560, 10208, 9975, 777
8441, 5603, 5602, 5590, 6836, 5651, 5749, 5779, 8838, 8316, 9700
8442, 2301, 601, 2263, 882, 2499, 2493, 2370, 9476, 2739, 9568
8443, 4539, 4665, 236, 4678, 7913, 4702, 4557, 7644, 4706, 4705
8444, 6468, 161, 134, 303, 6556, 1291, 6557, 9874, 10159, 10209
8445, 282, 1941, 6816, 6833, 1943, 8505, 9371, 9372, 9258, 7707
8446, 6814, 6848, 6835, 6891, 9955, 10075, 10202, 9956, 9137, 9722
8447, 4154, 175, 176, 6126, 4159, 1358, 4155, 8841, 6184, 6183
8448, 6818, 6807, 6839, 6853, 10117, 9799, 10118, 9931, 10019, 9631
8449, 311, 1920, 5252, 6823, 1922, 5261, 5259, 10191, 10192, 10210
8450, 24, 6462, 6421, 6818, 6530, 6532, 6528, 10211, 8050, 8705
8451, 194, 4520, 1558, 6824, 4522, 4525, 1560, 10200, 10212, 10199
8452, 344, 345, 6134, 6138, 2011, 9183, 6258, 6256, 10125, 6260
8453, 838, 559, 37, 837, 2698, 2315, 10146, 844, 2700, 9566
8454, 5884, 186, 1804, 1992, 7314, 7689, 9872, 5892, 10213, 5531
8455, 125, 3713, 126, 6831, 3801, 3800, 1165, 7896, 8587, 9096
8456, 838, 559, 560, 37, 2698, 566, 2699, 10146, 2315, 2312
8457, 328, 327, 6813, 6832, 1861, 10084, 9989, 8667, 8610, 10085
8458, 5022, 5019, 312, 6823, 5052, 5051, 5049, 8597, 10214, 10093
8459, 289, 5800, 337, 1419, 10215, 5803, 5514, 8371, 8155, 10216
8460, 5319, 1776, 4885, 286, 5328, 4908, 9676, 5326, 1778, 4909
8461, 3702, 3662, 35, 6900, 3772, 3769, 3765, 9158, 8454, 9265
8462, 4289, 4292, 195, 6824, 4322, 4319, 4320, 10217, 8575, 10088
8463, 209, 188, 189, 214, 4295, 1451, 4294, 10157, 9893, 9591
8464, 307, 248, 326, 308, 9911, 10156, 5028, 1830, 9657, 5029
8465, 188, 6808, 211, 6831, 10048, 10046, 1484, 7895, 10050, 7897
8466, 1192, 1418, 1370, 6840, 4261, 10091, 10054, 8288, 8289, 10055
8467, 1436, 1964, 5437, 5431, 5672, 5484, 7120, 9682, 5480, 5485
8468, 190, 6822, 6879, 6880, 10218, 9530, 9889, 10219, 9533, 9534
8469, 5800, 1439, 1419, 356, 9918, 4285, 8155, 5804, 5631, 10220
8470, 3662, 3661, 35, 6900, 3768, 3770, 3769, 8454, 7953, 9265
8471, 3502, 108, 2850, 1014, 3514, 2885, 9636, 3513, 1020, 2886
8472, 204, 4410, 1518, 6880, 4412, 4415, 1520, 10221, 10223, 10222
8473, 5438, 1963, 1436, 5431, 5477, 5664, 7831, 5482, 5481, 9682
8474, 6125, 185, 184, 4208, 6210, 1403, 6211, 10224, 4209, 4213
8475, 5602, 1412, 1432, 4265, 8908, 4273, 5648, 7956, 4269, 4271
8476, 793, 2846, 2751, 891, 9203, 7958, 2755, 2759, 2892, 2757
8477, 294, 1933, 5305, 6838, 1935, 5316, 5312, 9332, 9367, 9368
8478, 1804, 186, 160, 303, 7689, 8470, 9723, 1811, 10122, 9878
8479, 1979, 5800, 1419, 337, 5806, 8155, 10225, 1986, 5803, 10216
8480, 1365, 146, 1418, 1755, 1366, 10136, 10226, 9362, 8783, 9763
8481, 110, 623, 646, 794, 9474, 2594, 8527, 9440, 2628, 8581
8482, 69, 94, 1070, 112, 10227, 10228, 10111, 10155, 10229, 1076
8483, 183, 182, 6113, 4196, 1393, 6205, 6204, 4197, 4201, 8093
8484, 1920, 1917, 5242, 6823, 5251, 5245, 5246, 10192, 10095, 10230
8485, 1920, 5241, 1917, 6823, 5249, 5250, 5251, 10192, 10094, 10095
8486, 3282, 1031, 797, 3276, 9410, 10231, 10153, 3335, 9556, 10154
8487, 189, 6808, 188, 6831, 10070, 10048, 1451, 8820, 10050, 7895
8488, 1385, 1417, 143, 6850, 10232, 10233, 1387, 9958, 9948, 9854
8489, 23, 3643, 3685, 6835, 3749, 3754, 3753, 10234, 8664, 8662
8490, 3642, 3684, 27, 6891, 3760, 3759, 3755, 8347, 8305, 10235
8491, 6808, 6831, 6842, 6848, 10050, 8883, 8692, 9961, 9830, 9202
8492, 797, 1030, 3283, 3276, 9928, 9511, 9927, 10154, 9539, 3332
8493, 1558, 4510, 1554, 6824, 4518, 4517, 4519, 10199, 10236, 10089
8494, 1558, 1554, 4509, 6824, 4519, 4514, 4513, 10199, 10089, 10090
8495, 309, 6871, 6821, 6872, 9886, 7352, 7008, 10237, 9609, 9607
8496, 348, 5559, 6138, 6436, 5562, 9450, 6255, 6576, 10238, 10042
8497, 5019, 314, 313, 6873, 5053, 1847, 5050, 9745, 9951, 9747
8498, 1890, 5142, 321, 6872, 5151, 5149, 1892, 10239, 10241, 10240
8499, 5586, 1419, 1439, 356, 9707, 4285, 5633, 5634, 10220, 5631
8500, 312, 5241, 311, 6823, 5248, 5247, 1845, 10093, 10094, 10191
8501, 197, 4289, 196, 6881, 4323, 4321, 1469, 9953, 9756, 9754
8502, 242, 4542, 4680, 237, 4558, 8048, 4708, 1605, 4559, 4707
8503, 1938, 284, 5319, 6833, 1940, 5325, 5327, 9473, 9402, 9472
8504, 50, 49, 3109, 867, 540, 8681, 8716, 10087, 8677, 8680
8505, 309, 6821, 5546, 6870, 7008, 6982, 5550, 9370, 10243, 10242
8506, 196, 4498, 1550, 6881, 4500, 4503, 1552, 9754, 10138, 10180
8507, 194, 4509, 195, 6824, 4512, 4511, 1467, 10200, 10090, 10088
8508, 781, 74, 798, 6864, 782, 9782, 9783, 9701, 9656, 9853
8509, 334, 333, 6809, 6832, 1870, 10067, 10060, 8536, 8711, 9580
8510, 897, 2836, 3204, 799, 2928, 9269, 10044, 2772, 9164, 10244
8511, 5208, 1911, 314, 6873, 5216, 1913, 5214, 10183, 10164, 9951
8512, 123, 3697, 3649, 6875, 3791, 3796, 3795, 8189, 9451, 9452
8513, 489, 6809, 498, 6843, 10073, 9751, 2237, 7347, 8193, 7339
8514, 327, 334, 6809, 6832, 1871, 10060, 10061, 8610, 8536, 9580
8515, 5019, 312, 6823, 6873, 5051, 10093, 10214, 9745, 9746, 10245
8516, 164, 165, 4088, 6120, 1303, 4089, 4093, 6154, 6153, 9797
8517, 893, 3498, 2837, 795, 10030, 8986, 2905, 2764, 8988, 8989
8518, 313, 1914, 5230, 6873, 1916, 5239, 5237, 9747, 10171, 10135
8519, 1360, 147, 1418, 1755, 1361, 10246, 10187, 8990, 9369, 9763
8520, 25, 3685, 3642, 6891, 3752, 3757, 3756, 10247, 7931, 8347
8521, 290, 288, 6117, 4891, 1765, 6235, 6234, 4921, 4918, 7116
8522, 1420, 1320, 155, 6841, 10248, 1321, 10249, 10250, 9864, 9952
8523, 1893, 320, 5142, 6872, 1895, 5148, 5150, 10251, 10252, 10241
8524, 4289, 6824, 195, 6881, 10217, 10088, 4320, 9756, 10253, 9755
8525, 5186, 316, 317, 6869, 5192, 1850, 5193, 10009, 10114, 10008
8526, 1437, 1417, 5615, 5614, 4284, 8259, 5675, 5678, 9816, 5677
8527, 211, 6811, 210, 6831, 10052, 10014, 1483, 7897, 10049, 7930
8528, 5132, 1890, 1887, 6872, 5136, 5141, 5135, 10254, 10239, 10255
8529, 6818, 6853, 6839, 6862, 9931, 9631, 10118, 9835, 9113, 8264
8530, 3203, 111, 800, 1061, 9863, 9407, 9900, 9907, 1068, 9966
8531, 315, 314, 5018, 6869, 1848, 5055, 5054, 10256, 10257, 10025
8532, 1518, 4400, 1514, 6880, 4408, 4407, 4409, 10222, 10259, 10258
8533, 1546, 4476, 197, 6881, 4480, 4479, 1548, 10150, 10189, 9953
8534, 1890, 5131, 1887, 6872, 5139, 5140, 5141, 10239, 10260, 10255
8535, 5612, 1435, 1415, 6899, 5669, 4279, 9675, 9398, 10069, 9965
8536, 6475, 343, 6427, 6832, 6573, 6569, 6574, 8856, 8535, 8781
8537, 199, 4454, 200, 6877, 4457, 4456, 1472, 10115, 9996, 9994
8538, 5442, 1436, 5431, 1416, 9681, 9682, 5504, 10185, 4280, 10261
8539, 5431, 1436, 5445, 1416, 9682, 9706, 5505, 10261, 4280, 10195
8540, 335, 1413, 1947, 5968, 9388, 10262, 1953, 9736, 10112, 9821
8541, 1518, 1514, 4399, 6880, 4409, 4404, 4403, 10222, 10258, 10263
8542, 198, 4288, 197, 6877, 4325, 4324, 1470, 10264, 10032, 10265
8543, 303, 186, 160, 1292, 10122, 8470, 9878, 9879, 10266, 1293
8544, 2831, 3494, 108, 2850, 7849, 3512, 2888, 2889, 7084, 2885
8545, 480, 6809, 489, 6843, 10068, 10073, 2230, 10267, 8193, 7347
8546, 3695, 6848, 6835, 6892, 8836, 10075, 9238, 8119, 9840, 9964
8547, 1822, 5271, 300, 4959, 5280, 5278, 1824, 4978, 8714, 4979
8548, 1522, 4410, 203, 6880, 4414, 4413, 1524, 10268, 10223, 10269
8549, 6420, 28, 6460, 6843, 6534, 6536, 6538, 8629, 10270, 9247
8550, 6461, 32, 6465, 6843, 6540, 6543, 6545, 9724, 7341, 9281
8551, 1310, 157, 1420, 6882, 1311, 10271, 9971, 10272, 10099, 9959
8552, 6428, 360, 6471, 6861, 6564, 6599, 6601, 9315, 10273, 9314
8553, 3689, 3641, 17, 6845, 3745, 3744, 3740, 7739, 7737, 10041
8554, 3502, 2850, 892, 1014, 9636, 2900, 9648, 3513, 2886, 2899
8555, 1420, 6841, 6820, 6882, 10250, 8620, 8361, 9959, 9588, 9226
8556, 337, 1757, 1419, 1979, 5513, 9960, 10216, 1986, 5517, 10225
8557, 349, 6422, 361, 6819, 6581, 6580, 2103, 9615, 7507, 9817
8558, 760, 1061, 82, 3109, 9977, 10133, 762, 8715, 3148, 8927
8559, 112, 94, 3404, 1075, 10229, 6952, 10056, 1082, 10274, 9836
8560, 4854, 240, 4538, 1599, 4856, 4575, 8209, 4858, 1600, 4576
8561, 206, 4388, 1510, 6822, 4390, 4393, 1512, 10275, 10277, 10276
8562, 6839, 6861, 6813, 6862, 9794, 9711, 9093, 8264, 9512, 10162
8563, 90, 736, 632, 801, 738, 10278, 2589, 9731, 10078, 2625
8564, 72, 798, 628, 787, 9729, 2637, 2549, 788, 10280, 10279
8565, 23, 6835, 3685, 6891, 10234, 8662, 3753, 10281, 9722, 7931
8566, 3405, 107, 94, 3413, 3421, 8014, 8015, 3428, 3426, 9446
8567, 129, 128, 3644, 6817, 1168, 3810, 3809, 9633, 9822, 7549
8568, 2858, 798, 896, 2859, 9495, 2769, 2922, 2921, 8426, 2919
8569, 894, 796, 2856, 2857, 2762, 9802, 2913, 2911, 7308, 2912
8570, 323, 1884, 5120, 6821, 1886, 5129, 5127, 10282, 10284, 10283
8571, 2304, 866, 586, 2289, 8398, 2732, 2477, 2341, 9239, 2478
8572, 124, 3649, 3691, 6831, 3794, 3799, 3798, 7905, 9147, 8586
8573, 3109, 81, 760, 1060, 8917, 761, 8715, 3149, 10037, 9979
8574, 1418, 147, 1365, 1755, 10246, 1367, 10226, 9763, 9369, 9362
8575, 309, 319, 5020, 6871, 5034, 5036, 5035, 9886, 10285, 9885
8576, 190, 4290, 202, 6879, 4302, 4301, 4299, 9889, 9890, 10286
8577, 6812, 6845, 6825, 6876, 8853, 8852, 7980, 8872, 9758, 9805
8578, 339, 309, 5546, 6870, 5548, 5550, 5549, 9263, 9370, 10242
8579, 67, 614, 1031, 797, 615, 8456, 9555, 9842, 9841, 10231
8580, 1757, 337, 1419, 289, 5513, 10216, 9960, 1764, 5514, 8371
8581, 353, 354, 6430, 6832, 2030, 6596, 6595, 10287, 8534, 8857
8582, 6813, 6818, 6839, 6862, 10116, 10118, 9093, 10162, 9835, 8264
8583, 5283, 296, 298, 6815, 5289, 1793, 5290, 8308, 9153, 9614
8584, 3031, 1031, 66, 610, 3062, 10100, 8907, 9015, 10107, 611
8585, 152, 1194, 1335, 1419, 4058, 9947, 1336, 10102, 4263, 10148
8586, 318, 5020, 319, 6871, 5061, 5036, 1852, 10288, 9885, 10285
8587, 202, 4290, 201, 6879, 4301, 4331, 1474, 10286, 9890, 10289
8588, 5972, 1414, 1434, 5961, 10290, 4276, 9792, 6037, 10291, 9793
8589, 128, 127, 3693, 6817, 1167, 3807, 3806, 9822, 10292, 7551
8590, 1340, 151, 1419, 1757, 1341, 10293, 9869, 9572, 9571, 9960
8591, 1418, 1438, 5793, 5796, 4282, 10170, 10294, 10295, 10296, 5858
8592, 795, 648, 1044, 6902, 8770, 9209, 9902, 9903, 8727, 8561
8593, 3658, 130, 129, 5068, 3812, 1169, 3813, 8942, 5070, 5069
8594, 1414, 1949, 1212, 1948, 8911, 8844, 10149, 8709, 1955, 7874
8595, 365, 6133, 1833, 381, 9251, 6296, 9985, 2146, 10297, 9984
8596, 6117, 295, 290, 4891, 6240, 1788, 6234, 7116, 8806, 4921
8597, 5175, 317, 318, 6871, 5181, 1851, 5182, 10298, 10299, 10288
8598, 200, 4443, 201, 6879, 4446, 4445, 1473, 10300, 10301, 10289
8599, 108, 1019, 3494, 2831, 1026, 3515, 3512, 2888, 2887, 7849
8600, 186, 135, 160, 1292, 4243, 4017, 8470, 10266, 10127, 1293
8601, 94, 1125, 116, 3405, 10302, 1131, 8016, 8015, 3429, 3422
8602, 225, 6822, 224, 6880, 9531, 9860, 1525, 9532, 9533, 10303
8603, 314, 5219, 313, 6873, 5226, 5225, 1847, 9951, 10163, 9747
8604, 237, 4665, 236, 4539, 4703, 4702, 1590, 4556, 7913, 4557
8605, 2850, 892, 794, 3502, 2900, 2760, 9877, 9636, 9648, 9962
8606, 1933, 294, 5294, 6838, 1935, 5300, 5302, 9367, 9332, 9324
8607, 196, 4487, 197, 6881, 4490, 4489, 1469, 9754, 10151, 9953
8608, 359, 5606, 5957, 2084, 5641, 9945, 5974, 2090, 5642, 5982
8609, 3696, 3652, 121, 6875, 3790, 3789, 3785, 7818, 9590, 10304
8610, 5305, 291, 294, 4888, 5311, 1787, 5312, 9628, 4931, 9716
8611, 1416, 5434, 5430, 1580, 10184, 5469, 10186, 10016, 9779, 9663
8612, 50, 867, 587, 49, 10087, 2731, 2346, 540, 8677, 2345
8613, 6832, 6813, 6861, 6862, 10085, 9711, 10124, 9593, 10162, 9512
8614, 341, 6493, 6469, 6861, 6561, 6568, 6567, 8163, 9861, 9406
8615, 73, 787, 798, 6864, 789, 10280, 10305, 9525, 9549, 9853
8616, 146, 1370, 1192, 1418, 1372, 10054, 4044, 10136, 10091, 4261
8617, 98, 61, 65, 2734, 9619, 2374, 876, 2736, 8472, 2737
8618, 1890, 321, 5131, 6872, 1892, 5137, 5139, 10239, 10240, 10260
8619, 284, 1938, 5331, 6833, 1940, 5340, 5338, 9402, 9473, 9429
8620, 6809, 6843, 6818, 6862, 8193, 10306, 10160, 10161, 9647, 9835
8621, 1992, 186, 1804, 338, 10213, 7689, 5531, 1999, 7444, 5527
8622, 1893, 5153, 320, 6872, 5162, 5160, 1895, 10251, 10307, 10252
8623, 252, 6821, 253, 6872, 9870, 9606, 1649, 10308, 9607, 9608
8624, 318, 317, 5020, 6871, 1851, 5058, 5061, 10288, 10299, 9885
8625, 156, 1420, 1315, 6882, 10309, 10310, 1316, 9882, 9959, 9881
8626, 794, 1042, 110, 3493, 8582, 1048, 9440, 9920, 9865, 7066
8627, 1420, 156, 1320, 6841, 10309, 1322, 10248, 10250, 9683, 9864
8628, 5208, 314, 315, 6869, 5214, 1848, 5215, 10311, 10257, 10256
8629, 5342, 279, 282, 6816, 5348, 1743, 5349, 8502, 9670, 9371
8630, 201, 4290, 200, 6879, 4331, 4329, 1473, 10289, 9890, 10300
8631, 1433, 5957, 5606, 2084, 9941, 9945, 5656, 5655, 5982, 5642
8632, 112, 1125, 94, 1070, 3620, 10302, 10229, 1076, 3621, 10228
8633, 1518, 4399, 204, 6880, 4403, 4402, 1520, 10222, 10263, 10221
8634, 197, 4476, 198, 6877, 4479, 4478, 1470, 10265, 10312, 10264
8635, 2302, 601, 2301, 882, 2402, 2499, 2373, 9641, 2739, 9476
8636, 1409, 138, 1416, 1190, 1411, 8648, 10313, 10126, 4026, 4255
8637, 322, 5120, 1887, 6821, 5126, 5128, 1889, 10314, 10283, 10315
8638, 2849, 105, 3281, 980, 2878, 3297, 8748, 2877, 987, 3300
8639, 338, 186, 1804, 303, 7444, 7689, 5527, 5528, 10122, 1811
8640, 1514, 4388, 205, 6822, 4392, 4391, 1516, 10316, 10277, 10317
8641, 318, 5164, 1899, 6871, 5170, 5172, 1901, 10288, 10319, 10318
8642, 5109, 1884, 323, 6821, 5117, 1886, 5115, 10320, 10284, 10282
8643, 133, 132, 3690, 1579, 1178, 3820, 3823, 10321, 9899, 9053
8644, 5176, 1902, 1899, 6871, 5180, 5185, 5179, 10322, 10323, 10318
8645, 5154, 1896, 1893, 6871, 5158, 5163, 5157, 10324, 10326, 10325
8646, 1538, 199, 4465, 6877, 1540, 4467, 4470, 10327, 10115, 10328
8647, 1510, 4377, 206, 6822, 4381, 4380, 1512, 10276, 10329, 10275
8648, 21, 3681, 3643, 6835, 3746, 3751, 3750, 10330, 9416, 8664
8649, 4444, 1530, 1534, 6879, 4451, 4453, 4452, 10331, 10333, 10332
8650, 4422, 1522, 1526, 6879, 4429, 4431, 4430, 10334, 10336, 10335
8651, 138, 1416, 1580, 1409, 8648, 10016, 10017, 1411, 10313, 9934
8652, 5131, 321, 322, 6821, 5137, 1855, 5138, 10337, 10338, 10314
8653, 5305, 1767, 291, 4888, 5313, 1768, 5311, 9628, 4932, 4931
8654, 587, 47, 48, 867, 2342, 538, 2343, 2731, 10023, 9466
8655, 1902, 5175, 1899, 6871, 5183, 5184, 5185, 10323, 10298, 10318
8656, 1896, 5153, 1893, 6871, 5161, 5162, 5163, 10326, 10339, 10325
8657, 204, 4399, 205, 6822, 4402, 4401, 1477, 10340, 10341, 10317
8658, 162, 163, 302, 4076, 1295, 6148, 6147, 4077, 4081, 9458
8659, 766, 1060, 1059, 799, 9967, 1066, 9968, 10342, 10142, 9323
8660, 121, 120, 3696, 6875, 1160, 3786, 3785, 10304, 10005, 7818
8661, 1530, 4443, 1534, 6879, 4448, 4447, 4453, 10333, 10301, 10332
8662, 1522, 4421, 1526, 6879, 4426, 4425, 4431, 10336, 10343, 10335
8663, 205, 4399, 1514, 6822, 4401, 4404, 1516, 10317, 10341, 10316
8664, 6461, 6460, 30, 6843, 6541, 6537, 6539, 9724, 9247, 7340
8665, 316, 1905, 5197, 6869, 1907, 5206, 5204, 10114, 10345, 10344
8666, 1887, 5131, 322, 6821, 5140, 5138, 1889, 10315, 10337, 10314
8667, 868, 2276, 51, 588, 9479, 2349, 9097, 2724, 2351, 2347
8668, 1530, 4432, 201, 6879, 4436, 4435, 1532, 10333, 10346, 10289
8669, 311, 5022, 312, 6823, 5044, 5049, 1845, 10191, 8597, 10093
8670, 195, 4292, 194, 6824, 4319, 4315, 1467, 10088, 8575, 10200
8671, 202, 4432, 1526, 6879, 4434, 4437, 1528, 10286, 10346, 10335
8672, 6457, 22, 6421, 6853, 6525, 6527, 6529, 9150, 10347, 7448
8673, 6420, 6818, 26, 6843, 8052, 10123, 6533, 8629, 10306, 10348
8674, 2045, 5794, 5586, 356, 5807, 7485, 5635, 2051, 5808, 5634
8675, 4539, 236, 1571, 4678, 4557, 1572, 4553, 7644, 4705, 10349
8676, 74, 784, 798, 6864, 786, 10350, 9782, 9656, 9522, 9853
8677, 1908, 315, 5197, 6869, 1910, 5203, 5205, 10351, 10256, 10344
8678, 5187, 1905, 1902, 6869, 5191, 5196, 5190, 10352, 10345, 10010
8679, 29, 27, 3684, 6891, 495, 3759, 3758, 10172, 10235, 8305
8680, 319, 1896, 5164, 6871, 1898, 5173, 5171, 10285, 10326, 10319
8681, 60, 98, 65, 2302, 9662, 876, 2375, 2372, 9642, 2376
8682, 1905, 5186, 1902, 6869, 5194, 5195, 5196, 10345, 10009, 10010
8683, 1534, 1538, 4455, 6877, 4464, 4463, 4462, 9995, 10327, 10353
8684, 5957, 5606, 1413, 1433, 9945, 9846, 9946, 9941, 5656, 4275
8685, 6436, 348, 5559, 349, 6576, 5562, 10238, 6575, 2016, 5563
8686, 1534, 4454, 1538, 6877, 4459, 4458, 4464, 9995, 9996, 10327
8687, 112, 94, 116, 3404, 10229, 8016, 3619, 10056, 6952, 3431
8688, 560, 838, 39, 2292, 2699, 9069, 2317, 2320, 9695, 2318
8689, 31, 6814, 29, 6900, 10354, 10355, 504, 10356, 9743, 10173
8690, 29, 6814, 6891, 6900, 10355, 9956, 10172, 10173, 9743, 9661
8691, 269, 4885, 268, 1773, 4898, 8260, 1695, 1774, 4899, 5318
8692, 198, 1542, 4465, 6877, 1544, 4469, 4468, 10264, 10357, 10328
8693, 1075, 92, 94, 730, 10198, 9888, 10274, 10197, 732, 9887
8694, 321, 5142, 320, 6872, 5149, 5148, 1854, 10240, 10241, 10252
8695, 1887, 1884, 5121, 6821, 5130, 5124, 5125, 10315, 10284, 10358
8696, 1887, 5120, 1884, 6821, 5128, 5129, 5130, 10315, 10283, 10284
8697, 203, 4410, 204, 6880, 4413, 4412, 1476, 10269, 10223, 10221
8698, 4389, 1510, 1514, 6822, 4396, 4398, 4397, 10359, 10276, 10316
8699, 1510, 4388, 1514, 6822, 4393, 4392, 4398, 10276, 10277, 10316
8700, 1390, 1417, 142, 6850, 10196, 10360, 1392, 9417, 9948, 9991
8701, 156, 6841, 1420, 6882, 9683, 10250, 10309, 9882, 9588, 9959
8702, 1125, 112, 94, 116, 3620, 10229, 10302, 1131, 3619, 8016
8703, 799, 1059, 78, 772, 9323, 9942, 10361, 10190, 9845, 774
8704, 187, 5880, 5869, 358, 9823, 5897, 10362, 5621, 5895, 5886
8705, 1884, 1881, 5110, 6870, 5119, 5113, 5114, 10363, 10365, 10364
8706, 6874, 6891, 6814, 6900, 8749, 9956, 9939, 8776, 9661, 9743
8707, 1510, 4378, 1506, 6878, 4386, 4385, 4387, 10366, 10368, 10367
8708, 317, 6869, 5020, 6871, 10008, 10024, 5058, 10299, 7193, 9885
8709, 6827, 6828, 6807, 6854, 10369, 9624, 9345, 9193, 7413, 9299
8710, 316, 315, 5018, 6869, 1849, 5054, 5057, 10114, 10256, 10025
8711, 1884, 5109, 1881, 6870, 5117, 5118, 5119, 10363, 10370, 10365
8712, 3284, 3292, 797, 3276, 3344, 10152, 7253, 3343, 3340, 10154
8713, 1510, 1506, 4377, 6878, 4387, 4382, 4381, 10366, 10367, 10371
8714, 141, 1395, 1191, 1417, 1397, 9972, 4033, 9519, 9520, 4258
8715, 1310, 157, 1195, 1420, 1311, 4069, 9970, 9971, 10271, 4247
8716, 4290, 6877, 200, 6879, 10033, 9994, 4329, 9890, 8793, 10300
8717, 199, 4288, 198, 6877, 4327, 4325, 1471, 10115, 10032, 10264
8718, 1872, 326, 248, 6870, 1874, 10156, 1873, 10372, 9913, 9110
8719, 214, 209, 1494, 6878, 10157, 1496, 1495, 9108, 9917, 10373
8720, 338, 5879, 186, 303, 5890, 8884, 7444, 5528, 9498, 10122
8721, 798, 784, 73, 6864, 10350, 785, 10305, 9853, 9522, 9525
8722, 201, 4443, 1530, 6879, 4445, 4448, 1532, 10289, 10301, 10333
8723, 294, 296, 5294, 6838, 1790, 5301, 5300, 9332, 9155, 9324
8724, 1315, 1420, 157, 6882, 10310, 10271, 1317, 9881, 9959, 10099
8725, 1992, 5884, 186, 338, 5892, 7314, 10213, 1999, 5888, 7444
8726, 323, 5120, 322, 6821, 5127, 5126, 1856, 10282, 10283, 10314
8727, 4962, 4683, 1816, 277, 8822, 10374, 4973, 4974, 4757, 1818
8728, 131, 185, 1592, 4214, 1408, 6144, 6143, 4215, 4217, 9600
8729, 1385, 142, 1417, 6850, 1386, 10360, 10232, 9958, 9991, 9948
8730, 25, 23, 3685, 6891, 477, 3753, 3752, 10247, 10281, 7931
8731, 3287, 105, 2848, 975, 3299, 2875, 8802, 3298, 981, 2876
8732, 205, 4388, 206, 6822, 4391, 4390, 1478, 10317, 10277, 10275
8733, 1899, 5175, 318, 6871, 5184, 5182, 1901, 10318, 10298, 10288
8734, 1961, 5440, 5604, 336, 5454, 7566, 5627, 1967, 5455, 5626
8735, 7, 5, 3680, 6858, 396, 3723, 3727, 8562, 8563, 9012
8736, 5230, 6823, 312, 6873, 10165, 10093, 5236, 10135, 10245, 9746
8737, 1917, 5231, 6823, 6873, 5235, 10375, 10095, 10174, 10175, 10245
8738, 104, 3202, 962, 2830, 3214, 3213, 968, 2873, 7934, 2874
8739, 1315, 156, 1195, 1420, 1316, 4067, 10129, 10310, 10309, 4247
8740, 1191, 142, 1390, 1417, 4035, 1392, 10128, 4258, 10360, 10196
8741, 9, 7, 3664, 6858, 405, 3729, 3728, 10193, 8562, 9010
8742, 195, 6824, 4498, 6881, 10088, 10166, 4501, 9755, 10253, 10138
8743, 4499, 1554, 6824, 6881, 4507, 10089, 10376, 10178, 10179, 10253
8744, 1917, 6823, 5230, 6873, 10095, 10165, 5238, 10174, 10245, 10135
8745, 4498, 6824, 1554, 6881, 10166, 10089, 4502, 10138, 10253, 10179
8746, 1914, 5219, 1911, 6873, 5227, 5228, 5229, 10171, 10163, 10164
8747, 1914, 1911, 5220, 6873, 5229, 5223, 5224, 10171, 10164, 10377
8748, 6831, 6874, 6811, 6875, 10051, 9938, 10049, 10119, 9579, 9789
8749, 198, 4476, 1542, 6877, 4478, 4481, 1544, 10264, 10312, 10357
8750, 1546, 4487, 1550, 6881, 4492, 4491, 4497, 10150, 10151, 10180
8751, 772, 799, 77, 629, 10190, 9974, 773, 10378, 2638, 2560
8752, 4488, 1546, 1550, 6881, 4495, 4497, 4496, 10379, 10150, 10180
8753, 5186, 1905, 316, 6869, 5194, 1907, 5192, 10009, 10345, 10114
8754, 315, 1908, 5208, 6869, 1910, 5217, 5215, 10256, 10351, 10311
8755, 282, 284, 5331, 6833, 1746, 5338, 5337, 9372, 9402, 9429
8756, 5879, 186, 5869, 338, 8884, 7445, 5893, 5890, 7444, 5887
8757, 6472, 6418, 14, 6828, 6517, 6513, 6515, 9833, 8503, 10380
8758, 25, 27, 6814, 6891, 486, 10381, 10382, 10247, 10235, 9956
8759, 199, 1538, 4454, 6877, 1540, 4458, 4457, 10115, 10327, 9996
8760, 5018, 6869, 314, 6873, 10025, 10257, 5055, 9950, 10071, 9951
8761, 5109, 323, 324, 6870, 5115, 1857, 5116, 10370, 10383, 9981
8762, 206, 4377, 207, 6878, 4380, 4379, 1479, 10384, 10371, 9983
8763, 197, 6877, 4288, 6881, 10265, 10032, 4324, 9953, 10077, 9954
8764, 1896, 319, 5153, 6871, 1898, 5159, 5161, 10326, 10285, 10339
8765, 3694, 3689, 15, 6876, 3742, 3741, 3737, 9311, 9309, 9491
8766, 5884, 2076, 187, 358, 5896, 5623, 7312, 5889, 2083, 5621
8767, 3652, 3697, 122, 6875, 3793, 3792, 3788, 9590, 9451, 8149
8768, 36, 6465, 32, 6843, 6544, 6543, 6542, 9891, 9281, 7341
8769, 1526, 4421, 202, 6879, 4425, 4424, 1528, 10335, 10343, 10286
8770, 17, 3641, 19, 6845, 3744, 3743, 450, 10041, 7737, 10147
8771, 324, 5098, 1881, 6870, 5104, 5106, 1883, 9981, 10385, 10365
8772, 3704, 3640, 11, 6876, 3736, 3735, 3731, 9930, 9929, 8871
8773, 343, 342, 6427, 6832, 2006, 6570, 6569, 8535, 8609, 8781
8774, 354, 343, 6475, 6832, 2031, 6573, 6572, 8534, 8535, 8856
8775, 28, 6420, 26, 6843, 6534, 6533, 485, 10270, 8629, 10348
8776, 1506, 4366, 207, 6878, 4370, 4369, 1508, 10367, 10386, 9983
8777, 276, 275, 1819, 4959, 1702, 5270, 1820, 4970, 8146, 4971
8778, 1059, 78, 769, 799, 9942, 770, 10109, 9323, 10361, 10387
8779, 70, 92, 727, 723, 2545, 728, 10388, 2540, 724, 2598
8780, 610, 618, 67, 627, 2530, 620, 612, 10389, 2532, 2533
8781, 678, 78, 772, 629, 680, 774, 2613, 2561, 2562, 10378
8782, 90, 736, 714, 632, 738, 2601, 716, 2589, 10278, 2588
8783, 784, 666, 74, 628, 2617, 668, 786, 10390, 2552, 2553
8784, 84, 631, 699, 751, 2576, 2577, 700, 752, 10391, 2606
8785, 748, 702, 86, 631, 2605, 704, 750, 9432, 2579, 2580
8786, 663, 72, 628, 787, 664, 2549, 2550, 2618, 788, 10279
8787, 88, 632, 711, 739, 2585, 2586, 712, 740, 10392, 2602
8788, 775, 629, 76, 675, 10208, 2558, 776, 2614, 2559, 676
8789, 760, 690, 82, 630, 2609, 692, 762, 10207, 2570, 2571
8790, 687, 80, 630, 763, 688, 2567, 2568, 2610, 764, 10393
8791, 6807, 6828, 6827, 6853, 9624, 10369, 9345, 10019, 10394, 9831
8792, 228, 1534, 4455, 6877, 1535, 4462, 4461, 9233, 9995, 10353
8793, 316, 5197, 315, 6869, 5204, 5203, 1849, 10114, 10344, 10256
8794, 24, 26, 6462, 6818, 476, 6531, 6530, 10211, 10123, 8050
8795, 256, 5187, 1902, 6869, 5188, 5190, 1903, 9552, 10352, 10010
8796, 29, 6814, 27, 6891, 10355, 10381, 495, 10172, 9956, 10235
8797, 209, 4355, 1494, 6878, 4357, 4360, 1496, 9917, 10395, 10373
8798, 1059, 79, 766, 799, 10108, 767, 9968, 9323, 10396, 10342
8799, 198, 4465, 199, 6877, 4468, 4467, 1471, 10264, 10328, 10115
8800, 1893, 5142, 1890, 6872, 5150, 5151, 5152, 10251, 10241, 10239
8801, 5143, 1893, 1890, 6872, 5147, 5152, 5146, 10397, 10251, 10239
8802, 124, 3691, 125, 6831, 3798, 3797, 1164, 7905, 8586, 7896
8803, 1518, 4410, 1522, 6880, 4415, 4414, 4420, 10222, 10223, 10268
8804, 4411, 1518, 1522, 6880, 4418, 4420, 4419, 10398, 10222, 10268
8805, 1872, 5087, 326, 6870, 5096, 5094, 1874, 10372, 10399, 9913
8806, 319, 5164, 318, 6871, 5171, 5170, 1852, 10285, 10319, 10288
8807, 3689, 6845, 15, 6876, 7739, 9757, 3741, 9309, 9758, 9491
8808, 201, 4432, 202, 6879, 4435, 4434, 1474, 10289, 10346, 10286
8809, 186, 358, 187, 5869, 7443, 5621, 1431, 7445, 5886, 10362
8810, 207, 4377, 1506, 6878, 4379, 4382, 1508, 9983, 10371, 10367
8811, 320, 309, 321, 6872, 5033, 5037, 1854, 10252, 10237, 10240
8812, 190, 203, 204, 6880, 4300, 1476, 4303, 10219, 10269, 10221
8813, 769, 79, 1059, 799, 771, 10108, 10109, 10387, 10396, 9323
8814, 1502, 208, 4366, 6878, 1504, 4368, 4371, 10400, 9916, 10386
8815, 94, 107, 99, 3413, 8014, 2865, 890, 9446, 3426, 9834
8816, 324, 1881, 5109, 6870, 1883, 5118, 5116, 9981, 10365, 10370
8817, 340, 6428, 6493, 6861, 6563, 6565, 6562, 8116, 9315, 9861
8818, 3415, 99, 107, 1006, 7238, 2865, 3424, 3427, 2867, 1013
8819, 31, 29, 3702, 6900, 504, 3762, 3761, 10356, 10173, 9158
8820, 325, 1878, 5098, 6870, 1880, 5107, 5105, 9912, 10401, 10385
8821, 25, 3642, 27, 6891, 3756, 3755, 486, 10247, 8347, 10235
8822, 186, 358, 5884, 187, 7443, 5889, 7314, 1431, 5621, 7312
8823, 84, 631, 751, 800, 2576, 10391, 752, 10402, 2641, 10403
8824, 14, 6418, 12, 6828, 6513, 6512, 422, 10380, 8503, 10074
8825, 6457, 6419, 20, 6853, 6526, 6522, 6524, 9150, 9039, 10404
8826, 610, 67, 797, 627, 612, 9842, 10405, 10389, 2533, 2634
8827, 323, 322, 309, 6821, 1856, 5038, 5039, 10282, 10314, 7008
8828, 205, 206, 190, 6822, 1478, 4305, 4304, 10317, 10275, 10218
8829, 772, 78, 799, 629, 774, 10361, 10190, 10378, 2562, 2638
8830, 5208, 314, 6869, 6873, 5214, 10257, 10311, 10183, 9951, 10071
8831, 35, 31, 3702, 6900, 3764, 3761, 3765, 9265, 10356, 9158
8832, 4476, 6877, 197, 6881, 10312, 10265, 4479, 10189, 10077, 9953
8833, 94, 107, 3415, 99, 8014, 3424, 6951, 890, 2865, 7238
8834, 3289, 977, 3284, 895, 3313, 3314, 3315, 7665, 2909, 7254
8835, 6467, 6472, 16, 6828, 6520, 6516, 6518, 10035, 9833, 10406
8836, 261, 5242, 1917, 6823, 5243, 5245, 1918, 9787, 10230, 10095
8837, 233, 1554, 4510, 6824, 1555, 4517, 4516, 9780, 10089, 10236
8838, 92, 94, 70, 727, 9888, 2621, 2545, 728, 10407, 10388
8839, 194, 4292, 193, 6824, 4315, 4314, 1466, 10200, 8575, 10086
8840, 311, 310, 5022, 6823, 1844, 5045, 5044, 10191, 9075, 8597
8841, 797, 1031, 67, 610, 10231, 9555, 9842, 10405, 10107, 612
8842, 1896, 1899, 5164, 6871, 5174, 5172, 5173, 10326, 10318, 10319
8843, 1896, 5165, 1899, 6871, 5168, 5169, 5174, 10326, 10408, 10318
8844, 1526, 4432, 1530, 6879, 4437, 4436, 4442, 10335, 10346, 10333
8845, 4433, 1526, 1530, 6879, 4440, 4442, 4441, 10409, 10335, 10333
8846, 99, 107, 1001, 3413, 2865, 1007, 2866, 9834, 3426, 3425
8847, 32, 6461, 30, 6843, 6540, 6539, 503, 7341, 9724, 7340
8848, 754, 83, 800, 1061, 755, 10410, 10411, 10137, 10113, 9966
8849, 1908, 5197, 1905, 6869, 5205, 5206, 5207, 10351, 10344, 10345
8850, 5198, 1908, 1905, 6869, 5202, 5207, 5201, 10412, 10351, 10345
8851, 23, 21, 3643, 6835, 468, 3750, 3749, 10234, 10330, 8664
8852, 1538, 4465, 1542, 6877, 4470, 4469, 4475, 10327, 10328, 10357
8853, 1538, 1542, 4466, 6877, 4475, 4474, 4473, 10327, 10357, 10413
8854, 1872, 5088, 1878, 6870, 5092, 5091, 5097, 10372, 10414, 10401
8855, 1315, 1195, 157, 1420, 10129, 4069, 1317, 10310, 4247, 10271
8856, 1191, 1390, 141, 1417, 10128, 1391, 4033, 4258, 10196, 9519
8857, 4356, 1494, 1502, 6878, 4363, 4365, 4364, 10415, 10373, 10400
8858, 187, 2071, 5880, 358, 5622, 5894, 9823, 5621, 2077, 5895
8859, 5087, 1878, 325, 6870, 5095, 1880, 5093, 10399, 10401, 9912
8860, 28, 30, 6460, 6843, 494, 6537, 6536, 10270, 7340, 9247
8861, 1872, 1878, 5087, 6870, 5097, 5095, 5096, 10372, 10401, 10399
8862, 303, 161, 134, 1292, 10159, 1291, 10209, 9879, 1294, 10416
8863, 1494, 4355, 1502, 6878, 4360, 4359, 4365, 10373, 10395, 10400
8864, 122, 3697, 123, 6875, 3792, 3791, 1162, 8149, 9451, 8189
8865, 261, 1917, 5231, 6823, 1918, 5235, 5233, 9787, 10095, 10375
8866, 1554, 233, 4499, 6824, 1555, 4504, 4507, 10089, 9780, 10376
8867, 1502, 4355, 208, 6878, 4359, 4358, 1504, 10400, 10395, 9916
8868, 1908, 6869, 5209, 6873, 10351, 10417, 5212, 10176, 10071, 10177
8869, 321, 6821, 5131, 6872, 10338, 10337, 5137, 10240, 9607, 10260
8870, 868, 51, 50, 588, 9097, 541, 9795, 2724, 2347, 2348
8871, 4399, 6822, 204, 6880, 10341, 10340, 4402, 10263, 9533, 10221
8872, 1908, 5208, 6869, 6873, 5217, 10311, 10351, 10176, 10183, 10071
8873, 4477, 6877, 1542, 6881, 10418, 10357, 4484, 10181, 10077, 10182
8874, 1878, 1881, 5098, 6870, 5108, 5106, 5107, 10401, 10365, 10385
8875, 39, 38, 838, 560, 529, 9668, 9069, 2317, 2311, 2699
8876, 15, 3689, 17, 6845, 3741, 3740, 441, 9757, 7739, 10041
8877, 1878, 5099, 1881, 6870, 5102, 5103, 5108, 10401, 10419, 10365
8878, 1542, 6877, 4476, 6881, 10357, 10312, 4481, 10182, 10077, 10189
8879, 1502, 4366, 1506, 6878, 4371, 4370, 4376, 10400, 10386, 10367
8880, 4367, 1502, 1506, 6878, 4374, 4376, 4375, 10420, 10400, 10367
8881, 1920, 5242, 262, 6823, 5246, 5244, 1921, 10192, 10230, 9814
8882, 628, 798, 73, 787, 2637, 10305, 2551, 10279, 10280, 789
8883, 632, 736, 89, 801, 10278, 737, 2587, 2625, 10078, 10079
8884, 838, 38, 37, 560, 9668, 528, 10146, 2699, 2311, 2312
8885, 4510, 1558, 234, 6824, 4518, 1559, 4515, 10236, 10199, 9810
8886, 5132, 1887, 6821, 6872, 5135, 10315, 10421, 10254, 10255, 9607
8887, 204, 205, 190, 6822, 1477, 4304, 4303, 10340, 10317, 10218
8888, 322, 321, 309, 6821, 1855, 5037, 5038, 10314, 10338, 7008
8889, 341, 340, 6493, 6861, 2002, 6562, 6561, 8163, 8116, 9861
8890, 4400, 6822, 1514, 6880, 10422, 10316, 4407, 10259, 9533, 10258
8891, 1494, 4356, 214, 6878, 4363, 4362, 1495, 10373, 10415, 9108
8892, 5131, 6821, 1887, 6872, 10337, 10315, 5140, 10260, 9607, 10255
8893, 5088, 1872, 248, 6870, 5092, 1873, 5089, 10414, 10372, 9110
8894, 1884, 5110, 6821, 6870, 5114, 10423, 10284, 10363, 10364, 10243
8895, 303, 134, 186, 1292, 10209, 9990, 10122, 9879, 10416, 10266
8896, 1514, 6822, 4399, 6880, 10316, 10341, 4404, 10258, 9533, 10263
8897, 1893, 5154, 6871, 6872, 5157, 10324, 10325, 10251, 10424, 9609
8898, 1522, 6879, 4422, 6880, 10336, 10334, 4429, 10268, 9534, 10425
8899, 1510, 6822, 4378, 6878, 10276, 10426, 4386, 10366, 10427, 10368
8900, 1893, 6871, 5153, 6872, 10325, 10339, 5162, 10251, 9609, 10307
8901, 1884, 6821, 5109, 6870, 10284, 10320, 5117, 10363, 10243, 10370
8902, 5253, 1920, 262, 6823, 5256, 1921, 5254, 10428, 10192, 9814
8903, 234, 1558, 4521, 6824, 1559, 4528, 4527, 9810, 10199, 10429
8904, 326, 5087, 325, 6870, 5094, 5093, 1859, 9913, 10399, 9912
8905, 1510, 4377, 6822, 6878, 4381, 10329, 10276, 10366, 10371, 10427
8906, 208, 4355, 209, 6878, 4358, 4357, 1481, 9916, 10395, 9917
8907, 88, 632, 739, 801, 2585, 10392, 740, 9785, 2625, 10096
8908, 784, 74, 798, 628, 786, 9782, 10350, 10390, 2553, 2637
8909, 5121, 1884, 250, 6821, 5124, 1885, 5122, 10358, 10284, 9906
8910, 1510, 4389, 222, 6822, 4396, 4395, 1511, 10276, 10359, 9904
8911, 5109, 6821, 323, 6870, 10320, 10282, 5115, 10370, 10243, 10383
8912, 6428, 340, 360, 6861, 6563, 2100, 6564, 9315, 8116, 10273
8913, 3652, 122, 121, 6875, 3788, 1161, 3789, 9590, 8149, 10304
8914, 206, 6822, 4377, 6878, 10275, 10329, 4380, 10384, 10427, 10371
8915, 193, 4520, 194, 6824, 4523, 4522, 1466, 10086, 10212, 10200
8916, 311, 5252, 310, 6823, 5259, 5258, 1844, 10191, 10210, 9075
8917, 1546, 4488, 231, 6881, 4495, 4494, 1547, 10150, 10379, 9246
8918, 3640, 3694, 13, 6876, 3739, 3738, 3734, 9929, 9311, 8870
8919, 260, 1914, 5220, 6873, 1915, 5224, 5222, 10430, 10171, 10377
8920, 259, 5220, 1911, 6873, 5221, 5223, 1912, 9254, 10377, 10164
8921, 232, 4488, 1550, 6881, 4493, 4496, 1551, 10431, 10379, 10180
8922, 65, 61, 98, 60, 2374, 9619, 876, 2375, 551, 9662
8923, 5110, 250, 1884, 6821, 5112, 1885, 5114, 10423, 9906, 10284
8924, 4378, 1510, 222, 6822, 4386, 1511, 4383, 10426, 10276, 9904
8925, 224, 1518, 4411, 6880, 1519, 4418, 4417, 10303, 10222, 10398
8926, 1893, 5143, 253, 6872, 5147, 5145, 1894, 10251, 10397, 9608
8927, 5121, 251, 1887, 6821, 5123, 1888, 5125, 10358, 9923, 10315
8928, 1890, 252, 5143, 6872, 1891, 5144, 5146, 10239, 10308, 10397
8929, 325, 5098, 324, 6870, 5105, 5104, 1858, 9912, 10385, 9981
8930, 4389, 1514, 223, 6822, 4397, 1515, 4394, 10359, 10316, 9914
8931, 207, 4366, 208, 6878, 4369, 4368, 1480, 9983, 10386, 9916
8932, 1522, 225, 4411, 6880, 1523, 4416, 4419, 10268, 9532, 10398
8933, 1887, 251, 5132, 6821, 1888, 5133, 5135, 10315, 9923, 10421
8934, 4400, 223, 1514, 6822, 4406, 1515, 4407, 10422, 9914, 10316
8935, 232, 1550, 4499, 6881, 1551, 4506, 4505, 10431, 10180, 10178
8936, 260, 5231, 1914, 6873, 5232, 5234, 1915, 10430, 10175, 10171
8937, 1546, 231, 4477, 6881, 1547, 4482, 4485, 10150, 9246, 10181
8938, 259, 1911, 5209, 6873, 1912, 5213, 5211, 9254, 10164, 10177
8939, 48, 49, 587, 867, 539, 2345, 2343, 9466, 8677, 2731
8940, 4433, 226, 1526, 6879, 4439, 1527, 4440, 10409, 9613, 10335
8941, 309, 6821, 321, 6872, 7008, 10338, 5037, 10237, 9607, 10240
8942, 190, 204, 6822, 6880, 4303, 10340, 10218, 10219, 10221, 9533
8943, 1899, 5165, 255, 6871, 5169, 5167, 1900, 10318, 10408, 9496
8944, 5165, 1896, 254, 6871, 5168, 1897, 5166, 10408, 10326, 9610
8945, 227, 4433, 1530, 6879, 4438, 4441, 1531, 9487, 10409, 10333
8946, 1522, 4422, 225, 6880, 4429, 4428, 1523, 10268, 10425, 9532
8947, 1893, 253, 5154, 6872, 1894, 5155, 5157, 10251, 9608, 10424
8948, 20, 22, 6457, 6853, 458, 6525, 6524, 10404, 10347, 9150
8949, 1538, 4466, 229, 6877, 4473, 4472, 1539, 10327, 10413, 9548
8950, 1908, 5198, 258, 6869, 5202, 5200, 1909, 10351, 10412, 9644
8951, 1518, 224, 4400, 6880, 1519, 4405, 4408, 10222, 10303, 10259
8952, 1890, 5132, 252, 6872, 5136, 5134, 1891, 10239, 10254, 10308
8953, 257, 5198, 1905, 6869, 5199, 5201, 1906, 9553, 10412, 10345
8954, 1542, 230, 4466, 6877, 1543, 4471, 4474, 10357, 9650, 10413
8955, 1502, 4367, 220, 6878, 4374, 4373, 1503, 10400, 10420, 9589
8956, 249, 1881, 5099, 6870, 1882, 5103, 5101, 10432, 10365, 10419
8957, 5099, 1878, 247, 6870, 5102, 1879, 5100, 10419, 10401, 9587
8958, 1506, 221, 4367, 6878, 1507, 4372, 4375, 10367, 10433, 10420
8959, 6467, 16, 18, 6828, 6518, 440, 6519, 10035, 10406, 10434
8960, 14, 16, 6472, 6828, 431, 6516, 6515, 10380, 10406, 9833
8961, 186, 134, 135, 1292, 9990, 1184, 4243, 10266, 10416, 10127
8962, 1530, 4444, 227, 6879, 4451, 4450, 1531, 10333, 10331, 9487
8963, 1899, 255, 5176, 6871, 1900, 5177, 5179, 10318, 9496, 10322
8964, 258, 5209, 6869, 6873, 5210, 10417, 9644, 9253, 10177, 10071
8965, 1409, 1416, 133, 1190, 10313, 10435, 10436, 10126, 4255, 4008
8966, 230, 6877, 4477, 6881, 9650, 10418, 4483, 9244, 10077, 10181
8967, 254, 1896, 5154, 6871, 1897, 5158, 5156, 9610, 10326, 10324
8968, 1526, 226, 4422, 6879, 1527, 4427, 4430, 10335, 9613, 10334
8969, 739, 632, 89, 801, 10392, 2587, 741, 10096, 2625, 10079
8970, 784, 798, 73, 628, 10350, 10305, 785, 10390, 2637, 2551
8971, 230, 1542, 4477, 6877, 1543, 4484, 4483, 9650, 10357, 10418
8972, 5209, 1908, 258, 6869, 5212, 1909, 5210, 10417, 10351, 9644
8973, 5075, 1875, 334, 333, 5078, 10437, 5081, 5086, 5085, 1870
8974, 216, 4343, 1491, 213, 4348, 4350, 4352, 1497, 4347, 10438
8975, 257, 1905, 5187, 6869, 1906, 5191, 5189, 9553, 10345, 10352
8976, 253, 6871, 5154, 6872, 9605, 10324, 5155, 9608, 9609, 10424
8977, 4422, 6879, 225, 6880, 10334, 9529, 4428, 10425, 9534, 9532
8978, 4455, 1538, 229, 6877, 4463, 1539, 4460, 10353, 10327, 9548
8979, 221, 1506, 4378, 6878, 1507, 4385, 4384, 10433, 10367, 10368
8980, 5110, 1881, 249, 6870, 5113, 1882, 5111, 10364, 10365, 10432
8981, 247, 1878, 5088, 6870, 1879, 5091, 5090, 9587, 10401, 10414
8982, 4356, 1502, 220, 6878, 4364, 1503, 4361, 10415, 10400, 9589
8983, 230, 4477, 231, 6881, 4483, 4482, 1549, 9244, 10181, 9246
8984, 258, 259, 5209, 6873, 1673, 5211, 5210, 9253, 9254, 10177
8985, 94, 112, 69, 727, 10229, 10155, 10227, 10407, 9016, 10439
8986, 5132, 6821, 251, 6872, 10421, 9923, 5133, 10254, 9607, 10440
8987, 4400, 223, 6822, 6880, 4406, 9914, 10422, 10259, 10441, 9533
8988, 3640, 13, 11, 6876, 3734, 423, 3735, 9929, 8870, 8871
8989, 3694, 15, 13, 6876, 3737, 432, 3738, 9311, 9491, 8870
8990, 4400, 224, 223, 6880, 4405, 1521, 4406, 10259, 10303, 10441
8991, 5132, 251, 252, 6872, 5133, 1645, 5134, 10254, 10440, 10308
8992, 228, 227, 4444, 6879, 1537, 4450, 4449, 9234, 9487, 10331
8993, 256, 5176, 255, 6871, 5178, 5177, 1661, 9497, 10322, 9496
8994, 234, 4521, 235, 6824, 4527, 4526, 1565, 9810, 10429, 9080
8995, 262, 263, 5253, 6823, 1689, 5255, 5254, 9814, 9074, 10428
8996, 5154, 253, 254, 6871, 5155, 1653, 5156, 10324, 9605, 9610
8997, 4422, 226, 225, 6879, 4427, 1529, 4428, 10334, 9613, 9529
8998, 4455, 229, 228, 6877, 4460, 1541, 4461, 10353, 9548, 9233
8999, 5187, 256, 257, 6869, 5188, 1665, 5189, 10352, 9552, 9553
9000, 262, 5242, 261, 6823, 5244, 5243, 1685, 9814, 10230, 9787
9001, 4510, 234, 233, 6824, 4515, 1561, 4516, 10236, 9810, 9780
9002, 1963, 1964, 1436, 5431, 1970, 5672, 5664, 5481, 5480, 9682
9003, 5088, 248, 247, 6870, 5089, 1626, 5090, 10414, 9110, 9587
9004, 214, 4356, 220, 6878, 4362, 4361, 1505, 9108, 10415, 9589
9005, 93, 69, 112, 727, 726, 10155, 9541, 729, 10439, 9016
9006, 797, 71, 610, 627, 10442, 10443, 10405, 2634, 2546, 10389
9007, 94, 69, 70, 727, 10227, 621, 2621, 10407, 10439, 10388
9008, 3289, 978, 977, 895, 3312, 984, 3313, 7665, 2915, 2909
9009, 1243, 1370, 145, 1192, 4234, 1371, 1244, 4043, 10054, 4042
9010, 141, 1231, 1390, 1191, 1232, 4238, 1391, 4033, 4034, 10128
9011, 1279, 157, 1195, 1310, 1280, 4069, 4070, 4222, 1311, 9970
9012, 1267, 1330, 153, 1194, 4226, 1331, 1268, 4061, 7481, 4060
9013, 1264, 1194, 153, 1335, 4059, 4060, 1266, 4227, 9947, 1337
9014, 141, 1395, 1228, 1191, 1397, 4239, 1230, 4033, 9972, 4032
9015, 157, 1195, 1315, 1276, 4069, 10129, 1317, 1278, 4068, 4223
9016, 1375, 1240, 145, 1192, 4235, 1242, 1377, 9227, 4041, 4042
9017, 1255, 1350, 149, 1193, 4230, 1351, 1256, 4052, 9444, 4051
9018, 1355, 1252, 149, 1193, 4231, 1254, 1357, 10130, 4050, 4051
9019, 250, 251, 5121, 6821, 1641, 5123, 5122, 9906, 9923, 10358
9020, 222, 4389, 223, 6822, 4395, 4394, 1517, 9904, 10359, 9914
9021, 232, 231, 4488, 6881, 1553, 4494, 4493, 10431, 9246, 10379
9022, 5220, 259, 260, 6873, 5221, 1677, 5222, 10377, 9254, 10430
9023, 225, 224, 4411, 6880, 1525, 4417, 4416, 9532, 10303, 10398
9024, 5143, 252, 253, 6872, 5144, 1649, 5145, 10397, 10308, 9608
9025, 224, 6822, 223, 6880, 9860, 9914, 1521, 10303, 9533, 10441
9026, 251, 6821, 252, 6872, 9923, 9870, 1645, 10440, 9607, 10308
9027, 5165, 254, 255, 6871, 5166, 1657, 5167, 10408, 9610, 9496
9028, 226, 4433, 227, 6879, 4439, 4438, 1533, 9613, 10409, 9487
9029, 257, 258, 5198, 6869, 1669, 5200, 5199, 9553, 9644, 10412
9030, 4466, 230, 229, 6877, 4471, 1545, 4472, 10413, 9650, 9548
9031, 247, 249, 5099, 6870, 1633, 5101, 5100, 9587, 10432, 10419
9032, 4367, 221, 220, 6878, 4372, 1509, 4373, 10420, 10433, 9589
9033, 1219, 1409, 133, 1190, 4242, 10436, 4007, 4010, 10126, 4008
9034, 1292, 134, 135, 1288, 10416, 1184, 10127, 4075, 4012, 4013
9035, 161, 134, 1292, 1288, 1291, 10416, 1294, 1290, 4012, 4075
9036, 1409, 133, 132, 1219, 10436, 1178, 1410, 4242, 4007, 1220
9037, 678, 772, 77, 629, 2613, 773, 679, 2561, 10378, 2560
9038, 784, 73, 666, 628, 785, 667, 2617, 10390, 2551, 2552
9039, 714, 736, 89, 632, 2601, 737, 715, 2588, 10278, 2587
9040, 748, 85, 702, 631, 749, 703, 2605, 9432, 2578, 2579
9041, 699, 631, 85, 751, 2577, 2578, 701, 2606, 10391, 753
9042, 663, 628, 73, 787, 2550, 2551, 665, 2618, 10279, 789
9043, 711, 632, 89, 739, 2586, 2587, 713, 2602, 10392, 741
9044, 81, 690, 760, 630, 691, 2609, 761, 2569, 2570, 10207
9045, 77, 629, 775, 675, 2560, 10208, 777, 677, 2559, 2614
9046, 630, 81, 687, 763, 2569, 689, 2568, 10393, 765, 2610
9047, 71, 618, 610, 627, 2531, 2530, 10443, 2546, 2532, 10389
9048, 727, 69, 70, 723, 10439, 621, 10388, 2598, 2539, 2540
9049, 727, 93, 69, 723, 729, 726, 10439, 2598, 725, 2539
9050, 66, 71, 618, 610, 656, 2531, 619, 611, 10443, 2530
9051, 180, 143, 4178, 4184, 1379, 4180, 4179, 4189, 4188, 9306
9052, 236, 1571, 4678, 1566, 1572, 10349, 4705, 1568, 4533, 4704
9053, 169, 154, 4112, 4118, 1324, 4114, 4113, 4123, 4122, 8181
9054, 171, 152, 4124, 4130, 1334, 4126, 4125, 4135, 4134, 8476
9055, 4148, 149, 174, 4142, 4152, 1349, 4153, 9838, 4144, 4143
9056, 135, 1300, 159, 186, 6961, 1301, 4015, 4243, 7693, 7690
9057, 1419, 151, 1194, 1193, 10293, 4056, 4263, 4262, 4055, 1205
9058, 801, 3404, 3409, 3417, 6953, 3464, 8638, 10444, 3476, 3475
9059, 1300, 135, 159, 1285, 6961, 4015, 1301, 4220, 4016, 1286
9060, 1405, 139, 1190, 1222, 1407, 4028, 6960, 4241, 1224, 4027
9061, 143, 1380, 1192, 1237, 1381, 6965, 4038, 1238, 4236, 4039
9062, 1417, 5442, 5430, 1416, 10445, 5499, 10446, 1426, 10185, 10186
9063, 798, 75, 629, 628, 10168, 2556, 2636, 2637, 2555, 640
9064, 1193, 1418, 147, 1192, 4260, 10246, 4047, 1204, 4261, 4046
9065, 1195, 1305, 159, 1282, 6962, 1307, 4014, 4072, 4221, 1284
9066, 186, 159, 135, 1195, 7690, 4015, 4243, 4245, 4014, 1207
9067, 5789, 5592, 5786, 5795, 6920, 7601, 9187, 5844, 6921, 5856
9068, 1325, 155, 1194, 1270, 1327, 4064, 6964, 4225, 1272, 4063
9069, 5965, 5969, 5966, 5593, 6038, 6030, 9481, 6924, 6925, 7613
9070, 139, 1191, 1416, 1190, 4029, 4257, 10447, 4028, 1202, 4255
9071, 1434, 5963, 1414, 1433, 10448, 10449, 4276, 1443, 7159, 4274
9072, 4088, 165, 158, 4094, 4089, 1304, 4090, 9796, 4099, 4098
9073, 155, 1420, 1194, 1195, 10249, 4264, 4064, 4065, 4247, 1206
9074, 799, 79, 630, 629, 10396, 2565, 2639, 2638, 2564, 641
9075, 1419, 1418, 5790, 1193, 1428, 10450, 8153, 4262, 4260, 9445
9076, 1418, 5790, 5785, 5799, 10450, 5825, 10201, 10451, 5854, 5853
9077, 172, 151, 4130, 4136, 1339, 4132, 4131, 4141, 4140, 8342
9078, 1419, 5788, 1418, 1439, 8154, 10452, 1428, 4285, 7197, 4286
9079, 4136, 173, 150, 4142, 4137, 1344, 4138, 9454, 4147, 4146
9080, 5963, 1413, 5958, 5973, 10453, 10158, 6022, 6026, 10454, 6025
9081, 4683, 1704, 1816, 277, 4758, 5266, 10374, 4757, 1706, 1818
9082, 2071, 1432, 187, 4265, 5624, 1441, 5622, 7955, 4271, 4268
9083, 1413, 5963, 1414, 5973, 10453, 10449, 1423, 10454, 6026, 9465
9084, 1414, 1188, 1187, 1212, 4252, 1199, 4251, 10149, 4024, 4074
9085, 5963, 1413, 1414, 1433, 10453, 1423, 10449, 7159, 4275, 4274
9086, 849, 96, 2704, 3074, 855, 2706, 2710, 7716, 7362, 7559
9087, 331, 352, 2018, 332, 2025, 5568, 5567, 1868, 5569, 10145
9088, 1001, 99, 2751, 891, 2866, 2754, 7957, 2868, 900, 2757
9089, 596, 65, 61, 2734, 602, 2374, 2377, 2738, 2737, 8472
9090, 61, 596, 2734, 552, 2377, 2738, 8472, 554, 2378, 8474
9091, 87, 801, 631, 632, 10203, 2642, 2582, 2583, 2625, 643
9092, 91, 632, 733, 717, 2542, 8752, 735, 719, 2590, 2600
9093, 730, 70, 91, 720, 8751, 2543, 731, 2599, 2544, 721
9094, 94, 91, 70, 632, 10455, 2543, 2621, 2623, 2542, 644
9095, 3404, 801, 3409, 1075, 6953, 8638, 3464, 9836, 8640, 8639
9096, 70, 730, 91, 94, 8751, 731, 2543, 2621, 9887, 10455
9097, 87, 631, 745, 705, 2582, 8755, 747, 707, 2581, 2604
9098, 897, 3200, 898, 799, 10456, 7181, 907, 2772, 10457, 2771
9099, 800, 3200, 799, 898, 9778, 10457, 809, 2770, 7181, 2771
9100, 897, 3200, 966, 898, 10456, 3236, 2924, 907, 7181, 2925
9101, 570, 63, 2260, 2704, 576, 2389, 2388, 2708, 2707, 7558
9102, 557, 2687, 62, 2268, 2691, 2690, 563, 2379, 7780, 2380
9103, 1875, 330, 6356, 329, 1877, 6385, 6384, 5082, 1866, 8222
9104, 893, 3495, 795, 892, 10458, 10459, 2764, 902, 7255, 2761
9105, 893, 3495, 892, 1015, 10458, 7255, 902, 2897, 3521, 2898
9106, 3207, 800, 3196, 3200, 10460, 9776, 3271, 3260, 9778, 3268
9107, 800, 799, 3207, 3196, 809, 10461, 10460, 9776, 10462, 3271
9108, 799, 3196, 3201, 3207, 10462, 3253, 10141, 10461, 3271, 3272
9109, 629, 75, 778, 672, 2556, 779, 8757, 2557, 673, 2615
9110, 3200, 800, 799, 3207, 9778, 809, 10457, 3260, 10460, 10461
9111, 800, 799, 3196, 630, 809, 10462, 9776, 2640, 2639, 10206
9112, 75, 629, 778, 798, 2556, 8757, 779, 10168, 2636, 9732
9113, 628, 68, 790, 660, 2536, 791, 8753, 2537, 661, 2619
9114, 1191, 139, 1400, 1225, 4029, 1401, 6963, 4030, 1226, 4240
9115, 614, 68, 627, 657, 616, 2535, 8750, 2620, 659, 2534
9116, 627, 797, 68, 614, 2634, 10463, 2535, 8750, 9841, 616
9117, 3293, 3290, 2857, 1029, 3349, 7061, 6910, 7089, 7309, 7088
9118, 798, 3292, 3279, 3282, 10464, 3356, 7251, 10465, 3341, 6916
9119, 3284, 1030, 797, 796, 9926, 9928, 7253, 7252, 10466, 806
9120, 800, 83, 631, 630, 10410, 2574, 2641, 2640, 2573, 642
9121, 215, 1491, 6355, 219, 1493, 6375, 6374, 1501, 4351, 9437
9122, 795, 3495, 794, 892, 10459, 9921, 804, 2761, 7255, 2760
9123, 794, 1043, 1042, 3499, 10467, 1049, 8582, 9919, 9494, 9389
9124, 1434, 5963, 1433, 2085, 10448, 7159, 1443, 5653, 6000, 5654
9125, 1414, 1413, 5973, 1948, 1423, 10454, 9465, 8709, 8710, 8210
9126, 801, 3404, 3417, 3415, 6953, 3476, 10444, 6950, 3432, 3477
9127, 143, 1417, 1191, 1192, 10233, 4258, 4037, 4038, 4259, 1203
9128, 1190, 1416, 139, 1405, 4255, 10447, 4028, 6960, 8647, 1407
9129, 186, 1420, 5884, 1804, 1430, 7313, 7314, 7689, 9064, 9872
9130, 797, 68, 628, 627, 10463, 2536, 2635, 2634, 2535, 639
9131, 798, 3292, 3282, 797, 10464, 3341, 10465, 807, 10152, 10153
9132, 281, 6047, 5429, 336, 8427, 9289, 5447, 1960, 8429, 5446
9133, 167, 156, 4100, 4106, 1314, 4102, 4101, 4111, 4110, 8946
9134, 1412, 5879, 186, 4265, 6995, 8884, 1421, 4269, 6996, 4267
9135, 15, 424, 13, 6812, 427, 2178, 432, 9490, 10468, 8868
9136, 433, 424, 15, 6812, 2186, 427, 2185, 10469, 10468, 9490
9137, 415, 13, 424, 6812, 418, 2178, 2179, 9808, 8868, 10468
9138, 433, 15, 17, 6812, 2185, 441, 436, 10469, 9490, 10040
9139, 442, 433, 17, 6812, 2193, 436, 2192, 10470, 10469, 10040
9140, 442, 17, 19, 6812, 2192, 450, 445, 10470, 10040, 10471
9141, 13, 415, 11, 6812, 418, 2171, 423, 8868, 9808, 8869
9142, 19, 21, 442, 6812, 459, 2199, 445, 10471, 10472, 10470
9143, 415, 406, 11, 6812, 2172, 409, 2171, 9808, 9992, 8869
9144, 21, 451, 442, 6812, 454, 2202, 2199, 10472, 10473, 10470
9145, 9, 11, 406, 6812, 414, 409, 2164, 10474, 8869, 9992
9146, 478, 25, 27, 6814, 2220, 486, 481, 10131, 10382, 10381
9147, 487, 478, 27, 6814, 2228, 481, 2227, 10064, 10131, 10381
9148, 29, 487, 27, 6814, 490, 2227, 495, 10355, 10064, 10381
9149, 478, 469, 25, 6814, 2221, 472, 2220, 10131, 10132, 10382
9150, 487, 29, 496, 6814, 490, 2234, 2235, 10064, 10355, 9739
9151, 25, 469, 460, 6814, 472, 2216, 2213, 10382, 10132, 10475
9152, 31, 496, 29, 6814, 499, 2234, 504, 10354, 9739, 10355
9153, 25, 460, 23, 6814, 2213, 463, 477, 10382, 10475, 10476
9154, 505, 496, 31, 6814, 2242, 499, 2241, 10205, 9739, 10354
9155, 505, 31, 33, 6814, 2241, 513, 508, 10205, 10354, 10477
9156, 453, 24, 22, 6818, 2207, 467, 457, 10140, 10211, 10478
9157, 453, 462, 24, 6818, 2209, 466, 2207, 10140, 10139, 10211
9158, 24, 471, 26, 6818, 2214, 475, 476, 10211, 10479, 10123
9159, 24, 462, 471, 6818, 466, 2215, 2214, 10211, 10139, 10479
9160, 16, 435, 18, 6828, 2187, 439, 440, 10406, 9622, 10434
9161, 14, 426, 16, 6828, 2180, 430, 431, 10380, 9848, 10406
9162, 435, 16, 426, 6828, 2187, 430, 2188, 9622, 10406, 9848
9163, 417, 426, 14, 6828, 2181, 2180, 421, 9993, 9848, 10380
9164, 18, 435, 444, 6828, 439, 2195, 2194, 10434, 9622, 9623
9165, 408, 14, 12, 6828, 2173, 422, 412, 10480, 10380, 10074
9166, 408, 417, 14, 6828, 2174, 421, 2173, 10480, 9993, 10380
9167, 10, 408, 12, 6828, 2166, 412, 413, 8570, 10480, 10074
9168, 10, 399, 408, 6828, 403, 2167, 2166, 8570, 9508, 10480
9169, 1188, 1414, 1415, 6890, 4252, 1424, 4253, 9969, 8913, 9470
9170, 5610, 5797, 5784, 5794, 7027, 5848, 7243, 7486, 5850, 5810
9171, 5784, 5797, 5610, 1752, 5848, 7027, 7243, 7245, 7028, 7026
9172, 1417, 1400, 1581, 140, 8241, 8707, 10106, 8242, 1402, 8706
9173, 2849, 3367, 105, 2848, 9680, 10481, 2878, 2879, 9528, 2875
9174, 1799, 186, 1412, 5879, 10121, 1421, 9694, 9499, 8884, 6995
9175, 3069, 3070, 648, 1044, 3091, 10482, 8606, 3104, 3101, 9209
9176, 3200, 3192, 897, 966, 3237, 10045, 10456, 3236, 3232, 2924
9177, 3032, 3029, 2271, 836, 3047, 7775, 8122, 8152, 7772, 7774
9178, 2271, 3029, 3032, 1029, 7775, 3047, 8122, 8101, 3061, 3058
9179, 3070, 3073, 647, 1043, 3088, 8539, 8169, 3102, 3099, 8773
9180, 3070, 647, 3073, 850, 8169, 8539, 3088, 8171, 8170, 8542
9181, 4685, 5357, 1454, 4695, 7186, 8378, 7624, 4769, 7954, 8904
9182, 4685, 1454, 5357, 5356, 7624, 8378, 7186, 7187, 7623, 5415
9183, 151, 1340, 1194, 1261, 1341, 10483, 4056, 1262, 4228, 4057
9184, 151, 1194, 1340, 1419, 4056, 10483, 1341, 10293, 4263, 9869
9185, 152, 1194, 1340, 1261, 4058, 10483, 1342, 1263, 4057, 4228
9186, 152, 1340, 1194, 1419, 1342, 10483, 4058, 10102, 9869, 4263
9187, 5610, 5797, 5594, 6043, 7027, 7431, 5741, 7024, 6941, 7789
9188, 5594, 5797, 5610, 5794, 7431, 7027, 5741, 7432, 5850, 7486
9189, 6851, 4543, 5359, 4541, 7386, 7067, 6946, 6945, 4552, 6942
9190, 6851, 5359, 4543, 6846, 6946, 7067, 7386, 7474, 7068, 6978
9191, 216, 6875, 121, 122, 8150, 10304, 4609, 1614, 8149, 1161
9192, 6832, 333, 353, 354, 8711, 5570, 10287, 8534, 2029, 2030
9193, 159, 1804, 1420, 186, 7691, 9064, 10484, 7690, 7689, 1430
9194, 159, 1195, 1420, 1305, 4014, 4247, 10484, 1307, 6962, 8244
9195, 1420, 1195, 159, 186, 4247, 4014, 10484, 1430, 4245, 7690
9196, 5963, 1434, 5961, 2085, 10448, 9793, 6005, 6000, 5653, 6004
9197, 3207, 3206, 799, 3192, 3264, 10485, 10461, 3261, 3262, 10486
9198, 3207, 799, 3206, 3201, 10461, 10485, 3264, 3272, 10141, 3275
9199, 6894, 3028, 1115, 3112, 7459, 7475, 7400, 7183, 7458, 7399
9200, 6894, 1115, 3028, 1033, 7400, 7475, 7459, 7745, 8524, 3041
9201, 742, 87, 632, 801, 743, 2583, 8756, 9784, 10203, 2625
9202, 742, 632, 87, 708, 8756, 2583, 743, 2603, 2584, 709
9203, 75, 781, 628, 798, 783, 8754, 2555, 10168, 9783, 2637
9204, 75, 628, 781, 669, 2555, 8754, 783, 671, 2554, 2616
9205, 147, 1365, 1192, 1418, 1367, 10487, 4046, 10246, 10226, 4261
9206, 147, 1192, 1365, 1246, 4046, 10487, 1367, 1248, 4045, 4233
9207, 146, 1192, 1365, 1418, 4044, 10487, 1366, 10136, 4261, 10226
9208, 146, 1365, 1192, 1246, 1366, 10487, 4044, 1247, 4233, 4045
9209, 6843, 489, 28, 30, 7347, 2229, 10270, 7340, 493, 494
9210, 6901, 3033, 6867, 1028, 7321, 7728, 7180, 7607, 3040, 7606
9211, 6901, 6867, 3033, 3071, 7180, 7728, 7321, 7134, 7178, 7318
9212, 6849, 5546, 339, 347, 6986, 5549, 10488, 7004, 5552, 2014
9213, 895, 3292, 798, 797, 7664, 10464, 2767, 2765, 10152, 807
9214, 895, 798, 3292, 3279, 2767, 10464, 7664, 7250, 7251, 3356
9215, 1075, 94, 91, 730, 10274, 10455, 10204, 10197, 9887, 731
9216, 6843, 480, 28, 489, 10267, 484, 10270, 7347, 2230, 2229
9217, 757, 83, 630, 693, 759, 2573, 8758, 2608, 695, 2572
9218, 1073, 1074, 1117, 3153, 1080, 10489, 7461, 3188, 3187, 7353
9219, 1073, 1117, 1074, 6830, 7461, 10489, 1080, 8257, 7306, 7630
9220, 1117, 1074, 1056, 3153, 10489, 10490, 7303, 7353, 3187, 7069
9221, 1117, 1056, 1074, 6830, 7303, 10490, 10489, 7306, 7202, 7630
9222, 1056, 1074, 6857, 3153, 10490, 9131, 7204, 7069, 3187, 7225
9223, 1056, 6857, 1074, 6830, 7204, 9131, 10490, 7202, 7206, 7630
9224, 1417, 1436, 5442, 1416, 4281, 9681, 10445, 1426, 4280, 10185
9225, 1417, 5442, 1436, 5437, 10445, 9681, 4281, 7121, 5503, 7120
9226, 797, 1031, 68, 614, 10231, 10080, 10463, 9841, 8456, 616
9227, 1436, 1435, 5445, 1416, 1445, 10491, 9706, 4280, 4278, 10195
9228, 1436, 5445, 1435, 5438, 9706, 10491, 1445, 7831, 5506, 7370
9229, 309, 5546, 1834, 2008, 5550, 6981, 1838, 2009, 5551, 6254
9230, 1834, 5546, 309, 6821, 6981, 5550, 1838, 6983, 6982, 7008
9231, 630, 766, 79, 799, 8759, 767, 2565, 2639, 10342, 10396
9232, 79, 766, 630, 684, 767, 8759, 2565, 685, 2611, 2566
9233, 6884, 4963, 6859, 4961, 7048, 7298, 7078, 7062, 5015, 7434
9234, 6884, 6859, 4963, 6865, 7078, 7298, 7048, 6955, 7075, 7045
9235, 798, 2859, 3282, 3279, 8426, 10492, 10465, 7251, 7023, 6916
9236, 798, 3282, 2859, 1032, 10465, 10492, 8426, 9540, 9510, 7256
9237, 3291, 3282, 2859, 3279, 3352, 10492, 6918, 3355, 6916, 7023
9238, 5971, 359, 335, 355, 5977, 10493, 9924, 5976, 2104, 5573
9239, 5957, 359, 335, 5606, 5974, 10493, 9735, 9945, 5641, 8394
9240, 5957, 335, 359, 355, 9735, 10493, 5974, 5975, 5573, 2104
9241, 1416, 1580, 139, 1405, 10016, 8637, 10447, 8647, 10018, 1407
9242, 1029, 6901, 3032, 6889, 7804, 10494, 3058, 9585, 7322, 8125
9243, 1029, 3032, 6901, 1028, 3058, 10494, 7804, 1035, 3059, 7607
9244, 3033, 3032, 6901, 6889, 3044, 10494, 7321, 7320, 8125, 7322
9245, 3033, 6901, 3032, 1028, 7321, 10494, 3044, 3040, 7607, 3059
9246, 5882, 5883, 6829, 5870, 5942, 8043, 8722, 5939, 5940, 9181
9247, 6829, 5883, 5882, 5877, 8043, 5942, 8722, 9256, 5950, 5943
9248, 977, 3284, 894, 3290, 3314, 10495, 2908, 3309, 3316, 7366
9249, 977, 894, 3284, 895, 2908, 10495, 3314, 2909, 904, 7254
9250, 796, 894, 3284, 3290, 2762, 10495, 7252, 7307, 7366, 3316
9251, 796, 3284, 894, 895, 7252, 10495, 2762, 2766, 7254, 904
9252, 139, 1400, 1416, 1191, 1401, 10496, 10447, 4029, 6963, 4257
9253, 1417, 1416, 1400, 1191, 1426, 10496, 8241, 4258, 4257, 6963
9254, 6834, 4661, 4884, 4676, 7610, 8500, 7714, 7609, 4803, 8422
9255, 6834, 4884, 4661, 4892, 7714, 8500, 7610, 7718, 4904, 7986
9256, 2842, 3280, 3277, 1028, 8168, 3345, 7415, 7414, 7380, 6970
9257, 3277, 3280, 2842, 3287, 3345, 8168, 7415, 3308, 3301, 8164
9258, 6840, 1192, 1380, 144, 8288, 6965, 9192, 9191, 4040, 1382
9259, 6903, 1800, 1832, 5364, 6913, 7467, 10497, 6914, 6912, 7469
9260, 1832, 1800, 6903, 304, 7467, 6913, 10497, 1835, 4998, 9102
9261, 1832, 5023, 6903, 5364, 5026, 7812, 10497, 7469, 8175, 6914
9262, 6903, 5023, 1832, 304, 7812, 5026, 10497, 9102, 5025, 1835
9263, 5793, 5788, 1418, 5799, 5841, 10452, 10294, 5867, 5866, 10451
9264, 498, 34, 515, 507, 2243, 2249, 9963, 2244, 511, 2250
9265, 6856, 4680, 237, 4666, 8462, 4707, 8498, 7577, 4711, 4710
9266, 6856, 237, 4680, 4542, 8498, 4707, 8462, 8936, 4559, 8048
9267, 3416, 1074, 801, 2844, 7627, 8641, 10498, 7626, 7628, 9457
9268, 3416, 3407, 801, 3417, 3485, 9456, 10498, 3488, 3487, 10444
9269, 801, 3407, 3416, 2844, 9456, 3485, 10498, 9457, 8495, 7626
9270, 1208, 186, 1412, 1799, 9944, 1421, 9826, 9857, 10121, 9694
9271, 1208, 1412, 186, 1185, 9826, 1421, 9944, 4018, 4246, 4244
9272, 4112, 6095, 169, 4118, 8179, 6169, 4113, 8181, 8180, 4123
9273, 169, 6095, 4112, 6121, 6169, 8179, 4113, 6165, 6170, 8187
9274, 6869, 1666, 6849, 1662, 9645, 9196, 7190, 9551, 4641, 9189
9275, 5430, 5443, 1417, 1581, 5500, 10499, 10446, 9133, 8811, 10106
9276, 5615, 5443, 1417, 5437, 7426, 10499, 8259, 7049, 5510, 7121
9277, 6863, 1112, 2851, 1047, 7587, 8137, 7859, 7290, 7586, 7858
9278, 6863, 2851, 1112, 6837, 7859, 8137, 7587, 7511, 8508, 7866
9279, 289, 5610, 6820, 1752, 7242, 8160, 7751, 1758, 7026, 8159
9280, 6820, 5610, 289, 5611, 8160, 7242, 7751, 8374, 5768, 8372
9281, 1043, 648, 1044, 795, 8774, 9209, 1050, 8772, 8770, 9902
9282, 1043, 1044, 648, 3070, 1050, 9209, 8774, 3102, 3101, 10482
9283, 4891, 6868, 6820, 289, 7703, 7484, 7778, 4917, 7752, 7751
9284, 6820, 6868, 4891, 6101, 7484, 7703, 7778, 7777, 7297, 7118
9285, 3409, 801, 3416, 1074, 8638, 10498, 3471, 8201, 8641, 7627
9286, 3409, 3416, 801, 3417, 3471, 10498, 8638, 3475, 3488, 10444
9287, 6887, 1840, 310, 1834, 9727, 1843, 10500, 7437, 5047, 5046
9288, 310, 1840, 6887, 4684, 1843, 9727, 10500, 9072, 9488, 8310
9289, 310, 6823, 6887, 1834, 9075, 7438, 10500, 5046, 7227, 7437
9290, 6887, 6823, 310, 4684, 7438, 9075, 10500, 8310, 9076, 9072
9291, 6860, 2837, 3506, 2862, 9726, 10501, 7869, 7870, 2907, 7059
9292, 3497, 3506, 2837, 2862, 3574, 10501, 8985, 7058, 7059, 2907
9293, 452, 339, 6849, 6365, 10502, 10488, 7302, 7300, 9261, 7154
9294, 453, 461, 339, 452, 2212, 10503, 10002, 456, 2210, 10502
9295, 6365, 461, 339, 308, 7867, 10503, 9261, 9262, 10504, 2000
9296, 6365, 339, 461, 452, 9261, 10503, 7867, 7300, 10502, 2210
9297, 6855, 1058, 775, 1059, 7698, 10505, 8345, 7696, 1065, 8344
9298, 799, 775, 1058, 1059, 9975, 10505, 8862, 9323, 8344, 1065
9299, 6856, 4673, 4691, 4677, 7573, 4851, 7694, 7574, 4837, 4815
9300, 6856, 4691, 4673, 6834, 7694, 4851, 7573, 7768, 7267, 7939
9301, 3407, 801, 3415, 899, 9456, 6950, 3448, 7602, 2756, 7237
9302, 3407, 3415, 801, 3417, 3448, 6950, 9456, 3487, 3477, 10444
9303, 389, 379, 4685, 380, 2154, 10506, 8107, 2155, 383, 8106
9304, 2108, 6047, 5439, 238, 6069, 10507, 8875, 9208, 9360, 9752
9305, 2108, 5439, 6047, 5429, 8875, 10507, 6069, 8464, 5453, 9289
9306, 281, 5439, 6047, 238, 5450, 10507, 8427, 4868, 9752, 9360
9307, 281, 6047, 5439, 5429, 8427, 10507, 5450, 5447, 9289, 5453
9308, 6820, 6111, 299, 1803, 7037, 6248, 8537, 7846, 7041, 8688
9309, 6820, 299, 6111, 6096, 8537, 6248, 7037, 7039, 6244, 6249
9310, 6887, 1686, 6823, 4684, 8311, 7971, 7438, 8310, 4716, 9076
9311, 6887, 6823, 1686, 6849, 7438, 7971, 8311, 7439, 7228, 7973
9312, 6867, 2296, 835, 3033, 7727, 8803, 10508, 7728, 7726, 8804
9313, 835, 2296, 6867, 2268, 8803, 7727, 10508, 10509, 2427, 7782
9314, 6867, 2687, 835, 2268, 7781, 2693, 10508, 7782, 7780, 10509
9315, 1662, 6849, 256, 1658, 9189, 10510, 4639, 4638, 7909, 1660
9316, 1662, 256, 6849, 6869, 4639, 10510, 9189, 9551, 9552, 7190
9317, 6871, 256, 6849, 1658, 9497, 10510, 7192, 7910, 1660, 7909
9318, 6871, 6849, 256, 6869, 7192, 10510, 9497, 7193, 7190, 9552
9319, 6867, 2274, 853, 3068, 8298, 9506, 8618, 8139, 8299, 9248
9320, 6867, 853, 2274, 2303, 8618, 9506, 8298, 7568, 9325, 2460
9321, 308, 6365, 462, 307, 9262, 8029, 10020, 1830, 8031, 8032
9322, 462, 6365, 308, 461, 8029, 9262, 10020, 465, 7867, 10504
9323, 3074, 6357, 646, 2272, 7125, 6396, 8604, 7985, 7984, 8712
9324, 3074, 646, 6357, 1042, 8604, 6396, 7125, 3081, 7732, 7123
9325, 6900, 517, 1615, 1618, 8703, 10511, 8550, 7952, 8702, 4604
9326, 6850, 6113, 1581, 6114, 8095, 7765, 8519, 8245, 6279, 7647
9327, 1419, 5790, 1979, 1757, 8153, 5824, 10225, 9960, 8231, 5517
9328, 1419, 1979, 5790, 5800, 10225, 5824, 8153, 8155, 5806, 5826
9329, 189, 6362, 460, 461, 7872, 8081, 8886, 8089, 7922, 464
9330, 460, 6362, 189, 188, 8081, 7872, 8886, 8079, 8083, 1451
9331, 6833, 6883, 6834, 6816, 8283, 7643, 7708, 7707, 7769, 7709
9332, 6834, 6883, 6833, 4887, 7643, 8283, 7708, 7796, 8225, 7797
9333, 5587, 335, 1952, 5971, 8395, 1959, 10512, 9356, 9924, 7923
9334, 1952, 335, 5587, 5607, 1959, 8395, 10512, 7441, 7440, 5769
9335, 1952, 5616, 5587, 5971, 8065, 5766, 10512, 7923, 8066, 9356
9336, 5587, 5616, 1952, 5607, 5766, 8065, 10512, 5769, 5770, 7441
9337, 2264, 54, 86, 748, 2354, 827, 10513, 8518, 2675, 750
9338, 2283, 89, 6857, 739, 7223, 10514, 7140, 9353, 741, 10097
9339, 2283, 6857, 89, 3150, 7140, 10514, 7223, 7129, 7139, 7222
9340, 801, 6857, 89, 739, 9001, 10514, 10079, 10096, 10097, 741
9341, 801, 89, 6857, 3150, 10079, 10514, 9001, 9535, 7222, 7139
9342, 882, 3150, 2301, 3151, 9569, 10515, 9476, 9478, 3180, 9381
9343, 882, 2301, 3150, 2263, 9476, 10515, 9569, 9568, 2370, 7130
9344, 58, 2301, 3150, 3151, 2368, 10515, 8843, 9383, 9381, 3180
9345, 58, 3150, 2301, 2263, 8843, 10515, 2368, 2366, 7130, 2370
9346, 295, 6859, 6838, 4886, 7562, 8012, 9333, 9054, 7961, 8013
9347, 5019, 5018, 6823, 5022, 5056, 10516, 10214, 5052, 5066, 8597
9348, 5019, 6823, 5018, 6873, 10214, 10516, 5056, 9745, 10245, 9950
9349, 5021, 6823, 5018, 5022, 7226, 10516, 5067, 5065, 8597, 5066
9350, 5021, 5018, 6823, 6873, 5067, 10516, 7226, 10072, 9950, 10245
9351, 4291, 4288, 6824, 4292, 4337, 10517, 8576, 4333, 4336, 8575
9352, 4291, 6824, 4288, 6881, 8576, 10517, 4337, 10076, 10253, 9954
9353, 4289, 6824, 4288, 4292, 10217, 10517, 4326, 4322, 8575, 4336
9354, 4289, 4288, 6824, 6881, 4326, 10517, 10217, 9756, 9954, 10253
9355, 2108, 5589, 2060, 6046, 8651, 5724, 6067, 6068, 8652, 6060
9356, 2060, 5589, 2108, 5598, 5724, 8651, 6067, 5731, 5730, 8463
9357, 6849, 435, 434, 425, 10518, 438, 9374, 9558, 2191, 2189
9358, 426, 6849, 435, 347, 10519, 10518, 2188, 10520, 7004, 10521
9359, 426, 435, 6849, 425, 2188, 10518, 10519, 429, 2191, 9558
9360, 5969, 5618, 5597, 5593, 6926, 5775, 7219, 6925, 5663, 5762
9361, 5969, 5597, 5618, 6852, 7219, 5775, 6926, 7753, 7541, 7754
9362, 5796, 5799, 1418, 5785, 5855, 10451, 10295, 5852, 5853, 10201
9363, 1418, 5799, 5796, 5793, 10451, 5855, 10295, 10294, 5867, 5858
9364, 5021, 6873, 6849, 6869, 10072, 10522, 7002, 7189, 10071, 7190
9365, 5021, 6849, 6873, 6823, 7002, 10522, 10072, 7226, 7228, 10245
9366, 3420, 793, 6837, 2846, 7531, 8977, 9151, 8484, 9203, 9538
9367, 3420, 6837, 793, 1071, 9151, 8977, 7531, 7533, 7510, 7532
9368, 4291, 6881, 6849, 6824, 10076, 10523, 7800, 8576, 10253, 7891
9369, 4291, 6849, 6881, 6877, 7800, 10523, 10076, 8790, 8789, 10077
9370, 5970, 5597, 5595, 5959, 7538, 5727, 7349, 6028, 7218, 7350
9371, 5595, 5597, 5970, 2059, 5727, 7538, 7349, 5717, 5725, 8815
9372, 5546, 6849, 6870, 6821, 6986, 10524, 10242, 6982, 6985, 10243
9373, 1627, 6849, 6870, 6365, 7155, 10524, 9111, 6381, 7154, 9109
9374, 189, 6849, 6878, 6362, 7873, 8239, 9592, 7872, 7508, 8238
9375, 462, 6365, 327, 328, 8029, 10525, 10526, 8028, 8030, 1861
9376, 327, 6365, 462, 471, 10525, 8029, 10526, 10057, 8216, 2215
9377, 835, 2268, 557, 2296, 10509, 2379, 2696, 8803, 2427, 2426
9378, 557, 2268, 835, 2687, 2379, 10509, 2696, 2691, 7780, 2693
9379, 6820, 6841, 1325, 154, 8620, 9399, 10527, 7749, 8964, 1326
9380, 1325, 1194, 6820, 154, 6964, 7479, 10527, 1326, 4062, 7749
9381, 6849, 1650, 6871, 1654, 9148, 9611, 7192, 7908, 4632, 7911
9382, 6887, 1454, 372, 364, 7625, 8236, 8718, 9806, 9319, 2142
9383, 91, 632, 801, 733, 2542, 2625, 10528, 735, 8752, 9730
9384, 1454, 1212, 6887, 372, 8234, 10529, 7625, 8236, 6803, 8718
9385, 1454, 6887, 1212, 5356, 7625, 10529, 8234, 7623, 6929, 7876
9386, 5361, 6887, 1212, 372, 7083, 10529, 7875, 9788, 8718, 6803
9387, 5361, 1212, 6887, 5356, 7875, 10529, 7083, 5403, 7876, 6929
9388, 6849, 416, 426, 425, 8439, 2183, 10519, 9558, 2184, 429
9389, 6864, 2292, 839, 2281, 9023, 9696, 9286, 9204, 2323, 9602
9390, 6864, 839, 2292, 3030, 9286, 9696, 9023, 9025, 9560, 9021
9391, 648, 647, 3070, 6358, 653, 8169, 10482, 6402, 6401, 9081
9392, 648, 3070, 647, 1043, 10482, 8169, 653, 8774, 3102, 8773
9393, 109, 1114, 2848, 3367, 8619, 8801, 10530, 9940, 3389, 9528
9394, 2848, 1114, 109, 3280, 8801, 8619, 10530, 9100, 8167, 9976
9395, 1028, 6867, 109, 3033, 7606, 7759, 1034, 3040, 7728, 3036
9396, 109, 6867, 1028, 1114, 7759, 7606, 1034, 8619, 7605, 7604
9397, 6819, 6436, 349, 6423, 7524, 6575, 9615, 7501, 6584, 6583
9398, 5969, 5970, 6852, 5967, 6031, 7539, 7753, 6039, 6034, 8926
9399, 5969, 6852, 5970, 5959, 7753, 7539, 6031, 6029, 7540, 6028
9400, 5872, 5883, 1803, 5600, 5949, 8039, 10531, 8352, 8038, 8040
9401, 1803, 5883, 5872, 5875, 8039, 5949, 10531, 8387, 5941, 5948
9402, 1803, 1420, 5872, 5600, 9065, 8202, 10531, 8040, 9386, 8352
9403, 5872, 1420, 1803, 5875, 8202, 9065, 10531, 5948, 9066, 8387
9404, 4265, 5869, 187, 5880, 7600, 10362, 4268, 8057, 5897, 9823
9405, 4265, 187, 5869, 186, 4268, 10362, 7600, 4267, 1431, 7445
9406, 303, 134, 1799, 186, 10209, 10532, 1805, 10122, 9990, 10121
9407, 303, 1799, 134, 6468, 1805, 10532, 10209, 9874, 9873, 6557
9408, 1208, 1799, 134, 186, 9857, 10532, 1209, 9944, 10121, 9990
9409, 1208, 134, 1799, 6468, 1209, 10532, 9857, 7395, 6557, 9873
9410, 6846, 2109, 2108, 238, 7276, 2115, 7325, 7402, 7466, 9208
9411, 6846, 2108, 2109, 6082, 7325, 2115, 7276, 7798, 6087, 6088
9412, 1875, 6365, 470, 6356, 6383, 7494, 10533, 6384, 6413, 7493
9413, 470, 6365, 1875, 471, 7494, 6383, 10533, 474, 8216, 10534
9414, 6885, 6452, 6832, 6454, 6932, 10535, 9582, 6933, 6768, 8794
9415, 6885, 6832, 6452, 6862, 9582, 10535, 6932, 8049, 9593, 7030
9416, 6453, 6832, 6452, 6454, 8795, 10535, 6760, 6767, 8794, 6768
9417, 6453, 6452, 6832, 6862, 6760, 10535, 8795, 8279, 7030, 9593
9418, 85, 3110, 2276, 751, 7658, 7017, 10536, 753, 8697, 8696
9419, 2276, 3110, 85, 2264, 7017, 7658, 10536, 2355, 7019, 7657
9420, 2276, 53, 85, 751, 2352, 829, 10536, 8696, 2679, 753
9421, 85, 53, 2276, 2264, 829, 2352, 10536, 7657, 2353, 2355
9422, 6811, 210, 6875, 213, 10014, 10537, 9789, 10015, 1489, 8148
9423, 6811, 6875, 210, 6831, 9789, 10537, 10014, 10049, 10119, 7930
9424, 123, 6875, 210, 213, 8189, 10537, 4342, 1490, 8148, 1489
9425, 337, 289, 356, 5800, 5514, 10538, 2097, 5803, 10215, 5804
9426, 1419, 289, 356, 5586, 8371, 10538, 10220, 9707, 9708, 5634
9427, 1419, 356, 289, 5800, 10220, 10538, 8371, 8155, 5804, 10215
9428, 1193, 5790, 1345, 150, 9445, 10539, 6966, 4053, 8229, 1346
9429, 1757, 1345, 5790, 150, 9949, 10539, 8231, 8233, 1346, 8229
9430, 6881, 1670, 6849, 6824, 9245, 9140, 10523, 10253, 9138, 7891
9431, 2261, 3069, 3070, 648, 7378, 3091, 8392, 8608, 8606, 10482
9432, 2261, 3070, 3069, 851, 8392, 3091, 7378, 7377, 8391, 7376
9433, 5586, 289, 5610, 5611, 9708, 7242, 5767, 5688, 8372, 5768
9434, 5586, 5610, 289, 5784, 5767, 7242, 9708, 7487, 7243, 7244
9435, 6849, 189, 451, 452, 7873, 8885, 8916, 7302, 7871, 455
9436, 6849, 451, 189, 212, 8916, 8885, 7873, 10540, 10081, 1487
9437, 6887, 398, 4685, 389, 9489, 10541, 7188, 8109, 2163, 8107
9438, 6887, 4685, 398, 6849, 7188, 10541, 9489, 7439, 7890, 9216
9439, 1453, 4685, 398, 389, 7889, 10541, 8925, 8923, 8107, 2163
9440, 1453, 398, 4685, 6849, 8925, 10541, 7889, 7801, 9216, 7890
9441, 3661, 1615, 118, 1618, 8549, 4603, 3783, 7950, 4604, 1619
9442, 118, 1615, 3661, 3646, 4603, 8549, 3783, 3779, 8548, 3782
9443, 347, 453, 443, 444, 10003, 2205, 10542, 10543, 2201, 447
9444, 5617, 5795, 5596, 5592, 6923, 7052, 5772, 5685, 6921, 5715
9445, 5617, 5596, 5795, 6844, 5772, 7052, 6923, 8425, 7894, 8132
9446, 71, 797, 626, 627, 10442, 2633, 2547, 2546, 2634, 638
9447, 1754, 6883, 6844, 1753, 7947, 10544, 8406, 1760, 7946, 9866
9448, 1754, 6844, 6883, 2109, 8406, 10544, 7947, 8405, 8053, 7275
9449, 2110, 6844, 6883, 1753, 9037, 10544, 8694, 8881, 9866, 7946
9450, 2110, 6883, 6844, 2109, 8694, 10544, 9037, 2116, 7275, 8053
9451, 6890, 5358, 1949, 1950, 7143, 5405, 8912, 7141, 5404, 1956
9452, 6890, 1949, 5358, 1455, 8912, 5405, 7143, 9118, 8523, 8522
9453, 417, 416, 6849, 1834, 420, 8439, 10545, 8984, 8436, 6984
9454, 6849, 416, 417, 426, 8439, 420, 10545, 10519, 2183, 2181
9455, 417, 6849, 347, 1834, 10545, 7004, 10546, 8984, 6984, 7003
9456, 347, 6849, 417, 426, 7004, 10545, 10546, 10520, 10519, 2181
9457, 417, 347, 346, 1834, 10546, 2013, 9867, 8984, 7003, 8514
9458, 191, 1455, 5358, 4293, 1459, 8522, 7700, 4310, 4312, 7161
9459, 191, 5358, 1455, 6890, 7700, 8522, 1459, 7748, 7143, 9118
9460, 6882, 158, 1420, 1310, 10547, 8243, 9959, 10272, 1312, 9971
9461, 799, 3192, 3200, 3207, 10486, 3237, 10457, 10461, 3261, 3260
9462, 799, 3200, 3192, 897, 10457, 3237, 10486, 2772, 10456, 10045
9463, 6356, 498, 331, 329, 9041, 9749, 8221, 8222, 9750, 1867
9464, 517, 219, 1615, 1618, 8787, 1617, 10511, 8702, 4605, 4604
9465, 6890, 6046, 5367, 6852, 8653, 10548, 7142, 7472, 8671, 7470
9466, 6890, 5367, 6046, 2108, 7142, 10548, 8653, 7666, 7323, 6068
9467, 2107, 5367, 6046, 6852, 7682, 10548, 6064, 7756, 7470, 8671
9468, 2107, 6046, 5367, 2108, 6064, 10548, 7682, 2114, 6068, 7323
9469, 6904, 1752, 6859, 2111, 9363, 7563, 7101, 7996, 7917, 7921
9470, 6904, 6859, 1752, 4890, 7101, 7563, 9363, 8246, 7564, 4928
9471, 1216, 1415, 5428, 1578, 9852, 10549, 10550, 9690, 9485, 9673
9472, 2264, 86, 111, 748, 10513, 9431, 7102, 8518, 750, 8517
9473, 6900, 3716, 6364, 3661, 9266, 8918, 7951, 7953, 3771, 7949
9474, 6900, 6364, 3716, 2290, 7951, 8918, 9266, 8442, 8441, 8921
9475, 6883, 280, 1582, 4544, 8661, 9764, 7591, 7403, 9689, 4566
9476, 6883, 1582, 280, 283, 7591, 9764, 8661, 7592, 7590, 1744
9477, 480, 332, 1875, 6356, 9391, 5084, 10551, 8797, 9393, 6384
9478, 1875, 332, 480, 333, 5084, 9391, 10551, 5085, 1869, 10065
9479, 6885, 2022, 6424, 2018, 7852, 9461, 8019, 8490, 5565, 9760
9480, 6885, 6424, 2022, 6439, 8019, 9461, 7852, 7854, 6591, 7836
9481, 6858, 397, 7, 388, 10552, 2157, 8562, 8564, 2158, 391
9482, 6824, 4685, 193, 235, 7887, 10553, 10086, 9080, 4699, 9880
9483, 6824, 193, 4685, 1453, 10086, 10553, 7887, 7888, 4316, 7889
9484, 1462, 193, 4685, 235, 1465, 10553, 8690, 4535, 9880, 4699
9485, 1462, 4685, 193, 1453, 8690, 10553, 1465, 4317, 7889, 4316
9486, 94, 69, 622, 70, 10227, 2538, 2622, 2621, 621, 633
9487, 183, 4202, 6113, 6118, 4207, 7762, 6204, 6208, 7659, 6209
9488, 6849, 451, 243, 442, 8916, 10554, 8339, 8915, 2202, 9277
9489, 6849, 243, 451, 212, 8339, 10554, 8916, 10540, 1606, 10081
9490, 6808, 451, 243, 212, 10082, 10554, 10062, 10063, 10081, 1606
9491, 68, 790, 797, 628, 791, 10555, 10463, 2536, 8753, 2635
9492, 798, 797, 790, 628, 807, 10555, 9728, 2637, 2635, 8753
9493, 3682, 6858, 1170, 3680, 9338, 9922, 3832, 3726, 9012, 3835
9494, 1170, 6858, 3682, 6135, 9922, 9338, 3832, 6262, 9339, 9336
9495, 5885, 5881, 6836, 5878, 5934, 8317, 9036, 5946, 5952, 9112
9496, 5885, 6836, 5881, 5868, 9036, 8317, 5934, 5930, 9394, 5933
9497, 83, 754, 631, 696, 755, 10556, 2574, 697, 2607, 2575
9498, 83, 631, 754, 800, 2574, 10556, 755, 10410, 2641, 10411
9499, 84, 631, 754, 696, 2576, 10556, 756, 698, 2575, 2607
9500, 84, 754, 631, 800, 756, 10556, 2576, 10402, 10411, 2641
9501, 461, 462, 339, 308, 465, 10557, 10503, 10504, 10020, 2000
9502, 461, 339, 462, 453, 10503, 10557, 465, 2212, 10002, 2209
9503, 6813, 339, 462, 308, 9829, 10557, 9988, 9710, 2000, 10020
9504, 6813, 462, 339, 453, 9988, 10557, 9829, 10004, 2209, 10002
9505, 6849, 452, 347, 339, 7302, 10558, 7004, 10488, 10502, 2014
9506, 6849, 347, 452, 443, 7004, 10558, 7302, 8914, 10542, 2203
9507, 453, 347, 452, 339, 10003, 10558, 456, 10002, 2014, 10502
9508, 453, 452, 347, 443, 456, 10558, 10003, 2205, 2203, 10542
9509, 2861, 3198, 2840, 2836, 6990, 8471, 3016, 2929, 6988, 2945
9510, 2861, 2840, 3198, 6866, 3016, 8471, 6990, 7899, 9385, 7900
9511, 5075, 334, 6365, 327, 5081, 10559, 9171, 5080, 1871, 10525
9512, 5075, 6365, 334, 1875, 9171, 10559, 5081, 5078, 6383, 10437
9513, 471, 6365, 334, 327, 8216, 10559, 10058, 10057, 10525, 1871
9514, 471, 334, 6365, 1875, 10058, 10559, 8216, 10534, 10437, 6383
9515, 5961, 1414, 5963, 5973, 10291, 10449, 6005, 6035, 9465, 6026
9516, 5961, 5963, 1414, 1434, 6005, 10449, 10291, 9793, 10448, 4276
9517, 3418, 3416, 6830, 3403, 3474, 7631, 8256, 3473, 3470, 8596
9518, 6830, 3416, 3418, 3412, 7631, 3474, 8256, 8974, 3486, 3480
9519, 6844, 5614, 6897, 6826, 8832, 9078, 7597, 8407, 9449, 8993
9520, 6844, 6897, 5614, 5588, 7597, 9078, 8832, 7595, 7596, 5774
9521, 470, 6356, 6355, 479, 7493, 6415, 8063, 2224, 8798, 9058
9522, 470, 6355, 6356, 6361, 8063, 6415, 7493, 7492, 6417, 6416
9523, 1043, 647, 794, 1042, 8773, 8583, 10467, 1049, 7733, 8582
9524, 6868, 4894, 288, 6112, 8114, 4919, 10560, 7702, 9475, 6237
9525, 288, 4894, 6868, 289, 4919, 8114, 10560, 1751, 4920, 7752
9526, 288, 4891, 6868, 6112, 4918, 7703, 10560, 6237, 7701, 7702
9527, 6868, 4891, 288, 289, 7703, 4918, 10560, 7752, 4917, 1751
9528, 3418, 3419, 115, 3406, 3484, 8877, 9013, 3481, 3482, 8878
9529, 115, 3419, 3418, 3410, 8877, 3484, 9013, 9343, 3466, 3472
9530, 6881, 1670, 232, 231, 9245, 4646, 10431, 9246, 1671, 1553
9531, 6881, 232, 1670, 6824, 10431, 4646, 9245, 10253, 9638, 9138
9532, 6849, 6873, 1674, 1670, 10522, 10561, 8047, 9140, 9255, 4647
9533, 6849, 1674, 6873, 6823, 8047, 10561, 10522, 7228, 8046, 10245
9534, 259, 1674, 6873, 1670, 4648, 10561, 9254, 1672, 4647, 9255
9535, 79, 769, 629, 799, 771, 10562, 2564, 10396, 10387, 2638
9536, 79, 629, 769, 681, 2564, 10562, 771, 683, 2563, 2612
9537, 78, 629, 769, 799, 2562, 10562, 770, 10361, 2638, 10387
9538, 78, 769, 629, 681, 770, 10562, 2562, 682, 2612, 2563
9539, 6830, 2854, 3361, 1117, 7305, 10563, 8258, 7306, 7304, 3375
9540, 6830, 3361, 2854, 2845, 8258, 10563, 7305, 8217, 9653, 2989
9541, 993, 3361, 2854, 1117, 3373, 10563, 2986, 3400, 3375, 7304
9542, 993, 2854, 3361, 2845, 2986, 10563, 3373, 2988, 2989, 9653
9543, 6849, 398, 1834, 407, 9216, 10564, 6984, 8438, 2170, 8437
9544, 6849, 1834, 398, 6887, 6984, 10564, 9216, 7439, 7437, 9489
9545, 408, 1834, 398, 407, 8983, 10564, 2169, 411, 8437, 2170
9546, 3204, 799, 3197, 3206, 10244, 9163, 10565, 3263, 10485, 3274
9547, 3197, 799, 3204, 2836, 9163, 10244, 10565, 6987, 9164, 9269
9548, 3197, 3198, 3204, 3206, 3256, 3230, 10565, 3274, 3273, 3263
9549, 3204, 3198, 3197, 2836, 3230, 3256, 10565, 9269, 6988, 6987
9550, 516, 330, 329, 6356, 8459, 1866, 10566, 8460, 6385, 8222
9551, 329, 330, 516, 515, 1866, 8459, 10566, 8786, 8785, 519
9552, 329, 498, 516, 6356, 9750, 9043, 10566, 8222, 9041, 8460
9553, 516, 498, 329, 515, 9043, 9750, 10566, 519, 9963, 8786
9554, 2286, 648, 3070, 6358, 8622, 10482, 8172, 8594, 6402, 9081
9555, 2286, 3070, 648, 2261, 8172, 10482, 8622, 2446, 8392, 8608
9556, 6355, 496, 218, 487, 9396, 9998, 9438, 9341, 2235, 9997
9557, 6494, 2273, 646, 2127, 8981, 9268, 9584, 6618, 9312, 6394
9558, 6494, 646, 2273, 2282, 9584, 9268, 8981, 8980, 8098, 2423
9559, 3, 6458, 373, 6456, 6503, 10567, 377, 6499, 6504, 9249
9560, 3, 373, 6458, 6786, 377, 10567, 6503, 6788, 6787, 9702
9561, 6133, 373, 6458, 6456, 9250, 10567, 9201, 7005, 9249, 6504
9562, 1116, 3205, 3362, 992, 8445, 7473, 3398, 3397, 8998, 3396
9563, 1116, 3362, 3205, 3208, 3398, 7473, 8445, 8446, 7044, 3270
9564, 517, 6355, 219, 215, 8880, 9437, 8787, 8788, 6374, 1501
9565, 6891, 3699, 3679, 3701, 9804, 4001, 8874, 8306, 4002, 4000
9566, 6891, 3679, 3699, 6874, 8874, 4001, 9804, 8749, 7790, 7791
9567, 406, 1453, 398, 397, 9442, 8925, 2168, 2165, 8922, 401
9568, 406, 398, 1453, 6849, 2168, 8925, 9442, 9217, 9216, 7801
9569, 6849, 6869, 1670, 1666, 7190, 10568, 9140, 9196, 9645, 4644
9570, 6849, 1670, 6869, 6873, 9140, 10568, 7190, 10522, 9255, 10071
9571, 258, 1670, 6869, 1666, 4645, 10568, 9644, 1668, 4644, 9645
9572, 258, 6869, 1670, 6873, 9644, 10568, 4645, 9253, 10071, 9255
9573, 2286, 215, 516, 517, 8595, 8738, 2406, 2407, 8788, 520
9574, 2286, 516, 215, 6358, 2406, 8738, 8595, 8594, 8739, 6378
9575, 6849, 190, 6879, 4291, 7802, 9889, 8791, 7800, 4307, 8792
9576, 6849, 6879, 190, 6822, 8791, 9889, 7802, 9232, 9530, 10218
9577, 3281, 105, 109, 114, 3297, 10569, 9635, 3296, 1110, 3577
9578, 2848, 105, 109, 3367, 2875, 10569, 10530, 9528, 10481, 9940
9579, 2830, 111, 2854, 2855, 9883, 10570, 3011, 2932, 7547, 3012
9580, 2830, 2854, 111, 3193, 3011, 10570, 9883, 7935, 7381, 9980
9581, 1056, 111, 2854, 3193, 1062, 10570, 7173, 7128, 9980, 7381
9582, 6849, 1623, 6878, 1627, 9231, 9598, 8239, 7155, 4611, 8237
9583, 6849, 6878, 1623, 6822, 8239, 9598, 9231, 9232, 10427, 9229
9584, 6877, 6849, 1670, 1666, 8789, 9140, 10571, 9197, 9196, 4644
9585, 1670, 6849, 6877, 6881, 9140, 8789, 10571, 9245, 10523, 10077
9586, 1670, 230, 6877, 1666, 4643, 9650, 10571, 4644, 1667, 9197
9587, 6877, 230, 1670, 6881, 9650, 4643, 10571, 10077, 9244, 9245
9588, 6838, 297, 6859, 295, 9154, 7920, 8012, 9333, 1791, 7562
9589, 6838, 6859, 297, 6815, 8012, 7920, 9154, 8069, 8068, 9152
9590, 6808, 6817, 6831, 245, 8691, 10572, 10050, 8764, 8765, 10573
9591, 6808, 6831, 6817, 6842, 10050, 10572, 8691, 8692, 8883, 8433
9592, 126, 6817, 6831, 6842, 10574, 10572, 9096, 9405, 8433, 8883
9593, 793, 645, 94, 1070, 9287, 10575, 802, 8494, 8895, 10228
9594, 793, 94, 645, 622, 802, 10575, 9287, 2624, 2622, 2541
9595, 69, 94, 645, 1070, 10227, 10575, 650, 10111, 10228, 8895
9596, 69, 645, 94, 622, 650, 10575, 10227, 2538, 2541, 2622
9597, 90, 3150, 58, 736, 10576, 8843, 819, 738, 8701, 2659
9598, 5973, 5972, 1414, 5956, 6020, 10290, 9465, 6017, 6018, 9464
9599, 5973, 1414, 5972, 5961, 9465, 10290, 6020, 6035, 10291, 6037
9600, 614, 3031, 38, 67, 8274, 9083, 2529, 615, 9211, 613
9601, 614, 38, 3031, 838, 2529, 9083, 8274, 8272, 9668, 8273
9602, 3151, 727, 60, 98, 9019, 2648, 9576, 9020, 9018, 9662
9603, 3151, 60, 727, 92, 9576, 2648, 9019, 9654, 814, 728
9604, 6876, 3666, 6858, 3705, 9126, 9218, 9933, 9127, 3936, 9257
9605, 6876, 6858, 3666, 6825, 9933, 9218, 9126, 9805, 8267, 8674
9606, 6858, 4, 3682, 6785, 9175, 3724, 9338, 9173, 6790, 9337
9607, 6858, 3682, 4, 3680, 9338, 3724, 9175, 9012, 3726, 3722
9608, 216, 1491, 487, 478, 4352, 10577, 10026, 10027, 8530, 2228
9609, 216, 487, 1491, 217, 10026, 10577, 4352, 1498, 10006, 4353
9610, 6355, 487, 1491, 478, 9341, 10577, 6375, 8529, 2228, 8530
9611, 6861, 328, 6813, 6832, 9241, 9989, 9711, 10124, 8667, 10085
9612, 6861, 6813, 328, 307, 9711, 9989, 9241, 8497, 9709, 1862
9613, 35, 31, 6814, 33, 3764, 10354, 10578, 514, 513, 10477
9614, 6814, 31, 35, 6900, 10354, 3764, 10578, 9743, 10356, 9265
9615, 6814, 505, 35, 33, 10205, 2248, 10578, 10477, 508, 514
9616, 517, 35, 6814, 505, 521, 10578, 10098, 2251, 2248, 10205
9617, 6814, 35, 517, 6900, 10578, 521, 10098, 9743, 9265, 8703
9618, 1029, 6889, 2271, 796, 9585, 7333, 8101, 7310, 8335, 8334
9619, 2271, 6889, 1029, 3032, 7333, 9585, 8101, 8122, 8125, 3058
9620, 283, 6833, 6883, 285, 9373, 8283, 7592, 1747, 8282, 7948
9621, 6883, 6833, 283, 6816, 8283, 9373, 7592, 7769, 7707, 9290
9622, 5442, 5445, 1416, 5431, 5507, 10195, 10185, 5504, 5505, 10261
9623, 5442, 1416, 5445, 5434, 10185, 10195, 5507, 5498, 10184, 5491
9624, 5885, 5882, 362, 5874, 5947, 9214, 8849, 5931, 5938, 9502
9625, 362, 5882, 5885, 5871, 9214, 5947, 8849, 8847, 5944, 5945
9626, 1355, 1418, 5790, 5785, 10579, 10450, 10580, 10581, 10201, 5825
9627, 5790, 1418, 1355, 1193, 10450, 10579, 10580, 9445, 4260, 10130
9628, 1355, 5790, 1756, 5785, 10580, 8413, 10143, 10581, 5825, 9563
9629, 1418, 1360, 148, 1193, 10187, 1362, 10582, 4260, 6967, 4049
9630, 1418, 148, 1355, 1193, 10582, 1356, 10579, 4260, 4049, 10130
9631, 341, 328, 6832, 342, 5543, 8667, 10583, 2004, 2005, 8609
9632, 6832, 328, 341, 6861, 8667, 5543, 10583, 10124, 9241, 8163
9633, 6832, 6469, 341, 342, 8780, 6567, 10583, 8609, 6566, 2004
9634, 341, 6469, 6832, 6861, 6567, 8780, 10583, 8163, 9406, 10124
9635, 6829, 5610, 6041, 2111, 8432, 10584, 8724, 8430, 8158, 6055
9636, 6829, 6041, 5610, 5601, 8724, 10584, 8432, 8489, 9659, 5745
9637, 2063, 6041, 5610, 2111, 6053, 10584, 5742, 6080, 6055, 8158
9638, 2063, 5610, 6041, 5601, 5742, 10584, 6053, 5744, 5745, 9659
9639, 6815, 301, 4964, 299, 9273, 4983, 8228, 8521, 1797, 7879
9640, 6815, 4964, 301, 4961, 8228, 4983, 9273, 8060, 4986, 4977
9641, 6855, 778, 2257, 2287, 9895, 10585, 7234, 7233, 9344, 2332
9642, 6855, 2257, 778, 75, 7234, 10585, 9895, 10169, 10586, 779
9643, 43, 2257, 778, 2287, 2328, 10585, 2658, 2330, 2332, 9344
9644, 43, 778, 2257, 75, 2658, 10585, 2328, 818, 779, 10586
9645, 76, 775, 798, 629, 776, 10587, 9733, 2558, 10208, 2636
9646, 799, 798, 775, 629, 808, 10587, 9975, 2638, 2636, 10208
9647, 6826, 280, 6104, 1582, 9765, 6218, 8207, 8248, 9764, 9317
9648, 6826, 6104, 280, 6090, 8207, 6218, 9765, 8208, 6226, 6225
9649, 5798, 5795, 6844, 5783, 5847, 8132, 7893, 5846, 5843, 9463
9650, 6844, 5795, 5798, 5792, 8132, 5847, 7893, 7892, 5857, 5861
9651, 6887, 364, 4685, 1454, 9806, 10588, 7188, 7625, 9319, 7624
9652, 6887, 4685, 364, 380, 7188, 10588, 9806, 8108, 8106, 2149
9653, 379, 4685, 364, 1454, 10506, 10588, 2147, 9321, 7624, 9319
9654, 379, 364, 4685, 380, 2147, 10588, 10506, 383, 2149, 8106
9655, 745, 55, 2258, 87, 2671, 2359, 10589, 747, 825, 8933
9656, 2258, 55, 745, 2284, 2359, 2671, 10589, 2361, 2357, 9408
9657, 2258, 6857, 745, 87, 7436, 10590, 10589, 8933, 8934, 747
9658, 745, 6857, 2258, 2284, 10590, 7436, 10589, 9408, 7150, 2361
9659, 1056, 1116, 3199, 3362, 9561, 8506, 7122, 6937, 3398, 7043
9660, 3199, 1116, 1056, 1057, 8506, 9561, 7122, 8072, 7877, 1063
9661, 1047, 1113, 3496, 1046, 9562, 8867, 7167, 1053, 7620, 8589
9662, 3496, 1113, 1047, 3364, 8867, 9562, 7167, 6949, 3383, 7408
9663, 2297, 878, 3154, 879, 9574, 8668, 8035, 9168, 885, 9169
9664, 2297, 3154, 878, 2278, 8035, 8668, 9574, 2463, 8120, 8891
9665, 6870, 1623, 6849, 1627, 9594, 9231, 10524, 9111, 4611, 7155
9666, 739, 6857, 2258, 88, 10097, 7436, 10591, 740, 8900, 8897
9667, 2258, 6857, 739, 2283, 7436, 10097, 10591, 2364, 7140, 9353
9668, 2258, 56, 739, 88, 2360, 2664, 10591, 8897, 823, 740
9669, 739, 56, 2258, 2283, 2664, 2360, 10591, 9353, 2362, 2364
9670, 54, 745, 2264, 86, 2672, 10592, 2354, 827, 746, 10513
9671, 54, 2264, 745, 2284, 2354, 10592, 2672, 2356, 2358, 9408
9672, 6857, 745, 2264, 2284, 10590, 10592, 7151, 7150, 9408, 2358
9673, 6849, 6879, 1646, 1650, 8791, 10593, 8412, 9148, 9149, 4629
9674, 226, 1646, 6879, 1650, 4628, 10593, 9613, 1651, 4629, 9149
9675, 5444, 5599, 2109, 5605, 8976, 8642, 8890, 8889, 5705, 8888
9676, 5444, 2109, 5599, 6897, 8890, 8642, 8976, 9524, 8054, 7982
9677, 284, 5319, 4885, 286, 5325, 9676, 10594, 1749, 5326, 4909
9678, 4885, 5319, 284, 6833, 9676, 5325, 10594, 7635, 9472, 9402
9679, 4885, 4887, 284, 286, 4910, 9401, 10594, 4909, 4906, 1749
9680, 284, 4887, 4885, 6833, 9401, 4910, 10594, 9402, 7797, 7635
9681, 1951, 6045, 2106, 1952, 8056, 6059, 8017, 1958, 7925, 7502
9682, 2106, 6045, 1951, 2107, 6059, 8056, 8017, 2113, 6063, 7683
9683, 212, 4588, 6849, 243, 4592, 8338, 10540, 1606, 4594, 8339
9684, 239, 1574, 6883, 4540, 4569, 7410, 9342, 4567, 4570, 8390
9685, 239, 6883, 1574, 4544, 9342, 7410, 4569, 4571, 7403, 4564
9686, 649, 2298, 648, 796, 9144, 8930, 654, 9358, 8333, 9355
9687, 649, 648, 2298, 3715, 654, 8930, 9144, 9143, 9300, 9141
9688, 244, 243, 415, 1453, 1607, 10595, 9807, 8515, 8336, 9441
9689, 6849, 415, 243, 1453, 9443, 10595, 8339, 7801, 9441, 8336
9690, 6849, 243, 415, 424, 8339, 10595, 9443, 9468, 9467, 2179
9691, 1189, 1216, 1416, 1190, 4025, 10596, 4256, 1201, 4009, 4255
9692, 133, 1216, 1416, 5428, 1218, 10596, 10435, 10597, 10550, 10194
9693, 133, 1416, 1216, 1190, 10435, 10596, 1218, 4008, 4255, 4009
9694, 1840, 5363, 6887, 1705, 9357, 8376, 9727, 5263, 9185, 9186
9695, 6887, 5363, 1840, 1833, 8376, 9357, 9727, 8728, 8665, 5064
9696, 6043, 1753, 2111, 1752, 8301, 9570, 6081, 7025, 1759, 7917
9697, 6043, 2111, 1753, 2110, 6081, 9570, 8301, 6079, 2117, 8881
9698, 6855, 781, 2257, 75, 10053, 10598, 7234, 10169, 783, 10586
9699, 6855, 2257, 781, 6864, 7234, 10598, 10053, 8614, 8364, 9701
9700, 43, 2257, 781, 75, 2328, 10598, 2653, 818, 10586, 783
9701, 43, 781, 2257, 6864, 2653, 10598, 2328, 9205, 9701, 8364
9702, 2270, 645, 2282, 793, 7988, 10599, 2422, 8134, 9287, 8136
9703, 2270, 2282, 645, 6494, 2422, 10599, 7988, 9781, 8980, 9583
9704, 646, 2282, 645, 793, 8098, 10599, 651, 8825, 8136, 9287
9705, 646, 645, 2282, 6494, 651, 10599, 8098, 9584, 9583, 8980
9706, 260, 1674, 6873, 259, 1676, 10561, 10430, 1677, 4648, 9254
9707, 260, 6873, 1674, 6823, 10430, 10561, 1676, 9786, 10245, 8046
9708, 867, 1060, 3109, 3113, 10600, 3149, 8680, 9712, 3146, 3138
9709, 867, 3109, 1060, 763, 8680, 3149, 10600, 8678, 8679, 10038
9710, 48, 80, 867, 3113, 828, 10601, 9466, 9428, 9482, 9712
9711, 48, 867, 80, 763, 9466, 10601, 828, 2678, 8678, 764
9712, 80, 1060, 867, 3113, 10167, 10600, 10601, 9482, 3146, 9712
9713, 80, 867, 1060, 763, 10601, 10600, 10167, 764, 8678, 10038
9714, 6849, 6870, 1630, 1623, 10524, 10602, 8297, 9231, 9594, 4614
9715, 6849, 1630, 6870, 6821, 8297, 10602, 10524, 6985, 8295, 10243
9716, 247, 1630, 6870, 1623, 4615, 10602, 9587, 1625, 4614, 9594
9717, 6878, 1623, 221, 220, 9598, 4613, 10433, 9589, 1624, 1509
9718, 6878, 221, 1623, 6822, 10433, 4613, 9598, 10427, 9815, 9229
9719, 40, 787, 3030, 72, 2646, 10603, 9022, 812, 788, 9693
9720, 40, 3030, 787, 6864, 9022, 10603, 2646, 9024, 9025, 9549
9721, 6808, 244, 6831, 243, 9500, 10604, 10050, 10062, 1607, 9618
9722, 6808, 6831, 244, 245, 10050, 10604, 9500, 8764, 10573, 1608
9723, 6826, 285, 2109, 1754, 9748, 10605, 8249, 8404, 7945, 8405
9724, 6826, 2109, 285, 283, 8249, 10605, 9748, 8247, 7589, 1747
9725, 6883, 2109, 285, 1754, 7275, 10605, 7948, 7947, 8405, 7945
9726, 6883, 285, 2109, 283, 7948, 10605, 7275, 7592, 1747, 7589
9727, 769, 1059, 6898, 78, 10109, 7710, 10606, 770, 9942, 9685
9728, 6898, 1059, 769, 3113, 7710, 10109, 10606, 8400, 3147, 9646
9729, 6898, 46, 769, 78, 8829, 2670, 10606, 9685, 824, 770
9730, 769, 46, 6898, 3113, 2670, 8829, 10606, 9646, 8828, 8400
9731, 6817, 3693, 3650, 127, 7551, 3808, 10607, 10292, 3807, 3803
9732, 3650, 3693, 6817, 6842, 3808, 7551, 10607, 6906, 7231, 8433
9733, 3650, 126, 6817, 127, 3804, 10574, 10607, 3803, 1166, 10292
9734, 6817, 126, 3650, 6842, 10574, 3804, 10607, 8433, 9405, 6906
9735, 4966, 2119, 1799, 6468, 8831, 9433, 4993, 9002, 6560, 9873
9736, 4966, 1799, 2119, 1812, 4993, 9433, 8831, 4991, 5006, 6152
9737, 225, 1646, 6879, 226, 1647, 10593, 9529, 1529, 4628, 9613
9738, 32, 36, 498, 34, 6542, 10608, 502, 512, 522, 2243
9739, 32, 498, 36, 6843, 502, 10608, 6542, 7341, 7339, 9891
9740, 515, 498, 36, 34, 9963, 10608, 518, 2249, 2243, 522
9741, 4293, 4541, 4539, 4678, 7283, 4555, 10609, 7841, 7355, 7644
9742, 4539, 4541, 4293, 192, 4555, 7283, 10609, 4554, 4545, 4311
9743, 1650, 253, 6871, 254, 4630, 9605, 9611, 1652, 1653, 9610
9744, 1417, 140, 4196, 1395, 8242, 4198, 9518, 9520, 1396, 4199
9745, 515, 36, 6439, 2273, 518, 6549, 10610, 2309, 2308, 7838
9746, 6439, 2022, 515, 2273, 7836, 8725, 10610, 7838, 7837, 2309
9747, 8, 390, 6456, 6, 394, 10611, 6505, 395, 2152, 6501
9748, 390, 6456, 381, 6133, 10611, 10612, 2153, 10613, 7005, 10297
9749, 390, 381, 6456, 6, 2153, 10612, 10611, 2152, 385, 6501
9750, 381, 6456, 365, 6133, 10612, 9252, 2146, 10297, 7005, 9251
9751, 381, 365, 6456, 6, 2146, 9252, 10612, 385, 2145, 6501
9752, 1413, 5963, 5957, 1433, 10453, 6002, 9946, 4275, 7159, 9941
9753, 1413, 5957, 5963, 5958, 9946, 6002, 10453, 10158, 6021, 6022
9754, 745, 631, 111, 86, 8755, 9430, 10614, 746, 2580, 9431
9755, 6892, 6812, 6895, 6808, 10105, 8854, 8962, 8960, 9188, 8693
9756, 6892, 6895, 6812, 6845, 8962, 8854, 10105, 9400, 8821, 8853
9757, 1615, 218, 6900, 6811, 4607, 10615, 8550, 9790, 9999, 9741
9758, 496, 6900, 218, 6811, 9742, 10615, 9998, 9740, 9741, 9999
9759, 335, 1947, 136, 5365, 1953, 8763, 9536, 5376, 5378, 8761
9760, 44, 76, 2287, 778, 820, 10616, 2331, 2657, 780, 9344
9761, 6855, 2287, 76, 778, 7233, 10616, 9896, 9895, 9344, 780
9762, 3150, 90, 801, 736, 10576, 9731, 9535, 8701, 738, 10078
9763, 1030, 649, 796, 1029, 9492, 9358, 10466, 1036, 8102, 7310
9764, 249, 1630, 6870, 247, 1632, 10602, 10432, 1633, 4615, 9587
9765, 249, 6870, 1630, 6821, 10432, 10602, 1632, 9905, 10243, 8295
9766, 630, 3196, 757, 82, 10206, 10617, 8758, 2571, 10134, 758
9767, 1061, 757, 3196, 82, 9809, 10617, 9629, 10133, 758, 10134
9768, 6467, 6435, 6827, 6492, 6708, 7282, 10618, 6624, 6707, 7343
9769, 6827, 6853, 6467, 6492, 9831, 9040, 10618, 7343, 9038, 6624
9770, 6467, 6853, 6827, 6828, 9040, 9831, 10618, 10035, 10394, 10369
9771, 6467, 6497, 6827, 6435, 6709, 10619, 10618, 6708, 6704, 7282
9772, 6827, 6497, 6467, 6828, 10619, 6709, 10618, 10369, 9932, 10035
9773, 6437, 6434, 6827, 6435, 6700, 7093, 10620, 6699, 6692, 7282
9774, 6497, 6437, 6827, 6435, 6705, 10620, 10619, 6704, 6699, 7282
9775, 6827, 6437, 6497, 6828, 10620, 6705, 10619, 10369, 9897, 9932
9776, 225, 1642, 6849, 1646, 4625, 8411, 10621, 1647, 4626, 8412
9777, 6849, 1642, 225, 6822, 8411, 4625, 10621, 9232, 9434, 9531
9778, 6849, 6879, 225, 1646, 8791, 9529, 10621, 8412, 10593, 1647
9779, 225, 6879, 6849, 6822, 9529, 8791, 10621, 9531, 9530, 9232
9780, 417, 6854, 6828, 408, 9769, 7413, 9993, 2174, 10022, 10480
9781, 6828, 6854, 417, 6807, 7413, 9769, 9993, 9624, 9299, 9768
9782, 5966, 1434, 1414, 5593, 9791, 4276, 10622, 7613, 5661, 9123
9783, 1414, 1434, 5966, 5972, 4276, 9791, 10622, 10290, 9792, 6036
9784, 1414, 5965, 5966, 5593, 9122, 9481, 10622, 9123, 6924, 7613
9785, 5966, 5965, 1414, 5972, 9481, 9122, 10622, 6036, 6019, 10290
9786, 5793, 2048, 5592, 1438, 5837, 5683, 10623, 10170, 5682, 5684
9787, 5592, 2048, 5793, 5786, 5683, 5837, 10623, 7601, 5833, 5838
9788, 4539, 192, 4678, 1571, 4554, 10624, 7644, 4553, 1573, 10349
9789, 4539, 4678, 192, 4293, 7644, 10624, 4554, 10609, 7841, 4311
9790, 1566, 4678, 192, 1571, 4704, 10624, 4531, 4533, 10349, 1573
9791, 1566, 192, 4678, 4293, 4531, 10624, 4704, 8319, 4311, 7841
9792, 305, 4962, 4683, 1816, 4996, 8822, 10625, 1817, 4973, 10374
9793, 4683, 4962, 305, 5023, 8822, 4996, 10625, 8824, 7807, 5024
9794, 4683, 1704, 305, 1816, 4758, 5267, 10625, 10374, 5266, 1817
9795, 305, 1704, 4683, 5023, 5267, 4758, 10625, 5024, 8320, 8824
9796, 1491, 218, 487, 6355, 4354, 9997, 10577, 6375, 9438, 9341
9797, 1491, 487, 218, 217, 10577, 9997, 4354, 4353, 10006, 1499
9798, 6812, 19, 6845, 17, 10471, 10147, 8853, 10040, 450, 10041
9799, 6134, 408, 1834, 399, 10626, 8983, 6259, 10627, 2167, 9421
9800, 6134, 1834, 408, 6854, 6259, 8983, 10626, 9578, 9298, 10022
9801, 3678, 6875, 3677, 3708, 9303, 9453, 3990, 3994, 9302, 3995
9802, 3677, 6875, 3678, 6874, 9453, 9303, 3990, 7614, 9579, 7706
9803, 1042, 646, 110, 3074, 7732, 8527, 1048, 3081, 8604, 3077
9804, 1042, 110, 646, 794, 1048, 8527, 7732, 8582, 9440, 8581
9805, 3151, 727, 1075, 92, 9019, 10628, 3164, 9654, 728, 10198
9806, 3151, 1075, 727, 112, 3164, 10628, 9019, 3158, 1082, 9016
9807, 94, 1075, 727, 92, 10274, 10628, 10407, 9888, 10198, 728
9808, 94, 727, 1075, 112, 10407, 10628, 10274, 10229, 9016, 1082
9809, 6892, 6812, 19, 6845, 10105, 10471, 10120, 9400, 8853, 10147
9810, 3110, 754, 800, 1061, 9688, 10411, 9986, 3123, 10137, 9966
9811, 3110, 800, 754, 84, 9986, 10411, 9688, 9679, 10402, 756
9812, 51, 2276, 3110, 52, 2349, 7017, 8996, 542, 2350, 8698
9813, 51, 3110, 2276, 868, 8996, 7017, 2349, 9097, 9098, 9479
9814, 3292, 895, 3284, 797, 7664, 7254, 3344, 10152, 2765, 7253
9815, 3284, 895, 3292, 3289, 7254, 7664, 3344, 3315, 7665, 3357
9816, 6890, 1188, 1949, 137, 9969, 10629, 8912, 9119, 4022, 8845
9817, 6890, 1949, 1188, 1414, 8912, 10629, 9969, 8913, 8911, 4252
9818, 1212, 1949, 1188, 137, 8844, 10629, 4024, 1215, 8845, 4022
9819, 1212, 1188, 1949, 1414, 4024, 10629, 8844, 10149, 4252, 8911
9820, 424, 243, 6812, 433, 9467, 10630, 10468, 2186, 9276, 10469
9821, 6808, 243, 6812, 244, 10062, 10630, 9188, 9500, 1607, 8673
9822, 460, 6814, 211, 6808, 10475, 10631, 8080, 10047, 9935, 10046
9823, 6811, 211, 6814, 6808, 10052, 10631, 9738, 9936, 10046, 9935
9824, 6854, 6437, 6827, 6828, 8851, 10620, 9193, 7413, 9897, 10369
9825, 6854, 6827, 6437, 6434, 9193, 10620, 8851, 8329, 7093, 6700
9826, 647, 795, 794, 624, 8771, 804, 8583, 2593, 2629, 2627
9827, 794, 795, 647, 1043, 804, 8771, 8583, 10467, 8772, 8773
9828, 6811, 6875, 217, 216, 9789, 10632, 10007, 10029, 8150, 1498
9829, 121, 217, 6875, 216, 1622, 10632, 10304, 4609, 1498, 8150
9830, 327, 6813, 462, 328, 10084, 9988, 10526, 1861, 9989, 8028
9831, 6133, 381, 1834, 1833, 10297, 10633, 6295, 6296, 9984, 1837
9832, 6133, 1834, 381, 390, 6295, 10633, 10297, 10613, 9422, 2153
9833, 6887, 1834, 381, 1833, 7437, 10633, 9734, 8728, 1837, 9984
9834, 6887, 381, 1834, 390, 9734, 10633, 7437, 9423, 2153, 9422
9835, 131, 1579, 1591, 3690, 9957, 4584, 6146, 3821, 9053, 9051
9836, 1591, 1579, 131, 1592, 4584, 9957, 6146, 1595, 4586, 6143
9837, 1534, 200, 6879, 4443, 1536, 10300, 10332, 4447, 4446, 10301
9838, 6879, 200, 1534, 6877, 10300, 1536, 10332, 8793, 9994, 9995
9839, 214, 4343, 6362, 1491, 4349, 10634, 6372, 1492, 4350, 6371
9840, 1414, 5965, 5956, 5972, 9122, 5992, 9464, 10290, 6019, 6018
9841, 1414, 5956, 5965, 1949, 9464, 5992, 9122, 8911, 9480, 9291
9842, 648, 796, 795, 625, 9355, 805, 8770, 2596, 2631, 2630
9843, 795, 796, 648, 6902, 805, 9355, 8770, 9903, 8567, 8727
9844, 763, 799, 3196, 3201, 10635, 10462, 10636, 10637, 10141, 3253
9845, 3196, 799, 763, 630, 10462, 10635, 10636, 10206, 2639, 10393
9846, 763, 3196, 1060, 3201, 10636, 9507, 10038, 10637, 3253, 9486
9847, 799, 766, 80, 630, 10342, 768, 10638, 2639, 8759, 2567
9848, 799, 80, 763, 630, 10638, 764, 10635, 2639, 2567, 10393
9849, 6857, 87, 111, 745, 8934, 10639, 7205, 10590, 747, 10614
9850, 6857, 111, 87, 801, 7205, 10639, 8934, 9001, 9210, 10203
9851, 631, 111, 87, 745, 9430, 10639, 2582, 8755, 10614, 747
9852, 631, 87, 111, 801, 2582, 10639, 9430, 2642, 10203, 9210
9853, 800, 751, 3110, 111, 10403, 8697, 9986, 9407, 9057, 3117
9854, 800, 3110, 751, 84, 9986, 8697, 10403, 10402, 9679, 752
9855, 1453, 4685, 379, 1454, 7889, 10506, 10640, 1457, 7624, 9321
9856, 379, 6135, 1453, 1454, 10641, 6272, 10640, 9321, 6267, 1457
9857, 6807, 347, 435, 444, 9943, 10521, 9620, 9621, 10543, 2195
9858, 111, 631, 751, 85, 9430, 10391, 9057, 7656, 2578, 753
9859, 111, 751, 631, 800, 9057, 10391, 9430, 9407, 10403, 2641
9860, 799, 3197, 3201, 1059, 9163, 3250, 10141, 9323, 9322, 9375
9861, 799, 3201, 3197, 3206, 10141, 3250, 9163, 10485, 3275, 3274
9862, 317, 1902, 6871, 5175, 1904, 10323, 10299, 5181, 5183, 10298
9863, 317, 6871, 1902, 6869, 10299, 10323, 1904, 10008, 7193, 10010
9864, 1834, 6134, 390, 6133, 6259, 10642, 9422, 6295, 6300, 10613
9865, 1834, 390, 6134, 399, 9422, 10642, 6259, 9421, 2160, 10627
9866, 6812, 243, 442, 433, 10630, 9277, 10470, 10469, 9276, 2193
9867, 26, 6843, 480, 28, 10348, 10267, 2222, 485, 10270, 484
9868, 6813, 6818, 327, 462, 10116, 10643, 10084, 9988, 10139, 10526
9869, 6813, 327, 6818, 6809, 10084, 10643, 10116, 10083, 10061, 10160
9870, 471, 327, 6818, 462, 10057, 10643, 10479, 2215, 10526, 10139
9871, 471, 6818, 327, 6809, 10479, 10643, 10057, 10059, 10160, 10061
9872, 6875, 120, 217, 121, 10005, 4608, 10632, 10304, 1160, 1622
9873, 209, 214, 211, 188, 10157, 10092, 4296, 4295, 9893, 1484
9874, 326, 328, 248, 307, 5030, 10110, 10156, 5028, 1862, 9911
9875, 6858, 388, 1453, 397, 8564, 8924, 9031, 10552, 2158, 8922
9876, 23, 6814, 6891, 25, 10476, 9956, 10281, 477, 10382, 10247
9877, 23, 6891, 6814, 6835, 10281, 9956, 10476, 10234, 9722, 10202
9878, 1418, 5789, 5785, 1755, 9134, 5822, 10201, 9763, 9762, 9737
9879, 5785, 5789, 1418, 5796, 5822, 9134, 10201, 5852, 5851, 10295
9880, 6892, 6808, 6848, 6835, 8960, 9961, 9840, 9964, 10104, 10075
9881, 6892, 6848, 6808, 6842, 9840, 9961, 8960, 8961, 9202, 8692
9882, 5075, 326, 248, 1872, 5079, 10156, 5076, 5077, 1874, 1873
9883, 4343, 214, 209, 1494, 4349, 10157, 4345, 4346, 1495, 1496
9884, 799, 3204, 3192, 3206, 10244, 3234, 10486, 10485, 3263, 3262
9885, 799, 3192, 3204, 897, 10486, 3234, 10244, 2772, 10045, 10044
9886, 5153, 320, 6871, 319, 5160, 10644, 10339, 5159, 1853, 10285
9887, 5153, 6871, 320, 6872, 10339, 10644, 5160, 10307, 9609, 10252
9888, 309, 6871, 320, 319, 9886, 10644, 5033, 5034, 10285, 1853
9889, 309, 320, 6871, 6872, 5033, 10644, 9886, 10237, 10252, 9609
9890, 203, 4421, 6879, 202, 4423, 10343, 10645, 1475, 4424, 10286
9891, 6879, 190, 203, 202, 9889, 4300, 10645, 10286, 4299, 1475
9892, 203, 190, 6879, 6880, 4300, 9889, 10645, 10269, 10219, 9534
9893, 309, 323, 6870, 324, 5039, 10383, 9370, 5040, 1857, 9981
9894, 309, 6870, 323, 6821, 9370, 10383, 5039, 7008, 10243, 10282
9895, 206, 190, 6878, 207, 4305, 9982, 10384, 1479, 4306, 9983
9896, 206, 6878, 190, 6822, 10384, 9982, 4305, 10275, 10427, 10218
9897, 203, 1522, 6879, 4421, 1524, 10336, 10645, 4423, 4426, 10343
9898, 6879, 1522, 203, 6880, 10336, 1524, 10645, 9534, 10268, 10269
9899, 3276, 1100, 1030, 1099, 3331, 3585, 9539, 3330, 1106, 3584
9900, 1031, 3276, 1030, 797, 9556, 9539, 1037, 10231, 10154, 9928
9901, 1030, 3276, 1031, 1100, 9539, 9556, 1037, 3585, 3331, 3586
9902, 1732, 1579, 5434, 1731, 4877, 9717, 5465, 1738, 4874, 5464
9903, 1580, 1579, 5434, 1732, 1586, 9717, 9779, 4876, 4877, 5465
9904, 6818, 22, 6421, 24, 10478, 6527, 8705, 10211, 467, 6528
9905, 6818, 6421, 22, 6853, 8705, 6527, 10478, 9931, 7448, 10347
9906, 469, 213, 6362, 210, 10011, 10646, 7579, 10012, 1489, 10647
9907, 469, 6362, 213, 1491, 7579, 10646, 10011, 7581, 6371, 10438
9908, 4343, 6362, 213, 210, 10634, 10646, 4347, 4344, 10647, 1489
9909, 4343, 213, 6362, 1491, 4347, 10646, 10634, 4350, 10438, 6371
9910, 1920, 5252, 5253, 1923, 5261, 10648, 5256, 5262, 5260, 5257
9911, 1920, 5253, 5252, 6823, 5256, 10648, 5261, 10192, 10428, 10210
9912, 235, 193, 4521, 1562, 9880, 10649, 4526, 1563, 1564, 4529
9913, 235, 4521, 193, 6824, 4526, 10649, 9880, 9080, 10429, 10086
9914, 1558, 4521, 4520, 1562, 4528, 10650, 4525, 4530, 4529, 4524
9915, 1558, 4520, 4521, 6824, 4525, 10650, 4528, 10199, 10212, 10429
9916, 4521, 193, 4520, 1562, 10649, 4523, 10650, 4529, 1564, 4524
9917, 4521, 4520, 193, 6824, 10650, 4523, 10649, 10429, 10212, 10086
9918, 228, 1534, 6879, 4444, 1535, 10332, 9234, 4449, 4452, 10331
9919, 228, 6879, 1534, 6877, 9234, 10332, 1535, 9233, 8793, 9995
9920, 1902, 256, 6871, 5176, 1903, 9497, 10323, 5180, 5178, 10322
9921, 1902, 6871, 256, 6869, 10323, 9497, 1903, 10010, 7193, 9552
9922, 1409, 133, 1580, 132, 10436, 10651, 9934, 1410, 1178, 9898
9923, 1409, 1580, 133, 1416, 9934, 10651, 10436, 10313, 10016, 10435
9924, 1579, 1580, 133, 132, 1586, 10651, 10321, 9899, 9898, 1178
9925, 71, 1030, 1031, 66, 10144, 1037, 10652, 656, 10101, 10100
9926, 1031, 1030, 71, 797, 1037, 10144, 10652, 10231, 9928, 10442
9927, 1031, 610, 71, 66, 10107, 10443, 10652, 10100, 611, 656
9928, 71, 610, 1031, 797, 10443, 10107, 10652, 10442, 10405, 10231
9929, 6823, 260, 5231, 261, 9786, 5232, 10375, 9787, 1681, 5233
9930, 6823, 5231, 260, 6873, 10375, 5232, 9786, 10245, 10175, 10430
9931, 232, 6824, 4499, 233, 9638, 10376, 4505, 1557, 9780, 4504
9932, 232, 4499, 6824, 6881, 4505, 10376, 9638, 10431, 10178, 10253
9933, 6821, 249, 5110, 250, 9905, 5111, 10423, 9906, 1637, 5112
9934, 6821, 5110, 249, 6870, 10423, 5111, 9905, 10243, 10364, 10432
9935, 221, 6822, 4378, 222, 9815, 10426, 4384, 1513, 9904, 4383
9936, 4378, 6822, 221, 6878, 10426, 9815, 4384, 10368, 10427, 10433
9937, 6850, 141, 6094, 4190, 9418, 10653, 8096, 9419, 4192, 9515
9938, 6850, 6094, 141, 4196, 8096, 10653, 9418, 8097, 8094, 4200
9939, 182, 6094, 141, 4190, 6201, 10653, 1389, 4191, 9515, 4192
9940, 182, 141, 6094, 4196, 1389, 10653, 6201, 4201, 4200, 8094
9941, 6850, 142, 6119, 4184, 9991, 10654, 9436, 9307, 4186, 9435
9942, 6850, 6119, 142, 4190, 9436, 10654, 9991, 9419, 9514, 4194
9943, 181, 6119, 142, 4184, 6198, 10654, 1384, 4185, 9435, 4186
9944, 181, 142, 6119, 4190, 1384, 10654, 6198, 4195, 4194, 9514
9945, 1755, 146, 6127, 4160, 8783, 10655, 8131, 8632, 4162, 8633
9946, 1755, 6127, 146, 4166, 8131, 10655, 8783, 8129, 8127, 4170
9947, 177, 6127, 146, 4160, 6186, 10655, 1364, 4161, 8633, 4162
9948, 177, 146, 6127, 4166, 1364, 10655, 6186, 4171, 4170, 8127
9949, 1579, 3690, 1216, 1578, 9053, 10656, 10657, 1585, 9052, 9690
9950, 3690, 1591, 1216, 1578, 9051, 9691, 10656, 9052, 4551, 9690
9951, 5442, 1417, 5443, 5437, 10445, 10499, 5502, 5503, 7121, 5510
9952, 5442, 5443, 1417, 5430, 5502, 10499, 10445, 5499, 5500, 10446
9953, 164, 159, 6120, 4088, 1299, 10658, 6154, 4093, 4092, 9797
9954, 164, 6120, 159, 4082, 6154, 10658, 1299, 4083, 9351, 4084
9955, 1804, 159, 6120, 4082, 7691, 10658, 9350, 9160, 4084, 9351
9956, 176, 147, 6126, 4160, 1359, 10659, 6183, 4165, 4164, 8635
9957, 176, 6126, 147, 4154, 6183, 10659, 1359, 4155, 8841, 4156
9958, 1755, 6126, 147, 4160, 8634, 10659, 9369, 8632, 8635, 4164
9959, 1755, 147, 6126, 4154, 9369, 10659, 8634, 8839, 4156, 8841
9960, 303, 161, 4966, 6468, 10159, 10660, 4989, 9874, 6556, 9002
9961, 303, 4966, 161, 4076, 4989, 10660, 10159, 9460, 9459, 4080
9962, 163, 4966, 161, 6468, 8830, 10660, 1297, 6559, 9002, 6556
9963, 163, 161, 4966, 4076, 1297, 10660, 8830, 4081, 4080, 9459
9964, 6882, 6106, 157, 4100, 9771, 10661, 10099, 9875, 9630, 4104
9965, 166, 6106, 157, 4094, 6156, 10661, 1309, 4095, 9909, 4096
9966, 166, 157, 6106, 4100, 1309, 10661, 6156, 4105, 4104, 9630
9967, 162, 160, 4965, 4082, 1296, 9318, 9894, 4087, 4086, 9162
9968, 162, 4965, 160, 4076, 9894, 9318, 1296, 4077, 9759, 4078
9969, 1345, 151, 1193, 1258, 1347, 4055, 6966, 4229, 1260, 4054
9970, 6362, 210, 214, 211, 10647, 10662, 6372, 8082, 1483, 10092
9971, 6362, 214, 210, 4343, 6372, 10662, 10647, 10634, 4349, 4344
9972, 209, 214, 210, 211, 10157, 10662, 1482, 4296, 10092, 1483
9973, 209, 210, 214, 4343, 1482, 10662, 10157, 4345, 4344, 4349
9974, 94, 801, 91, 632, 811, 10528, 10455, 2623, 2625, 2542
9975, 1192, 143, 6840, 1380, 4038, 10663, 8288, 6965, 1381, 9192
9976, 1192, 6840, 143, 1417, 8288, 10663, 4038, 4259, 8290, 10233
9977, 6850, 143, 6840, 1417, 9854, 10663, 8737, 9948, 10233, 8290
9978, 645, 69, 6477, 2126, 650, 6554, 9504, 6366, 2128, 6555
9979, 645, 6477, 69, 1070, 9504, 6554, 650, 8895, 9505, 10111
9980, 1581, 6113, 140, 4202, 7765, 10664, 8706, 7763, 7762, 4206
9981, 183, 6113, 140, 4196, 6204, 10664, 1394, 4197, 8093, 4198
9982, 183, 140, 6113, 4202, 1394, 10664, 6204, 4207, 4206, 7762
9983, 184, 139, 6125, 4208, 1399, 10665, 6211, 4213, 4212, 10224
9984, 184, 6125, 139, 4202, 6211, 10665, 1399, 4203, 7660, 4204
9985, 1580, 139, 6125, 4202, 8637, 10665, 7662, 7661, 4204, 7660
9986, 6840, 6110, 145, 4172, 8676, 10666, 9617, 8687, 8686, 4176
9987, 178, 6110, 145, 4166, 6189, 10666, 1369, 4167, 8128, 4168
9988, 178, 145, 6110, 4172, 1369, 10666, 6189, 4177, 4176, 8686
9989, 5788, 5790, 1418, 5799, 5865, 10450, 10452, 5866, 5854, 10451
9990, 5788, 1418, 5790, 1419, 10452, 10450, 5865, 8154, 1428, 8153
9991, 6840, 144, 6131, 4172, 9191, 10667, 7742, 8687, 4174, 8685
9992, 6840, 6131, 144, 4178, 7742, 10667, 9191, 7743, 7741, 4182
9993, 179, 6131, 144, 4172, 6192, 10667, 1374, 4173, 8685, 4174
9994, 179, 144, 6131, 4178, 1374, 10667, 6192, 4183, 4182, 7741
9995, 142, 1191, 1385, 1417, 4035, 10668, 1386, 10360, 4258, 10232
9996, 142, 1385, 1191, 1234, 1386, 10668, 4035, 1235, 4237, 4036
9997, 143, 1385, 1191, 1417, 1387, 10668, 4037, 10233, 10232, 4258
9998, 143, 1191, 1385, 1234, 4037, 10668, 1387, 1236, 4036, 4237
9999, 155, 1320, 1195, 1273, 1321, 10669, 4065, 1274, 4224, 4066
10000, 155, 1195, 1320, 1420, 4065, 10669, 1321, 10249, 4247, 10248
10001, 156, 1195, 1320, 1273, 4067, 10669, 1322, 1275, 4066, 4224
10002, 156, 1320, 1195, 1420, 1322, 10669, 4067, 10309, 10248, 4247
10003, 1193, 1360, 147, 1418, 6967, 1361, 4047, 4260, 10187, 10246
10004, 1193, 147, 1360, 1249, 4047, 1361, 6967, 4048, 1250, 4232
10005, 1780, 175, 1756, 4154, 6181, 10670, 4939, 9354, 4159, 8840
10006, 148, 1756, 175, 4154, 9892, 10670, 1354, 4158, 8840, 4159
10007, 148, 175, 1756, 4148, 1354, 10670, 9892, 4150, 4149, 9837
10008, 132, 131, 1579, 4214, 1177, 9957, 9899, 4216, 4215, 9601
10009, 132, 1579, 131, 3690, 9899, 9957, 1177, 3820, 9053, 3821
10010, 1415, 1416, 1216, 5428, 1425, 10596, 9852, 10549, 10194, 10550
10011, 1415, 1216, 1416, 1189, 9852, 10596, 1425, 4254, 4025, 4256
10012, 5428, 133, 5434, 1416, 10597, 10671, 5466, 10194, 10435, 10184
10013, 5428, 5434, 133, 1579, 5466, 10671, 10597, 9718, 9717, 10321
10014, 1580, 5434, 133, 1416, 9779, 10671, 10651, 10016, 10184, 10435
10015, 1580, 133, 5434, 1579, 10651, 10671, 9779, 1586, 10321, 9717
10016, 1580, 6125, 138, 4214, 7662, 10672, 10017, 9599, 9625, 4219
10017, 185, 6125, 138, 4208, 6210, 10672, 1404, 4209, 10224, 4210
10018, 185, 138, 6125, 4214, 1404, 10672, 6210, 4217, 4219, 9625
10019, 1579, 5428, 1216, 133, 9718, 10550, 10657, 10321, 10597, 1218
10020, 1579, 1216, 5428, 1578, 10657, 10550, 9718, 1585, 9690, 9673
10021, 1420, 5884, 5875, 5872, 7313, 5913, 9066, 8202, 5929, 5948
10022, 1420, 5875, 5884, 1804, 9066, 5913, 7313, 9064, 9067, 9872
10023, 6841, 155, 6091, 4106, 9952, 10673, 9060, 8950, 4108, 9059
10024, 6841, 6091, 155, 4112, 9060, 10673, 9952, 8182, 9293, 4116
10025, 168, 6091, 155, 4106, 6162, 10673, 1319, 4107, 9059, 4108
10026, 168, 155, 6091, 4112, 1319, 10673, 6162, 4117, 4116, 9293
10027, 1194, 155, 6820, 1420, 4064, 10674, 7479, 4264, 10249, 8361
10028, 1194, 6820, 155, 1325, 7479, 10674, 4064, 6964, 10527, 1327
10029, 6841, 6820, 155, 1420, 8620, 10674, 9952, 10250, 8361, 10249
10030, 6841, 155, 6820, 1325, 9952, 10674, 8620, 9399, 1327, 10527
10031, 5784, 289, 356, 337, 7244, 10538, 5801, 5802, 5514, 2097
10032, 5784, 356, 289, 5586, 5801, 10538, 7244, 7487, 5634, 9708
10033, 3405, 2751, 793, 3411, 8455, 2755, 10675, 3451, 7405, 7530
10034, 3405, 793, 2751, 94, 10675, 2755, 8455, 8015, 802, 2753
10035, 1070, 3405, 793, 3411, 10676, 10675, 8494, 8493, 3451, 7530
10036, 1070, 793, 3405, 94, 8494, 10675, 10676, 10228, 802, 8015
10037, 1125, 3405, 1070, 3411, 3429, 10676, 3621, 3449, 3451, 8493
10038, 1125, 1070, 3405, 94, 3621, 10676, 3429, 10302, 10228, 8015
10039, 1412, 5879, 1987, 1799, 6995, 5891, 10677, 9694, 9499, 5530
10040, 1412, 1987, 5879, 5876, 10677, 5891, 6995, 6994, 5898, 5900
10041, 1988, 1412, 1987, 1799, 10678, 10677, 1994, 5533, 9694, 5530
10042, 1988, 1987, 1412, 5876, 1994, 10677, 10678, 5899, 5898, 6994
10043, 1800, 1412, 1988, 1799, 8213, 10678, 5532, 1806, 9694, 5533
10044, 6819, 6861, 361, 345, 9559, 10679, 9817, 9329, 9720, 5955
10045, 346, 6861, 361, 360, 9801, 10679, 2101, 5954, 10273, 2102
10046, 346, 361, 6861, 345, 2101, 10679, 9801, 2012, 5955, 9720
10047, 6885, 352, 6832, 2018, 9672, 10680, 9582, 8490, 5568, 9581
10048, 98, 877, 6477, 2734, 883, 9008, 9544, 2736, 2740, 8473
10049, 98, 6477, 877, 3156, 9544, 9008, 883, 9655, 9009, 7035
10050, 113, 111, 104, 3194, 3605, 10681, 1096, 3211, 9862, 3212
10051, 111, 104, 800, 2830, 10681, 10682, 9407, 9883, 2873, 9884
10052, 111, 800, 104, 3194, 9407, 10682, 10681, 9862, 9777, 3212
10053, 800, 104, 898, 2830, 10682, 2870, 2770, 9884, 2873, 2872
10054, 111, 3193, 104, 2830, 9980, 3209, 10681, 9883, 7935, 2873
10055, 111, 104, 3193, 113, 10681, 3209, 9980, 3605, 1096, 3210
10056, 3505, 3495, 893, 1015, 3526, 10458, 10031, 3525, 3521, 2897
10057, 3491, 3499, 795, 3508, 3544, 10683, 9855, 3557, 3559, 9856
10058, 3491, 795, 3499, 1043, 9855, 10683, 3544, 9414, 8772, 9494
10059, 794, 3499, 795, 1043, 9919, 10683, 804, 10467, 9494, 8772
10060, 95, 835, 6867, 2687, 841, 10508, 7758, 2689, 2693, 7781
10061, 95, 6867, 835, 3033, 7758, 10508, 841, 8363, 7728, 8804
10062, 71, 649, 3700, 1154, 655, 9493, 3776, 1157, 6367, 3777
10063, 71, 3700, 649, 1030, 3776, 9493, 655, 10144, 7994, 9492
10064, 3498, 795, 3505, 3508, 8988, 10684, 3531, 3558, 9856, 3570
10065, 3498, 3505, 795, 893, 3531, 10684, 8988, 10030, 10031, 2764
10066, 3495, 3505, 795, 3508, 3526, 10684, 10459, 3569, 3570, 9856
10067, 3495, 795, 3505, 893, 10459, 10684, 3526, 10458, 2764, 10031
10068, 796, 3284, 1029, 3290, 7252, 10685, 7310, 7307, 3316, 7309
10069, 796, 1029, 3284, 1030, 7310, 10685, 7252, 10466, 1036, 9926
10070, 3283, 3284, 1029, 1030, 3342, 10685, 8186, 9511, 9926, 1036
10071, 3284, 3293, 1029, 3290, 3360, 7089, 10685, 3316, 3349, 7309
10072, 3284, 1029, 3293, 3283, 10685, 7089, 3360, 3342, 8186, 3359
10073, 6811, 218, 6875, 1615, 9999, 10686, 9789, 9790, 4607, 8599
10074, 6811, 6875, 218, 217, 9789, 10686, 9999, 10007, 10632, 1499
10075, 120, 6875, 218, 1615, 10005, 10686, 1621, 4606, 8599, 4607
10076, 120, 218, 6875, 217, 1621, 10686, 10005, 4608, 1499, 10632
10077, 1212, 1211, 1948, 5361, 1214, 9639, 7874, 7875, 8909, 5398
10078, 1212, 1948, 1211, 1187, 7874, 9639, 1214, 4074, 8708, 4073
10079, 6899, 5441, 1435, 1415, 9637, 10687, 10069, 9965, 10688, 4279
10080, 6868, 153, 6128, 4118, 9395, 10689, 8487, 8278, 4120, 8496
10081, 6868, 6128, 153, 4124, 8487, 10689, 9395, 8478, 8486, 4128
10082, 170, 6128, 153, 4118, 6172, 10689, 1329, 4119, 8496, 4120
10083, 170, 153, 6128, 4124, 1329, 10689, 6172, 4129, 4128, 8486
10084, 1947, 1187, 1948, 1413, 10690, 8708, 1954, 10262, 4250, 8710
10085, 1947, 1948, 1187, 1211, 1954, 8708, 10690, 8762, 9639, 4073
10086, 136, 1947, 1186, 1211, 8763, 10691, 4020, 1213, 8762, 4021
10087, 1186, 1187, 1947, 1413, 1198, 10690, 10691, 4249, 4250, 10262
10088, 1186, 1947, 1187, 1211, 10691, 10690, 1198, 4021, 8762, 4073
10089, 3495, 795, 3499, 3508, 10459, 10683, 3566, 3569, 9856, 3559
10090, 3495, 3499, 795, 794, 3566, 10683, 10459, 9921, 9919, 804
10091, 6365, 327, 248, 5075, 10525, 10692, 6382, 9171, 5080, 5076
10092, 6365, 248, 327, 328, 6382, 10692, 10525, 8030, 10110, 1861
10093, 326, 248, 327, 5075, 10156, 10692, 1860, 5079, 5076, 5080
10094, 326, 327, 248, 328, 1860, 10692, 10156, 5030, 1861, 10110
10095, 6814, 23, 451, 460, 10476, 2206, 10693, 10475, 463, 2208
10096, 397, 9, 6858, 7, 400, 10193, 10552, 2157, 405, 8562
10097, 3645, 245, 129, 6817, 10694, 1864, 3814, 7280, 8765, 9633
10098, 6854, 6436, 345, 6819, 9166, 10695, 9297, 9167, 7524, 9329
10099, 349, 6436, 345, 5559, 6575, 10695, 2017, 5563, 10238, 5560
10100, 349, 345, 6436, 6819, 2017, 10695, 6575, 9615, 9329, 7524
10101, 6813, 453, 6807, 6818, 10004, 10696, 9328, 10116, 10140, 10117
10102, 1417, 1438, 5617, 1437, 4283, 5673, 9678, 4284, 1447, 5674
10103, 190, 1453, 4588, 1610, 1456, 8337, 4591, 1611, 6214, 4593
10104, 190, 4588, 1453, 6849, 4591, 8337, 1456, 7802, 8338, 7801
10105, 6820, 1330, 6841, 154, 7480, 10697, 8620, 7749, 1332, 8964
10106, 6820, 6841, 1330, 6868, 8620, 10697, 7480, 7484, 8077, 7483
10107, 4118, 6841, 1330, 154, 8183, 10697, 4121, 4122, 8964, 1332
10108, 4118, 1330, 6841, 6868, 4121, 10697, 8183, 8278, 7483, 8077
10109, 2837, 795, 2862, 893, 8989, 10698, 2907, 2905, 2764, 2903
10110, 894, 2862, 795, 893, 2902, 10698, 2763, 903, 2903, 2764
10111, 471, 26, 6843, 480, 475, 10348, 10699, 2223, 2222, 10267
10112, 6843, 26, 471, 6818, 10348, 475, 10699, 10306, 10123, 10479
10113, 6843, 6809, 471, 480, 8193, 10059, 10699, 10267, 10068, 2223
10114, 471, 6809, 6843, 6818, 10059, 8193, 10699, 10479, 10160, 10306
10115, 3280, 105, 109, 2848, 3294, 10569, 9976, 9100, 2875, 10530
10116, 3280, 109, 105, 114, 9976, 10569, 3294, 3295, 3577, 1110
10117, 6812, 21, 6892, 19, 10472, 10700, 10105, 10471, 459, 10120
10118, 6812, 6892, 21, 6835, 10105, 10700, 10472, 10103, 9964, 10330
10119, 3681, 6892, 21, 19, 7915, 10700, 3746, 3747, 10120, 459
10120, 3681, 21, 6892, 6835, 3746, 10700, 7915, 9416, 10330, 9964
10121, 1420, 6882, 1305, 158, 9959, 10701, 8244, 8243, 10547, 1306
10122, 4088, 1305, 6882, 158, 4091, 10701, 10702, 4090, 1306, 10547
10123, 6825, 245, 3645, 6817, 7979, 10694, 10703, 8704, 8765, 7280
10124, 6825, 3648, 3645, 3658, 7720, 3865, 10703, 7721, 3867, 3816
10125, 3645, 3648, 6825, 6817, 3865, 7720, 10703, 7280, 7278, 8704
10126, 210, 124, 6875, 123, 4341, 10704, 10537, 4342, 1163, 8189
10127, 210, 6875, 124, 6831, 10537, 10704, 4341, 7930, 10119, 7905
10128, 3649, 6875, 124, 123, 9452, 10704, 3794, 3795, 8189, 1163
10129, 3649, 124, 6875, 6831, 3794, 10704, 9452, 9147, 7905, 10119
10130, 6862, 6470, 6818, 6488, 7029, 10705, 9835, 8321, 6631, 8051
10131, 6862, 6818, 6470, 6843, 9835, 10705, 7029, 9647, 10306, 8630
10132, 6420, 6818, 6470, 6488, 8052, 10705, 6632, 6630, 8051, 6631
10133, 6420, 6470, 6818, 6843, 6632, 10705, 8052, 8629, 8630, 10306
10134, 6456, 6442, 6828, 8, 6508, 7411, 10706, 6505, 6506, 9326
10135, 6828, 6442, 6456, 6133, 7411, 6508, 10706, 8070, 7007, 7005
10136, 6828, 390, 6456, 8, 9509, 10611, 10706, 9326, 394, 6505
10137, 6456, 390, 6828, 6133, 10611, 9509, 10706, 7005, 10613, 8070
10138, 460, 6362, 210, 469, 8081, 10647, 10707, 2216, 7579, 10012
10139, 210, 6362, 460, 211, 10647, 8081, 10707, 1483, 8082, 8080
10140, 460, 210, 6811, 469, 10707, 10014, 10708, 2216, 10012, 10013
10141, 6811, 210, 460, 211, 10014, 10707, 10708, 10052, 1483, 8080
10142, 460, 6811, 6814, 469, 10708, 9738, 10475, 2216, 10013, 10132
10143, 6814, 6811, 460, 211, 9738, 10708, 10475, 10631, 10052, 8080
10144, 6871, 6849, 253, 1650, 7192, 10709, 9605, 9611, 9148, 4630
10145, 6871, 253, 6849, 6821, 9605, 10709, 7192, 7352, 9606, 6985
10146, 1646, 253, 6849, 1650, 1648, 10709, 8412, 4629, 4630, 9148
10147, 1646, 6849, 253, 6821, 8412, 10709, 1648, 8409, 6985, 9606
10148, 6849, 190, 212, 6822, 7802, 4590, 10540, 9232, 10218, 10710
10149, 6849, 212, 190, 4588, 10540, 4590, 7802, 8338, 4592, 4591
10150, 71, 649, 797, 1030, 655, 10711, 10442, 10144, 9492, 9928
10151, 71, 797, 649, 626, 10442, 10711, 655, 2547, 2633, 2548
10152, 796, 797, 649, 1030, 806, 10711, 9358, 10466, 9928, 9492
10153, 796, 649, 797, 626, 9358, 10711, 806, 2632, 2548, 2633
10154, 435, 444, 6849, 434, 2195, 10712, 10518, 438, 2198, 9374
10155, 435, 6849, 444, 347, 10518, 10712, 2195, 10521, 7004, 10543
10156, 443, 6849, 444, 434, 8914, 10712, 447, 2196, 9374, 2198
10157, 443, 444, 6849, 347, 447, 10712, 8914, 10542, 10543, 7004
10158, 1435, 5445, 5441, 5438, 10491, 5494, 10687, 7370, 5506, 5512
10159, 6807, 453, 6853, 6818, 10696, 10713, 10019, 10117, 10140, 9931
10160, 801, 3150, 733, 90, 9535, 10714, 9730, 9731, 10576, 734
10161, 6849, 189, 6822, 212, 7873, 10715, 9232, 10540, 1487, 10710
10162, 6849, 6822, 189, 6878, 9232, 10715, 7873, 8239, 10427, 9592
10163, 190, 6822, 189, 212, 10218, 10715, 1452, 4590, 10710, 1487
10164, 190, 189, 6822, 6878, 1452, 10715, 10218, 9982, 9592, 10427
10165, 127, 6817, 6831, 126, 10292, 10572, 10716, 1166, 10574, 9096
10166, 2022, 6843, 329, 6809, 7851, 10717, 5564, 8091, 8193, 8090
10167, 498, 329, 6843, 6809, 9750, 10717, 7339, 9751, 8090, 8193
10168, 44, 775, 2287, 76, 2662, 10718, 2331, 820, 776, 10616
10169, 44, 2287, 775, 6898, 2331, 10718, 2662, 8979, 7637, 8346
10170, 6855, 2287, 775, 76, 7233, 10718, 8345, 9896, 10616, 776
10171, 6855, 775, 2287, 6898, 8345, 10718, 7233, 7638, 8346, 7637
10172, 58, 733, 3150, 90, 2656, 10714, 8843, 819, 734, 10576
10173, 58, 3150, 733, 3151, 8843, 10714, 2656, 9383, 3180, 9687
10174, 6858, 3665, 1170, 3687, 9219, 3817, 9922, 9011, 3834, 3833
10175, 6858, 1170, 3665, 6116, 9922, 3817, 9219, 9547, 6142, 7529
10176, 6848, 6874, 3677, 3674, 9828, 7614, 10719, 7382, 7615, 3981
10177, 3677, 6874, 6848, 6831, 7614, 9828, 10719, 9146, 10051, 9830
10178, 3677, 3711, 6848, 3674, 3883, 7383, 10719, 3981, 3974, 7382
10179, 6848, 3711, 3677, 6831, 7383, 3883, 10719, 9830, 9145, 9146
10180, 6858, 6785, 1454, 371, 9173, 9597, 10720, 9174, 6791, 8235
10181, 1454, 6785, 6858, 6135, 9597, 9173, 10720, 6267, 9335, 9339
10182, 1454, 363, 6858, 371, 9320, 9237, 10720, 8235, 2137, 9174
10183, 347, 426, 6807, 435, 10520, 9847, 9943, 10521, 2188, 9620
10184, 453, 347, 6807, 444, 10003, 9943, 10696, 2201, 10543, 9621
10185, 453, 6807, 347, 6813, 10696, 9943, 10003, 10004, 9328, 9910
10186, 72, 3030, 798, 787, 9693, 10721, 9729, 788, 10603, 10280
10187, 6864, 3030, 798, 1032, 9025, 10721, 9853, 8613, 3064, 9540
10188, 6864, 798, 3030, 787, 9853, 10721, 9025, 9549, 10280, 10603
10189, 1454, 379, 6858, 363, 9321, 8565, 10720, 9320, 2144, 9237
10190, 6858, 379, 1454, 6135, 8565, 9321, 10720, 9339, 10641, 6267
10191, 6817, 128, 6831, 245, 9822, 10722, 10572, 8765, 5074, 10573
10192, 6817, 6831, 128, 127, 10572, 10722, 9822, 10292, 10716, 1167
10193, 244, 6831, 128, 245, 10604, 10722, 1865, 1608, 10573, 5074
10194, 244, 128, 6831, 127, 1865, 10722, 10604, 5073, 1167, 10716
10195, 6835, 21, 6814, 23, 10330, 10723, 10202, 10234, 468, 10476
10196, 6835, 6814, 21, 6812, 10202, 10723, 10330, 10103, 10724, 10472
10197, 451, 6814, 21, 23, 10693, 10723, 454, 2206, 10476, 468
10198, 451, 21, 6814, 6812, 454, 10723, 10693, 10473, 10472, 10724
10199, 406, 9, 6858, 397, 2164, 10193, 10725, 2165, 400, 10552
10200, 6858, 9, 406, 6812, 10193, 2164, 10725, 8265, 10474, 9992
10201, 6858, 1453, 406, 397, 9031, 9442, 10725, 10552, 8922, 2165
10202, 406, 1453, 6858, 6812, 9442, 9031, 10725, 9992, 9030, 8265
10203, 444, 20, 6807, 453, 448, 10726, 9621, 2201, 2200, 10696
10204, 6853, 6807, 20, 453, 10019, 10726, 10404, 10713, 10696, 2200
10205, 1417, 1418, 5617, 1438, 1427, 9136, 9678, 4283, 4282, 5673
10206, 5617, 1418, 1417, 6840, 9136, 1427, 9678, 9348, 8289, 8290
10207, 795, 796, 2862, 894, 805, 10727, 10698, 2763, 2762, 2902
10208, 795, 2862, 796, 6902, 10698, 10727, 805, 9903, 8552, 8567
10209, 2856, 2862, 796, 894, 2914, 10727, 9802, 2913, 2902, 2762
10210, 2856, 796, 2862, 6902, 9802, 10727, 2914, 9176, 8567, 8552
10211, 6882, 4088, 159, 1305, 10702, 4092, 10728, 10701, 4091, 1307
10212, 6882, 1420, 159, 1804, 9959, 10484, 10728, 9832, 9064, 7691
10213, 159, 1420, 6882, 1305, 10484, 9959, 10728, 1307, 8244, 10701
10214, 1439, 1438, 5788, 1418, 1448, 10729, 7197, 4286, 4282, 10452
10215, 1439, 5788, 1438, 2049, 7197, 10729, 1448, 5681, 5840, 5680
10216, 5793, 5788, 1438, 1418, 5841, 10729, 10170, 10294, 10452, 4282
10217, 5793, 1438, 5788, 2049, 10170, 10729, 5841, 5836, 5680, 5840
10218, 1061, 83, 3196, 757, 10113, 10730, 9629, 9809, 759, 10617
10219, 1061, 3196, 83, 800, 9629, 10730, 10113, 9966, 9776, 10410
10220, 630, 3196, 83, 757, 10206, 10730, 2573, 8758, 10617, 759
10221, 630, 83, 3196, 800, 2573, 10730, 10206, 2640, 10410, 9776
10222, 1400, 1416, 1580, 139, 10496, 10016, 8636, 1401, 10447, 8637
10223, 3282, 2859, 3278, 3291, 10492, 6919, 3338, 3352, 6918, 3353
10224, 3282, 3278, 2859, 1032, 3338, 6919, 10492, 9510, 7258, 7256
10225, 359, 335, 5587, 5971, 10493, 8395, 5644, 5977, 9924, 9356
10226, 359, 5587, 335, 5606, 5644, 8395, 10493, 5641, 5645, 8394
10227, 790, 798, 3030, 1032, 9728, 10721, 9658, 9818, 9540, 3064
10228, 3030, 798, 790, 72, 10721, 9728, 9658, 9693, 9729, 792
10229, 1417, 1416, 1580, 1400, 1426, 10016, 10731, 8241, 10496, 8636
10230, 1580, 1416, 1417, 5430, 10016, 1426, 10731, 9663, 10186, 10446
10231, 1580, 1581, 1417, 1400, 1587, 10106, 10731, 8636, 8707, 8241
10232, 1417, 1581, 1580, 5430, 10106, 1587, 10731, 10446, 9133, 9663
10233, 347, 6861, 360, 340, 8178, 10273, 2099, 5953, 8116, 2100
10234, 347, 360, 6861, 346, 2099, 10273, 8178, 2013, 5954, 9801
10235, 3506, 3498, 2837, 3504, 3573, 8986, 10501, 3563, 3530, 8646
10236, 3506, 2837, 3498, 3497, 10501, 8986, 3573, 3574, 8985, 3556
10237, 339, 6870, 6849, 6365, 9263, 10524, 10488, 9261, 9109, 7154
10238, 339, 6849, 6870, 5546, 10488, 10524, 9263, 5549, 6986, 10242
10239, 5443, 1417, 6897, 5615, 10499, 10001, 8419, 7426, 8259, 8420
10240, 5443, 6897, 1417, 1581, 8419, 10001, 10499, 8811, 8813, 10106
10241, 2837, 3506, 2841, 6860, 10501, 10732, 3006, 9726, 7869, 9132
10242, 2837, 2841, 3506, 3504, 3006, 10732, 10501, 8646, 8645, 3563
10243, 3492, 2841, 3506, 6860, 8417, 10732, 3562, 8003, 9132, 7869
10244, 3492, 3506, 2841, 3504, 3562, 10732, 8417, 3534, 3563, 8645
10245, 5789, 5786, 1418, 5796, 9187, 10733, 9134, 5851, 5859, 10295
10246, 1418, 5786, 5789, 5592, 10733, 9187, 9134, 9135, 7601, 6920
10247, 5786, 1438, 1418, 5796, 10734, 4282, 10733, 5859, 10296, 10295
10248, 1418, 1438, 5786, 5592, 4282, 10734, 10733, 9135, 5684, 7601
10249, 5786, 5793, 1438, 5796, 5838, 10170, 10734, 5859, 5858, 10296
10250, 1438, 5793, 5786, 5592, 10170, 5838, 10734, 5684, 10623, 7601
10251, 3704, 9, 6876, 11, 3732, 10735, 9930, 3731, 414, 8871
10252, 3704, 6876, 9, 6858, 9930, 10735, 3732, 9660, 9933, 10193
10253, 6812, 6876, 9, 11, 8872, 10735, 10474, 8869, 8871, 414
10254, 6812, 9, 6876, 6858, 10474, 10735, 8872, 8265, 10193, 9933
10255, 91, 3151, 3150, 1075, 9632, 3180, 10736, 10204, 3164, 3189
10256, 3150, 3151, 91, 733, 3180, 9632, 10736, 10714, 9687, 735
10257, 3150, 801, 91, 1075, 9535, 10528, 10736, 3189, 8640, 10204
10258, 91, 801, 3150, 733, 10528, 9535, 10736, 735, 9730, 10714
10259, 389, 379, 1453, 4685, 2154, 10640, 8923, 8107, 10506, 7889
10260, 1453, 379, 389, 388, 10640, 2154, 8923, 8924, 2151, 392
10261, 5790, 1757, 151, 1345, 8231, 9571, 10737, 10539, 9949, 1347
10262, 151, 1757, 5790, 1419, 9571, 8231, 10737, 10293, 9960, 8153
10263, 151, 1193, 5790, 1345, 4055, 9445, 10737, 1347, 6966, 10539
10264, 5790, 1193, 151, 1419, 9445, 4055, 10737, 8153, 4262, 10293
10265, 470, 480, 1875, 6356, 2226, 10551, 10533, 7493, 8797, 6384
10266, 1875, 480, 470, 471, 10551, 2226, 10533, 10534, 2223, 474
10267, 417, 347, 6807, 346, 10546, 9943, 9768, 9867, 2013, 9557
10268, 417, 6807, 347, 426, 9768, 9943, 10546, 2181, 9847, 10520
10269, 498, 6809, 332, 331, 9751, 10066, 10738, 9749, 9308, 1868
10270, 332, 6809, 498, 489, 10066, 9751, 10738, 9392, 10073, 2237
10271, 332, 6356, 498, 331, 9393, 9041, 10738, 1868, 8221, 9749
10272, 498, 6356, 332, 489, 9041, 9393, 10738, 2237, 9088, 9392
10273, 1418, 1756, 148, 1360, 10188, 9892, 10582, 10187, 8991, 1362
10274, 1834, 399, 398, 6887, 9421, 402, 10564, 7437, 9424, 9489
10275, 1834, 398, 399, 408, 10564, 402, 9421, 8983, 2169, 2167
10276, 790, 797, 1031, 68, 10555, 10231, 9819, 791, 10463, 10080
10277, 798, 797, 1031, 790, 807, 10231, 10739, 9728, 10555, 9819
10278, 1031, 797, 798, 3282, 10231, 807, 10739, 9410, 10153, 10465
10279, 1031, 1032, 798, 790, 1038, 9540, 10739, 9819, 9818, 9728
10280, 798, 1032, 1031, 3282, 9540, 1038, 10739, 10465, 9510, 9410
10281, 6809, 471, 333, 334, 10059, 10740, 10067, 10060, 10058, 1870
10282, 6809, 333, 471, 480, 10067, 10740, 10059, 10068, 10065, 2223
10283, 1875, 333, 471, 334, 5085, 10740, 10534, 10437, 1870, 10058
10284, 1875, 471, 333, 480, 10534, 10740, 5085, 10551, 2223, 10065
10285, 6811, 216, 469, 213, 10029, 10741, 10013, 10015, 1497, 10011
10286, 6811, 469, 216, 478, 10013, 10741, 10029, 10028, 2221, 10027
10287, 1491, 469, 216, 213, 7581, 10741, 4352, 10438, 10011, 1497
10288, 1491, 216, 469, 478, 4352, 10741, 7581, 8530, 10027, 2221
10289, 373, 6458, 1833, 6133, 10567, 9705, 9871, 9250, 9201, 6296
10290, 373, 1833, 6458, 6786, 9871, 9705, 10567, 6787, 9704, 9702
10291, 1615, 517, 218, 219, 10511, 10742, 4607, 1617, 8787, 1500
10292, 6355, 218, 517, 219, 9438, 10742, 8880, 9437, 1500, 8787
10293, 6355, 517, 218, 496, 8880, 10742, 9438, 9396, 9397, 9998
10294, 105, 109, 2849, 3281, 10569, 10743, 2878, 3297, 9635, 8748
10295, 105, 2849, 109, 3367, 2878, 10743, 10569, 10481, 9680, 9940
10296, 1115, 2849, 109, 3281, 8747, 10743, 8457, 8526, 8748, 9635
10297, 1115, 109, 2849, 3367, 8457, 10743, 8747, 3394, 9940, 9680
10298, 111, 2854, 6830, 1056, 10570, 7305, 7203, 1062, 7173, 7202
10299, 111, 6830, 2854, 2855, 7203, 7305, 10570, 7547, 7546, 3012
10300, 1355, 5790, 149, 1756, 10580, 10744, 1357, 10143, 8413, 9908
10301, 1355, 149, 5790, 1193, 1357, 10744, 10580, 10130, 4051, 9445
10302, 1350, 149, 5790, 1756, 1351, 10744, 8230, 8414, 9908, 8413
10303, 1350, 5790, 149, 1193, 8230, 10744, 1351, 9444, 9445, 4051
10304, 1355, 1418, 1756, 148, 10579, 10188, 10143, 1356, 10582, 9892
10305, 1756, 1418, 1355, 5785, 10188, 10579, 10143, 9563, 10201, 10581
10306, 775, 798, 6855, 76, 10587, 9686, 8345, 776, 9733, 9896
10307, 798, 6855, 1058, 775, 9686, 7698, 10745, 10587, 8345, 10505
10308, 1058, 6855, 798, 6894, 7698, 9686, 10745, 7185, 7460, 9365
10309, 1058, 799, 798, 775, 8862, 808, 10745, 10505, 9975, 10587
10310, 798, 799, 1058, 6894, 808, 8862, 10745, 9365, 8863, 7185
10311, 745, 2264, 111, 6857, 10592, 7102, 10614, 10590, 7151, 7205
10312, 745, 111, 2264, 86, 10614, 7102, 10592, 746, 9431, 10513
10313, 1947, 1186, 335, 136, 10691, 10746, 1953, 8763, 4020, 9536
10314, 1947, 335, 1186, 1413, 1953, 10746, 10691, 10262, 9388, 4249
10315, 1412, 335, 1186, 136, 8214, 10746, 4248, 9448, 9536, 4020
10316, 1412, 1186, 335, 1413, 4248, 10746, 8214, 1422, 4249, 9388
10317, 1461, 1567, 1454, 4695, 4537, 10747, 4334, 8903, 4763, 8904
10318, 1461, 1454, 1567, 1462, 4334, 10747, 4537, 1464, 4332, 4536
10319, 4685, 1454, 1567, 4695, 7624, 10747, 4700, 4769, 8904, 4763
10320, 4685, 1567, 1454, 1462, 4700, 10747, 7624, 8690, 4536, 4332
10321, 243, 415, 6812, 244, 10595, 9808, 10630, 1607, 9807, 8673
10322, 243, 6812, 415, 424, 10630, 9808, 10595, 9467, 10468, 2179
10323, 243, 6831, 127, 244, 9618, 10716, 1613, 1607, 10604, 5073
10324, 243, 127, 6831, 126, 1613, 10716, 9618, 4601, 1166, 9096
10325, 498, 36, 6439, 515, 10608, 6549, 10748, 9963, 518, 10610
10326, 498, 6439, 36, 6843, 10748, 6549, 10608, 7339, 7850, 9891
10327, 2022, 498, 6439, 515, 10749, 10748, 7836, 8725, 9963, 10610
10328, 2022, 6439, 498, 6843, 7836, 10748, 10749, 7851, 7850, 7339
10329, 329, 498, 2022, 515, 9750, 10749, 5564, 8786, 9963, 8725
10330, 329, 2022, 498, 6843, 5564, 10749, 9750, 10717, 7851, 7339
10331, 6853, 18, 6419, 20, 10750, 6521, 9039, 10404, 449, 6522
10332, 18, 6807, 6853, 6828, 10751, 10019, 10750, 10434, 9624, 10394
10333, 6853, 6807, 18, 20, 10019, 10751, 10750, 10404, 10726, 449
10334, 18, 444, 6807, 6828, 2194, 9621, 10751, 10434, 9623, 9624
10335, 6807, 444, 18, 20, 9621, 2194, 10751, 10726, 448, 449
10336, 18, 6467, 6853, 6419, 6519, 9040, 10750, 6521, 6523, 9039
10337, 18, 6853, 6467, 6828, 10750, 9040, 6519, 10434, 10394, 10035
10338, 799, 1060, 80, 766, 10142, 10167, 10638, 10342, 9967, 768
10339, 6854, 6133, 390, 6134, 8071, 10613, 10752, 9578, 6300, 10642
10340, 6854, 390, 6133, 6828, 10752, 10613, 8071, 7413, 9509, 8070
10341, 399, 6854, 390, 6134, 10753, 10752, 2160, 10627, 9578, 10642
10342, 399, 390, 6854, 6828, 2160, 10752, 10753, 9508, 9509, 7413
10343, 408, 6854, 399, 6134, 10022, 10753, 2167, 10626, 9578, 10627
10344, 408, 399, 6854, 6828, 2167, 10753, 10022, 10480, 9508, 7413
10345, 517, 6900, 218, 496, 8703, 10615, 10742, 9397, 9742, 9998
10346, 517, 218, 6900, 1615, 10742, 10615, 8703, 10511, 4607, 8550
10347, 763, 3196, 81, 1060, 10636, 10754, 765, 10038, 9507, 10037
10348, 763, 81, 3196, 630, 765, 10754, 10636, 10393, 2569, 10206
10349, 760, 81, 3196, 1060, 761, 10754, 9978, 9979, 10037, 9507
10350, 760, 3196, 81, 630, 9978, 10754, 761, 10207, 10206, 2569
10351, 763, 799, 1060, 80, 10635, 10142, 10038, 764, 10638, 10167
10352, 1060, 799, 763, 3201, 10142, 10635, 10038, 9486, 10141, 10637
10353, 1453, 379, 6858, 6135, 10640, 8565, 9031, 6272, 10641, 9339
10354, 6858, 379, 1453, 388, 8565, 10640, 9031, 8564, 2151, 8924
10355, 6812, 451, 243, 6808, 10473, 10554, 10630, 9188, 10082, 10062
10356, 6812, 243, 451, 442, 10630, 10554, 10473, 10470, 9277, 2202
10357, 1923, 310, 5253, 263, 1925, 10755, 5257, 1924, 9073, 5255
10358, 1923, 5253, 310, 5252, 5257, 10755, 1925, 5260, 10648, 5258
10359, 6823, 5253, 310, 263, 10428, 10755, 9075, 9074, 5255, 9073
10360, 6823, 310, 5253, 5252, 9075, 10755, 10428, 10210, 5258, 10648
10361, 1216, 133, 3690, 1579, 1218, 3823, 10656, 10657, 10321, 9053
10362, 3690, 133, 1216, 1180, 3823, 1218, 10656, 3824, 1183, 6793
10363, 3690, 1172, 6123, 1591, 3822, 6270, 10756, 9051, 6145, 6217
10364, 6123, 1172, 3690, 1180, 6270, 3822, 10756, 10034, 3839, 3824
10365, 6123, 1216, 3690, 1591, 9692, 10656, 10756, 6217, 9691, 9051
10366, 3690, 1216, 6123, 1180, 10656, 9692, 10756, 3824, 6793, 10034
10367, 159, 6120, 6882, 1804, 10658, 9770, 10728, 7691, 9350, 9832
10368, 159, 6882, 6120, 4088, 10728, 9770, 10658, 4092, 10702, 9797
10369, 6120, 6106, 4088, 6882, 6158, 10757, 9797, 9770, 9771, 10702
10370, 6120, 4088, 6106, 4094, 9797, 10757, 6158, 9798, 9796, 9909
10371, 6106, 157, 1310, 6882, 10661, 1311, 10758, 9771, 10099, 10272
10372, 6106, 1310, 157, 4094, 10758, 1311, 10661, 9909, 4097, 4096
10373, 158, 6106, 1310, 6882, 10759, 10758, 1312, 10547, 9771, 10272
10374, 158, 1310, 6106, 4094, 1312, 10758, 10759, 4098, 4097, 9909
10375, 4088, 6106, 158, 6882, 10757, 10759, 4090, 10702, 9771, 10547
10376, 4088, 158, 6106, 4094, 4090, 10759, 10757, 9796, 4098, 9909
10377, 94, 801, 1075, 91, 811, 8640, 10274, 10455, 10528, 10204
10378, 1075, 801, 94, 3404, 8640, 811, 10274, 9836, 6953, 6952
10379, 143, 6840, 4178, 6850, 10663, 7743, 4180, 9854, 8737, 8970
10380, 143, 4178, 6840, 1380, 4180, 7743, 10663, 1381, 4181, 9192
10381, 6850, 6113, 1417, 1581, 8095, 10760, 9948, 8519, 7765, 10106
10382, 6850, 1417, 6113, 4196, 9948, 10760, 8095, 8097, 9518, 8093
10383, 140, 1417, 6113, 1581, 8242, 10760, 10664, 8706, 10106, 7765
10384, 140, 6113, 1417, 4196, 10664, 10760, 8242, 4198, 8093, 9518
10385, 1755, 6110, 1370, 6840, 8130, 10761, 8784, 9404, 8676, 10055
10386, 1755, 1370, 6110, 4166, 8784, 10761, 8130, 8129, 4169, 8128
10387, 145, 1370, 6110, 6840, 1371, 10761, 10666, 9617, 10055, 8676
10388, 145, 6110, 1370, 4166, 10666, 10761, 1371, 4168, 8128, 4169
10389, 174, 175, 4895, 1780, 1353, 10762, 9915, 6182, 6181, 4943
10390, 174, 4895, 175, 4148, 9915, 10762, 1353, 4153, 9839, 4149
10391, 1756, 4895, 175, 1780, 4942, 10762, 10670, 4939, 4943, 6181
10392, 1756, 175, 4895, 4148, 10670, 10762, 4942, 9837, 4149, 9839
10393, 5428, 5436, 6899, 5441, 5463, 7651, 10763, 5493, 5492, 9637
10394, 6899, 5436, 5428, 1578, 7651, 5463, 10763, 9195, 9698, 9673
10395, 6899, 1415, 5428, 5441, 9965, 10549, 10763, 9637, 10688, 5493
10396, 5428, 1415, 6899, 1578, 10549, 9965, 10763, 9673, 9485, 9195
10397, 139, 6125, 1405, 1580, 10665, 10764, 1407, 8637, 7662, 10018
10398, 139, 1405, 6125, 4208, 1407, 10764, 10665, 4212, 4211, 10224
10399, 138, 1405, 6125, 1580, 1406, 10764, 10672, 10017, 10018, 7662
10400, 138, 6125, 1405, 4208, 10672, 10764, 1406, 4210, 10224, 4211
10401, 1412, 1988, 5881, 1800, 10678, 10765, 8408, 8213, 5532, 8314
10402, 1412, 5881, 1988, 5876, 8408, 10765, 10678, 6994, 5932, 5899
10403, 5868, 5881, 1988, 1800, 5933, 10765, 5901, 9761, 8314, 5532
10404, 5868, 1988, 5881, 5876, 5901, 10765, 5933, 5903, 5899, 5932
10405, 1413, 5968, 5962, 1947, 10112, 5986, 10766, 10262, 9821, 9411
10406, 5962, 5968, 1413, 5958, 5986, 10112, 10766, 6024, 6023, 10158
10407, 1413, 5973, 5962, 5958, 10454, 6016, 10766, 10158, 6025, 6024
10408, 1948, 1413, 5962, 1947, 8710, 10766, 8212, 1954, 10262, 9411
10409, 1948, 5962, 1413, 5973, 8212, 10766, 8710, 8210, 6016, 10454
10410, 6861, 361, 6471, 6819, 10679, 6600, 9314, 9559, 9817, 7177
10411, 6861, 6471, 361, 360, 9314, 6600, 10679, 10273, 6599, 2102
10412, 6809, 332, 6832, 333, 10066, 10767, 9580, 10067, 1869, 8711
10413, 6809, 6832, 332, 2018, 9580, 10767, 10066, 8092, 9581, 10145
10414, 352, 332, 6832, 2018, 5569, 10767, 10680, 5568, 10145, 9581
10415, 352, 6832, 6474, 6885, 10680, 10768, 6592, 9672, 9582, 7998
10416, 352, 6474, 6832, 353, 6592, 10768, 10680, 2028, 6593, 10287
10417, 6430, 6474, 6832, 6885, 6597, 10768, 8857, 7393, 7998, 9582
10418, 6430, 6832, 6474, 353, 8857, 10768, 6597, 6595, 10287, 6593
10419, 353, 6832, 332, 333, 10287, 10767, 2027, 5570, 8711, 1869
10420, 353, 332, 6832, 352, 2027, 10767, 10287, 2028, 5569, 10680
10421, 800, 104, 967, 898, 10682, 974, 10769, 2770, 2870, 2871
10422, 967, 104, 800, 3194, 974, 10682, 10769, 3215, 3212, 9777
10423, 967, 3200, 800, 898, 3235, 9778, 10769, 2871, 7181, 2770
10424, 800, 3200, 967, 3194, 9778, 3235, 10769, 9777, 3238, 3215
10425, 5441, 1435, 5613, 6899, 10687, 5667, 10770, 9637, 10069, 9649
10426, 5441, 5613, 1435, 5438, 10770, 5667, 10687, 5512, 7079, 7370
10427, 1962, 5441, 5613, 6899, 10771, 10770, 5699, 8434, 9637, 9649
10428, 1962, 5613, 5441, 5438, 5699, 10770, 10771, 5478, 7079, 5512
10429, 5433, 5441, 1962, 6899, 5511, 10771, 5474, 7650, 9637, 8434
10430, 5433, 1962, 5441, 5438, 5474, 10771, 5511, 5479, 5478, 5512
10431, 1416, 1415, 5445, 5428, 1425, 10772, 10195, 10194, 10549, 5490
10432, 1416, 5445, 1415, 1435, 10195, 10772, 1425, 4278, 10491, 4279
10433, 5441, 5445, 1415, 5428, 5494, 10772, 10688, 5493, 5490, 10549
10434, 5441, 1415, 5445, 1435, 10688, 10772, 5494, 10687, 4279, 10491
10435, 6808, 6814, 451, 460, 9935, 10693, 10082, 10047, 10475, 2208
10436, 6812, 6814, 6808, 6835, 10724, 9935, 9188, 10103, 10202, 10104
10437, 6812, 6808, 6814, 451, 9188, 9935, 10724, 10473, 10082, 10693
10438, 5068, 129, 3645, 245, 5069, 3814, 10773, 5071, 1864, 10694
10439, 3645, 129, 5068, 3658, 3814, 5069, 10773, 3816, 3813, 8942
10440, 3645, 6825, 5068, 245, 10703, 8943, 10773, 10694, 7979, 5071
10441, 5068, 6825, 3645, 3658, 8943, 10703, 10773, 8942, 7721, 3816
10442, 6436, 345, 6138, 6854, 10695, 10125, 10042, 9166, 9297, 9667
10443, 6436, 6138, 345, 5559, 10042, 10125, 10695, 10238, 9450, 5560
10444, 6853, 22, 453, 20, 10347, 457, 10713, 10404, 458, 2200
10445, 453, 22, 6853, 6818, 457, 10347, 10713, 10140, 10478, 9931
10446, 795, 2862, 3497, 2837, 10698, 7058, 8987, 8989, 2907, 8985
10447, 795, 3497, 2862, 6902, 8987, 7058, 10698, 9903, 8554, 8552
*NSET, NSET=FIX
238,
281,
336,
357,
362,
1577,
1582,
1583,
1589,
1729,
1735,
1752,
1753,
1759,
1950,
1951,
1952,
1957,
1958,
1960,
1961,
1966,
1967,
1973,
1975,
2036,
2037,
2043,
2045,
2046,
2047,
2052,
2053,
2058,
2059,
2060,
2061,
2062,
2063,
2064,
2065,
2066,
2067,
2068,
2069,
2070,
2072,
2073,
2074,
2075,
2079,
2080,
2081,
2087,
2088,
2089,
2094,
2095,
2105,
2106,
2107,
2108,
2109,
2110,
2111,
2112,
2113,
2114,
2115,
2116,
2117,
2118,
4543,
4544,
4550,
4562,
4565,
4566,
4867,
4868,
4869,
4870,
4889,
4890,
4914,
4928,
4936,
4937,
5354,
5367,
5407,
5410,
5411,
5412,
5429,
5433,
5439,
5440,
5444,
5446,
5447,
5448,
5449,
5450,
5453,
5454,
5455,
5456,
5457,
5475,
5476,
5495,
5518,
5519,
5576,
5583,
5584,
5585,
5586,
5587,
5588,
5589,
5590,
5591,
5594,
5595,
5596,
5597,
5598,
5599,
5601,
5603,
5604,
5605,
5607,
5608,
5609,
5610,
5611,
5612,
5614,
5616,
5617,
5618,
5619,
5620,
5626,
5627,
5628,
5629,
5630,
5635,
5636,
5637,
5638,
5639,
5640,
5643,
5652,
5693,
5694,
5696,
5697,
5698,
5703,
5705,
5706,
5707,
5708,
5709,
5710,
5711,
5712,
5713,
5716,
5717,
5718,
5719,
5720,
5721,
5722,
5723,
5724,
5725,
5726,
5727,
5728,
5729,
5730,
5731,
5732,
5733,
5734,
5735,
5736,
5737,
5738,
5739,
5740,
5741,
5742,
5743,
5744,
5745,
5747,
5748,
5750,
5751,
5752,
5753,
5754,
5755,
5756,
5760,
5761,
5763,
5764,
5765,
5766,
5767,
5768,
5769,
5770,
5771,
5772,
5773,
5774,
5775,
5776,
5777,
5778,
5779,
5780,
5783,
5784,
5787,
5791,
5792,
5794,
5795,
5797,
5798,
5807,
5812,
5813,
5814,
5816,
5827,
5828,
5829,
5830,
5831,
5832,
5843,
5845,
5846,
5847,
5848,
5849,
5850,
5857,
5861,
5862,
5863,
5864,
5868,
5870,
5871,
5874,
5877,
5878,
5882,
5885,
5906,
5909,
5917,
5918,
5920,
5921,
5922,
5923,
5924,
5925,
5930,
5931,
5938,
5939,
5943,
5944,
5945,
5946,
5947,
5959,
5960,
5964,
5967,
5969,
5970,
5971,
5983,
5994,
5996,
5998,
5999,
6009,
6010,
6012,
6013,
6014,
6015,
6027,
6028,
6029,
6031,
6032,
6033,
6034,
6039,
6041,
6042,
6043,
6044,
6045,
6046,
6047,
6048,
6049,
6050,
6051,
6052,
6053,
6054,
6055,
6056,
6057,
6058,
6059,
6060,
6061,
6062,
6063,
6064,
6065,
6066,
6067,
6068,
6069,
6070,
6071,
6072,
6073,
6074,
6075,
6076,
6077,
6078,
6079,
6080,
6081,
6082,
6083,
6084,
6085,
6086,
6087,
6088,
6089,
*MATERIAL, NAME=MAT
*ELASTIC
3500, 0.36
*SOLID SECTION, ELSET=EALL, MATERIAL=MAT
*STEP
*STATIC
*BOUNDARY
FIX, 1, 3, 0.0
*CLOAD
969, 3, -0.039156521
970, 3, -0.035996863
981, 3, -0.0338836231
987, 3, -0.043126972
994, 3, -0.124667591
995, 3, -0.12850977
996, 3, -0.158448403
997, 3, -0.133554994
998, 3, -0.158482095
999, 3, -0.133856587
1000, 3, -0.124064288
1009, 3, -0.0375542819
1010, 3, -0.0386127052
1011, 3, -0.0387572584
1024, 3, -0.0369824677
1025, 3, -0.0382820993
1034, 3, -0.112886093
1040, 3, -0.113317604
1052, 3, -0.0482678491
1053, 3, -0.107790931
1063, 3, -0.108977929
1103, 3, -0.0241034911
1110, 3, -0.064749015
1111, 3, -0.107626716
1118, 3, -0.205136887
1119, 3, -0.196899771
1120, 3, -0.202450286
1121, 3, -0.199628099
1122, 3, -0.202166876
1123, 3, -0.19820722
1124, 3, -0.204204035
1150, 3, -0.0237614452
2874, 3, -0.0218689321
2875, 3, -0.0387857875
2876, 3, -0.0557789646
2877, 3, -0.0477999079
2878, 3, -0.0397587165
2879, 3, -0.0710359861
2880, 3, -0.111570389
2881, 3, -0.161823305
2882, 3, -0.183192631
2883, 3, -0.111221355
2884, 3, -0.0842424738
2887, 3, -0.0315533594
2896, 3, -0.0724862764
2937, 3, -0.0589795942
2938, 3, -0.0401979826
2939, 3, -0.0392508208
2940, 3, -0.0732429765
2941, 3, -0.0407562448
2942, 3, -0.0198344745
2943, 3, -0.0791994738
2946, 3, -0.0222245459
2948, 3, -0.0944612585
2949, 3, -0.059373679
2950, 3, -0.0222245459
2955, 3, -0.0223684054
2957, 3, -0.0740960434
2958, 3, -0.0505655528
2959, 3, -0.0223684054
2960, 3, -0.135721086
2961, 3, -0.129046908
2962, 3, -0.143428752
2963, 3, -0.0946666863
2964, 3, -0.131258874
2965, 3, -0.173794849
2966, 3, -0.154872633
2967, 3, -0.172037404
2968, 3, -0.186308651
2969, 3, -0.121777864
2970, 3, -0.130506695
2971, 3, -0.0757948945
2972, 3, -0.133733319
2973, 3, -0.127301224
2974, 3, -0.135711836
2975, 3, -0.138993019
2976, 3, -0.185744048
2977, 3, -0.170795288
2978, 3, -0.127233572
2979, 3, -0.135347373
2980, 3, -0.0967789261
2981, 3, -0.138123204
2982, 3, -0.152545221
2983, 3, -0.130046275
2984, 3, -0.12466362
2985, 3, -0.124073764
2986, 3, -0.152600442
2987, 3, -0.152904839
2988, 3, -0.193027574
2989, 3, -0.138880316
2991, 3, -0.0198087327
2992, 3, -0.0461568277
2994, 3, -0.0627235612
2995, 3, -0.0425714645
2996, 3, -0.066198477
2997, 3, -0.0694349923
2998, 3, -0.0427728352
2999, 3, -0.0198380345
3000, 3, -0.0627127875
3004, 3, -0.0199049009
3005, 3, -0.0413315777
3007, 3, -0.0403697105
3008, 3, -0.0525673244
3009, 3, -0.0651776501
3010, 3, -0.0663536776
3011, 3, -0.0513740443
3012, 3, -0.0589795942
3013, 3, -0.0348003182
3014, 3, -0.107286595
3015, 3, -0.0636603583
3016, 3, -0.0636603583
3017, 3, -0.0540126967
3018, 3, -0.0540126967
3019, 3, -0.0630970489
3020, 3, -0.0630970489
3021, 3, -0.054030942
3022, 3, -0.054030942
3023, 3, -0.039850382
3024, 3, -0.0397779869
3035, 3, -0.0652729519
3036, 3, -0.0644836691
3040, 3, -0.0644836691
3041, 3, -0.0652729519
3097, 3, -0.0643718992
3105, 3, -0.0643718992
3107, 3, -0.0607238256
3108, 3, -0.125095725
3140, 3, -0.0618462641
3141, 3, -0.0618462641
3213, 3, -0.011812227
3216, 3, -0.0187263622
3221, 3, -0.0365134891
3222, 3, -0.0326396975
3223, 3, -0.0305385892
3224, 3, -0.0330542542
3225, 3, -0.0318484071
3226, 3, -0.0279873551
3229, 3, -0.0168918657
3231, 3, -0.0285518781
3240, 3, -0.0189100116
3241, 3, -0.0237356557
3242, 3, -0.0189100116
3244, 3, -0.0333362412
3255, 3, -0.014963289
3257, 3, -0.0293895186
3258, 3, -0.0266233015
3259, 3, -0.0300242121
3265, 3, -0.0424620179
3266, 3, -0.0393336381
3269, 3, -0.0278993189
3270, 3, -0.023961349
3294, 3, -0.0554010837
3295, 3, -0.0321122602
3296, 3, -0.0562049427
3297, 3, -0.0561609663
3298, 3, -0.0270228246
3299, 3, -0.0385426151
3300, 3, -0.0450507462
3301, 3, -0.0418453272
3304, 3, -0.0235681879
3305, 3, -0.0235681879
3307, 3, -0.011769033
3308, 3, -0.0303255368
3320, 3, -0.0215265347
3323, 3, -0.0215265347
3345, 3, -0.0185565037
3368, 3, -0.110579679
3369, 3, -0.107687703
3370, 3, -0.108190302
3371, 3, -0.111026575
3372, 3, -0.109381265
3373, 3, -0.108980963
3374, 3, -0.112217538
3375, 3, -0.111872939
3376, 3, -0.107459952
3377, 3, -0.106448323
3378, 3, -0.107745729
3379, 3, -0.106829844
3380, 3, -0.107555414
3381, 3, -0.108148312
3382, 3, -0.107956539
3383, 3, -0.107841473
3384, 3, -0.110665966
3385, 3, -0.111308515
3386, 3, -0.111110643
3387, 3, -0.107711611
3388, 3, -0.110073067
3389, 3, -0.10708339
3390, 3, -0.108150184
3391, 3, -0.108069586
3392, 3, -0.108171577
3393, 3, -0.110102341
3394, 3, -0.107281261
3395, 3, -0.106500229
3396, 3, -0.108349666
3397, 3, -0.10841604
3398, 3, -0.109047814
3399, 3, -0.110182939
3400, 3, -0.107471596
3401, 3, -0.107198377
3436, 3, -0.0362684336
3437, 3, -0.0177455492
3439, 3, -0.0378942967
3440, 3, -0.0374989258
3441, 3, -0.0323206053
3442, 3, -0.0189192239
3443, 3, -0.0378374793
3444, 3, -0.0323572176
3457, 3, -0.0132637086
3460, 3, -0.0131588908
3465, 3, -0.0132637086
3466, 3, -0.0266238994
3472, 3, -0.0265190817
3473, 3, -0.0131588908
3480, 3, -0.0134389623
3481, 3, -0.0266917243
3482, 3, -0.0270504829
3483, 3, -0.0137977209
3484, 3, -0.0266129528
3515, 3, -0.021744053
3532, 3, -0.034603913
3533, 3, -0.0170775668
3535, 3, -0.0410831186
3536, 3, -0.0368654118
3537, 3, -0.0308167198
3538, 3, -0.045722143
3549, 3, -0.0208596115
3551, 3, -0.0208596115
3553, 3, -0.0340490433
3560, 3, -0.0268323726
3561, 3, -0.0271373195
3562, 3, -0.0138469459
3564, 3, -0.0262496744
3567, 3, -0.02397809
3568, 3, -0.037520089
3571, 3, -0.0267314309
3572, 3, -0.0255921603
3575, 3, -0.0124027285
3576, 3, -0.0480446523
3577, 3, -0.0721481433
3578, 3, -0.0725059146
3579, 3, -0.0484024235
3594, 3, -0.0470671057
3601, 3, -0.0482678491
3602, 3, -0.0720292942
3603, 3, -0.0708285509
3609, 3, -0.0471316652
3610, 3, -0.0471316652
3633, 3, -0.290735005
3634, 3, -0.295361384
3635, 3, -0.290811535
3636, 3, -0.288799157
3637, 3, -0.292633539
3638, 3, -0.29258295
3639, 3, -0.289559384
*NODE FILE
U
*EL FILE
S
*END STEP
