*NODE, NSET=NALL
1, 28.5569594, -18.9740938, -9.5
2, 28.5569594, -18.9740938, 9.5
3, 28, -19, 9.5
4, 28, -19, -9.5
5, 29.1091091, -18.8965988, -9.5
6, 29.1091091, -18.8965988, 9.5
7, 29.6516813, -18.7681842, -9.5
8, 29.6516813, -18.7681842, 9.5
9, 30.1799905, -18.589959, -9.5
10, 30.1799905, -18.589959, 9.5
11, 30.6894746, -18.3634621, -9.5
12, 30.6894746, -18.3634621, 9.5
13, 31.175734, -18.0906496, -9.5
14, 31.175734, -18.0906496, 9.5
15, 31.6345696, -17.7738772, -9.5
16, 31.6345696, -17.7738772, 9.5
17, 32.0620192, -17.4158804, -9.5
18, 32.0620192, -17.4158804, 9.5
19, 32.4543916, -17.0197507, -9.5
20, 32.4543916, -17.0197507, 9.5
21, 32.8082985, -16.5889087, -9.5
22, 32.8082985, -16.5889087, 9.5
23, 33.1206837, -16.1270751, -9.5
24, 33.1206837, -16.1270751, 9.5
25, 33.3888497, -15.6382378, -9.5
26, 33.3888497, -15.6382378, 9.5
27, 33.6104808, -15.1266183, -9.5
28, 33.6104808, -15.1266183, 9.5
29, 33.783663, -14.5966346, -9.5
30, 33.783663, -14.5966346, 9.5
31, 33.906901, -14.0528632, -9.5
32, 33.906901, -14.0528632, 9.5
33, 33.9791304, -13.5, -9.5
34, 33.9791304, -13.5, 9.5
35, 34, -13.5, -9.5
36, 34, -13.5, 9.5
37, 34, 1.52771652e-15, -9.5
38, 34, 1.23999883, -9.41872618
39, 34, 2.45878093, -9.17629535
40, 34, 3.63549261, -8.77685556
41, 34, 4.75, -8.22724134
42, 34, 5.78323358, -7.53685673
43, 34, 6.71751442, -6.71751442
44, 34, 7.53685673, -5.78323358
45, 34, 8.22724134, -4.75
46, 34, 8.77685556, -3.63549261
47, 34, 9.17629535, -2.45878093
48, 34, 9.41872618, -1.23999883
49, 34, 9.5, -1.16341446e-15
50, 34, 9.41872618, 1.23999883
51, 34, 9.17629535, 2.45878093
52, 34, 8.77685556, 3.63549261
53, 34, 8.22724134, 4.75
54, 34, 7.53685673, 5.78323358
55, 34, 6.71751442, 6.71751442
56, 34, 5.78323358, 7.53685673
57, 34, 4.75, 8.22724134
58, 34, 3.63549261, 8.77685556
59, 34, 2.45878093, 9.17629535
60, 34, 1.23999883, 9.41872618
61, 34, -3.64302058e-16, 9.5
62, 34, -4.6291649e-16, -3.39
63, 34, -6, 2.61
64, 34, 6, 2.61
65, 34, 1.00665967e-15, 8.61
66, 37.99, -3.39435072e-13, -9.5
67, 37.99, 1.23999883, -9.41872618
68, 37.99, 2.45878093, -9.17629535
69, 38, -3.64302058e-16, 9.5
70, 38.5, 2.32682892e-15, 9.5
71, 38, 1.52771652e-15, -9.5
72, 37.99, 3.63549261, -8.77685556
73, 37.99, 4.75, -8.22724134
74, 37.99, 5.78323358, -7.53685673
75, 37.99, 6.71751442, -6.71751442
76, 37.99, 7.53685673, -5.78323358
77, 37.99, 8.22724134, -4.75
78, 37.99, 8.77685556, -3.63549261
79, 37.99, 9.17629535, -2.45878093
80, 37.99, 9.41872618, -1.23999883
81, 37.99, 9.5, 1.66856653e-13
82, 37.99, 9.41872618, 1.23999883
83, 37.99, 9.17629535, 2.45878093
84, 37.99, 8.77685556, 3.63549261
85, 37.99, 8.22724134, 4.75
86, 37.99, 7.53685673, 5.78323358
87, 37.99, 6.71751442, 6.71751442
88, 37.99, 5.78323358, 7.53685673
89, 37.99, 4.75, 8.22724134
90, 37.99, 3.63549261, 8.77685556
91, 37.99, 2.45878093, 9.17629535
92, 37.99, 1.23999883, 9.41872618
93, 37.99, 2.32682892e-15, 9.5
94, 38.5, 1.95943488e-15, 8
95, 34.55, -4.6291649e-16, -3.39
96, 34.55, -6, 2.61
97, 34.55, 6, 2.61
98, 34.55, 1.00665967e-15, 8.61
99, 40.45, 1.95943488e-15, 8
100, 34.55, -5.09453068e-16, -3.58
101, 34.55, -6, 2.42
102, 34.55, 6, 2.42
103, 34.55, 9.60123091e-16, 8.42
104, 40.45, 6, 1.2
105, 40.45, -8.08266887e-16, -4.8
106, 40.45, 7.34788079e-16, 3
107, 40.45, 6.61309272e-16, 7.2
108, 40.45, -6, 1.2
109, 37.5, -5.09453068e-16, -3.58
110, 37.5, -6, 2.42
111, 37.5, 6, 2.42
112, 37.5, 9.60123091e-16, 8.42
113, 37.5, 6, 1.2
114, 37.5, -8.08266887e-16, -4.8
115, 38.5, 7.34788079e-16, 3
116, 37.5, 6.61309272e-16, 7.2
117, 37.5, -6, 1.2
118, 38, -13.5, -9.5
119, 37.9614778, -14.2841371, -9.5
120, 37.8462822, -15.0607226, -9.5
121, 37.6555227, -15.8222774, -9.5
122, 37.3910363, -16.5614675, -9.5
123, 37.0553701, -17.2711739, -9.5
124, 36.6517569, -17.9445619, -9.5
125, 36.1840836, -18.5751463, -9.5
126, 35.6568542, -19.1568542, -9.5
127, 35.0751463, -19.6840836, -9.5
128, 34.4445619, -20.1517569, -9.5
129, 34, -20.418217, -9.5
130, 34, -21.5, -9.5
131, 17.5, -21.5, -9.5
132, 17.5, -19.01, -9.5
133, 17.5, -19, -9.5
134, 17.5, -19, 9.5
135, 17.5, -18.5, 9.5
136, 25.5777472, -19, 5
137, 25.5777472, -19, -5
138, 16.2600012, -19.01, -9.41872618
139, 15.0412191, -19.01, -9.17629535
140, 13.8645074, -19.01, -8.77685556
141, 12.75, -19.01, -8.22724134
142, 11.7167664, -19.01, -7.53685673
143, 10.7824856, -19.01, -6.71751442
144, 9.96314327, -19.01, -5.78323358
145, 9.27275866, -19.01, -4.75
146, 8.72314444, -19.01, -3.63549261
147, 8.32370465, -19.01, -2.45878093
148, 8.08127382, -19.01, -1.23999883
149, 8, -19.01, -1.22853825e-13
150, 8.08127382, -19.01, 1.23999883
151, 8.32370465, -19.01, 2.45878093
152, 8.72314444, -19.01, 3.63549261
153, 9.27275866, -19.01, 4.75
154, 9.96314327, -19.01, 5.78323358
155, 10.7824856, -19.01, 6.71751442
156, 11.7167664, -19.01, 7.53685673
157, 12.75, -19.01, 8.22724134
158, 13.8645074, -19.01, 8.77685556
159, 15.0412191, -19.01, 9.17629535
160, 16.2600012, -19.01, 9.41872618
161, 17.5, -19.01, 9.5
162, 16.2600012, -21.5, 9.41872618
163, 17.5, -21.5, 9.5
164, 15.0412191, -21.5, 9.17629535
165, 13.8645074, -21.5, 8.77685556
166, 12.75, -21.5, 8.22724134
167, 11.7167664, -21.5, 7.53685673
168, 10.7824856, -21.5, 6.71751442
169, 9.96314327, -21.5, 5.78323358
170, 9.27275866, -21.5, 4.75
171, 8.72314444, -21.5, 3.63549261
172, 8.32370465, -21.5, 2.45878093
173, 8.08127382, -21.5, 1.23999883
174, 8, -21.5, 2.38929922e-15
175, 8.08127382, -21.5, -1.23999883
176, 8.32370465, -21.5, -2.45878093
177, 8.72314444, -21.5, -3.63549261
178, 9.27275866, -21.5, -4.75
179, 9.96314327, -21.5, -5.78323358
180, 10.7824856, -21.5, -6.71751442
181, 11.7167664, -21.5, -7.53685673
182, 12.75, -21.5, -8.22724134
183, 13.8645074, -21.5, -8.77685556
184, 15.0412191, -21.5, -9.17629535
185, 16.2600012, -21.5, -9.41872618
186, 17.5, -18.5, 8
187, 17.5, -16.55, 8
188, 36.1840836, -18.5751463, -5
189, 36, -18.7782513, -5
190, 36, -21.5, -5
191, 19.7037241, -21.5, -5
192, 19.7037241, -24, -5
193, 33, -24, -5
194, 33.441018, -23.9771282, -5
195, 33.8287211, -23.9147499, -5
196, 34.2084432, -23.8146704, -5
197, 34.5765273, -23.6778536, -5
198, 34.9294286, -23.505617, -5
199, 35.2637484, -23.2996195, -5
200, 35.5762671, -23.0618447, -5
201, 35.863975, -22.7945828, -5
202, 36.1241011, -22.5004075, -5
203, 36.3541405, -22.1821519, -5
204, 36.5518777, -21.8428809, -5
205, 36.7154084, -21.4858621, -5
206, 36.8431576, -21.1145335, -5
207, 36.9338951, -20.7324714, -5
208, 36.9867471, -20.3433552, -5
209, 37.0012045, -19.9509323, -5
210, 37, -17.3635534, -5
211, 36.6517569, -17.9445619, -5
212, 35.6568542, -19.1568542, -5.02965714
213, 37.0553701, -17.2711739, -4.9984659
214, 38, -20, -4
215, 38, -13.5, -4
216, 37.3910363, -16.5614675, -4.92037527
217, 37.6555227, -15.8222774, -4.75517548
218, 37.8462822, -15.0607226, -4.5327348
219, 37.9614778, -14.2841371, -4.27488255
220, 37.9759236, -20.4900857, -4
221, 37.9039264, -20.9754516, -4
222, 37.7847017, -21.4514234, -4
223, 37.6193977, -21.9134172, -4
224, 37.4096063, -22.3569837, -4
225, 37.1573481, -22.7778512, -4
226, 36.8650523, -23.1719664, -4
227, 36.5355339, -23.5355339, -4
228, 36.1719664, -23.8650523, -4
229, 35.7778512, -24.1573481, -4
230, 35.3569837, -24.4096063, -4
231, 34.9134172, -24.6193977, -4
232, 34.4514234, -24.7847017, -4
233, 33.9754516, -24.9039264, -4
234, 33.4900857, -24.9759236, -4
235, 33, -25, -4
236, 18.8624977, -25, -4
237, 17.5, -25, -3.58
238, 17.5, -19.5, -3.58
239, 15.5327527, -21.5, -4.59062488
240, 15.5327527, -24, -4.59062488
241, 15.6712066, -24.6258638, -4.41509794
242, 16.4289364, -25, -3.82992561
243, 35.0751463, -19.6840836, -5.22668514
244, 34.4445619, -20.1517569, -5.74277599
245, 34, -20.418217, -7
246, 34, -21.5, -7
247, 37.9759236, -20.4900857, 4
248, 38, -20, 4
249, 37.9039264, -20.9754516, 4
250, 37.7847017, -21.4514234, 4
251, 37.6193977, -21.9134172, 4
252, 37.4096063, -22.3569837, 4
253, 37.1573481, -22.7778512, 4
254, 36.8650523, -23.1719664, 4
255, 36.5355339, -23.5355339, 4
256, 36.1719664, -23.8650523, 4
257, 35.7778512, -24.1573481, 4
258, 35.3569837, -24.4096063, 4
259, 34.9134172, -24.6193977, 4
260, 34.4514234, -24.7847017, 4
261, 33.9754516, -24.9039264, 4
262, 33.4900857, -24.9759236, 4
263, 33, -25, 4
264, 15.9711179, -25, -3.69104787
265, 15.2804072, -25, -3.32185532
266, 14.6749943, -25, -2.82500574
267, 14.1781447, -25, -2.21959277
268, 13.8089521, -25, -1.52888209
269, 13.6700744, -25, -1.07106355
270, 13.6700744, -25, 1.07106355
271, 13.8089521, -25, 1.52888209
272, 14.1781447, -25, 2.21959277
273, 14.6749943, -25, 2.82500574
274, 15.2804072, -25, 3.32185532
275, 15.9711179, -25, 3.69104787
276, 16.4289364, -25, 3.82992561
277, 18.8624977, -25, 4
278, 23.5, -25, 2.42
279, 14.7221488, -24, -4.15734806
280, 14.7221488, -21.5, -4.15734806
281, 17.5, -19.5, -4.8
282, 13.9644661, -24, -3.53553391
283, 13.9644661, -21.5, -3.53553391
284, 13.3426519, -24, -2.77785117
285, 13.3426519, -21.5, -2.77785117
286, 12.9093751, -24, -1.96724726
287, 12.9093751, -21.5, -1.96724726
288, 11.5, -21.5, 2.42
289, 11.5, -19.5, 2.42
290, 12.9093751, -21.5, 1.96724726
291, 12.9093751, -24, 1.96724726
292, 13.0849021, -24.6258638, 1.82879345
293, 13.0849021, -24.6258638, -1.82879345
294, 13.3426519, -24, 2.77785117
295, 13.3426519, -21.5, 2.77785117
296, 13.9644661, -24, 3.53553391
297, 13.9644661, -21.5, 3.53553391
298, 14.7221488, -24, 4.15734806
299, 14.7221488, -21.5, 4.15734806
300, 15.5327527, -24, 4.59062488
301, 15.5327527, -21.5, 4.59062488
302, 17.5, -21.5, 8.42
303, 17.5, -19.5, 8.42
304, 19.7037241, -21.5, 5
305, 19.7037241, -24, 5
306, 15.6712066, -24.6258638, 4.41509794
307, 36.1840836, -18.5751463, 5
308, 36, -18.7782513, 5
309, 36, -21.5, 5
310, 33, -24, 5
311, 33.441018, -23.9771282, 5
312, 33.8287211, -23.9147499, 5
313, 34.2084432, -23.8146704, 5
314, 34.5765273, -23.6778536, 5
315, 34.9294286, -23.505617, 5
316, 35.2637484, -23.2996195, 5
317, 35.5762671, -23.0618447, 5
318, 35.863975, -22.7945828, 5
319, 36.1241011, -22.5004075, 5
320, 36.3541405, -22.1821519, 5
321, 36.5518777, -21.8428809, 5
322, 36.7154084, -21.4858621, 5
323, 36.8431576, -21.1145335, 5
324, 36.9338951, -20.7324714, 5
325, 36.9867471, -20.3433552, 5
326, 37.0012045, -19.9509323, 5
327, 37, -17.3635534, 5
328, 36.6517569, -17.9445619, 5
329, 37.9614778, -14.2841371, 4.27488255
330, 38, -13.5, 4
331, 37.8462822, -15.0607226, 4.5327348
332, 37.6555227, -15.8222774, 4.75517548
333, 37.3910363, -16.5614675, 4.92037527
334, 37.0553701, -17.2711739, 4.9984659
335, 23.5, -19.5, 2.42
336, 17.5, -16.55, -4.8
337, 11.5, -19.5, 1.2
338, 17.5, -19.5, 7.2
339, 35.6568542, -19.1568542, 5.02965714
340, 35.6568542, -19.1568542, 9.5
341, 36.1840836, -18.5751463, 9.5
342, 36.6517569, -17.9445619, 9.5
343, 37.0553701, -17.2711739, 9.5
344, 34, -21.5, 7
345, 34, -20.418217, 7
346, 34.4445619, -20.1517569, 5.74277599
347, 35.0751463, -19.6840836, 5.22668514
348, 34, -21.5, 9.5
349, 34, -20.418217, 9.5
350, 37.9614778, -14.2841371, 9.5
351, 38, -13.5, 9.5
352, 37.8462822, -15.0607226, 9.5
353, 37.6555227, -15.8222774, 9.5
354, 37.3910363, -16.5614675, 9.5
355, 23.5, -19.5, 1.2
356, 11.5, -16.55, 1.2
357, 17.5, -16.55, 3
358, 17.5, -16.55, 7.2
359, 23.5, -16.55, 1.2
360, 35.0751463, -19.6840836, 9.5
361, 34.4445619, -20.1517569, 9.5
362, 17.5, -18.5, 3
363, 28.5569594, -18.9740938, -4.75019193
364, 28.5569594, -18.9740938, 0.00109485758
365, 28.5569594, -18.9740938, 4.75
366, 28.5569594, -18.9740938, -7.12491113
367, 28.5569594, -18.9740938, -2.37398781
368, 28.5569594, -18.9740938, 2.37503149
369, 28.5569594, -18.9740938, 7.12510704
370, 28.2783608, -18.9870524, 9.5
371, 28, -19, -4.75010379
372, 28, -19, -0.00338768488
373, 28, -19, 4.75
374, 28, -19, -7.12562251
375, 28, -19, -2.37433476
376, 28, -19, 2.37635429
377, 28, -19, 7.12551583
378, 28.2783874, -18.9870512, -9.5
379, 29.1091091, -18.8965988, -4.75
380, 29.1091091, -18.8965988, -0.000211793786
381, 29.1091091, -18.8965988, 4.75
382, 29.1091091, -18.8965988, -7.125
383, 29.1091091, -18.8965988, -2.37520385
384, 29.1091091, -18.8965988, 2.37483492
385, 29.1091091, -18.8965988, 7.12510496
386, 28.8330055, -18.9353503, 9.5
387, 28.8330342, -18.9353463, -9.5
388, 29.6516813, -18.7681842, -4.75001328
389, 29.6516813, -18.7681842, -0.000347453935
390, 29.6516813, -18.7681842, 4.74849074
391, 29.6516813, -18.7681842, -7.12500392
392, 29.6516813, -18.7681842, -2.37410942
393, 29.6516813, -18.7681842, 2.37488213
394, 29.6516813, -18.7681842, 7.12510356
395, 29.3804271, -18.8323839, 9.5
396, 29.3803952, -18.8323915, -9.5
397, 30.1799905, -18.589959, -4.75000445
398, 30.1799905, -18.589959, -0.00102658688
399, 30.1799905, -18.589959, 4.75072464
400, 30.1799905, -18.589959, -7.12501075
401, 30.1799905, -18.589959, -2.3744692
402, 30.1799905, -18.589959, 2.37476056
403, 30.1799905, -18.589959, 7.12515403
404, 29.9158712, -18.6790597, 9.5
405, 29.9158391, -18.6790705, -9.5
406, 30.6894746, -18.3634621, -4.74987927
407, 30.6894746, -18.3634621, 0.000155720878
408, 30.6894746, -18.3634621, 4.75
409, 30.6894746, -18.3634621, -7.12497699
410, 30.6894746, -18.3634621, -2.37505705
411, 30.6894746, -18.3634621, 2.37472015
412, 30.6894746, -18.3634621, 7.125
413, 30.4347326, -18.4767106, 9.5
414, 30.4347326, -18.4767106, -9.5
415, 31.175734, -18.0906496, -4.74989075
416, 31.175734, -18.0906496, 0.000220511394
417, 31.175734, -18.0906496, 4.75
418, 31.175734, -18.0906496, -7.12505205
419, 31.175734, -18.0906496, -2.37505898
420, 31.175734, -18.0906496, 2.37464257
421, 31.175734, -18.0906496, 7.125
422, 30.9326043, -18.2270559, 9.5
423, 30.9326043, -18.2270559, -9.5
424, 31.6345696, -17.7738772, -4.74992125
425, 31.6345696, -17.7738772, -1.90253905e-05
426, 31.6345696, -17.7738772, 4.75
427, 31.6345696, -17.7738772, -7.12499233
428, 31.6345696, -17.7738772, -2.37501265
429, 31.6345696, -17.7738772, 2.3750662
430, 31.6345696, -17.7738772, 7.12516736
431, 31.4051518, -17.9322634, 9.5
432, 31.4051518, -17.9322634, -9.5
433, 32.0620192, -17.4158804, -4.75004513
434, 32.0620192, -17.4158804, -1.03815189e-05
435, 32.0620192, -17.4158804, 4.75010797
436, 32.0620192, -17.4158804, -7.12503845
437, 32.0620192, -17.4158804, -2.37501163
438, 32.0620192, -17.4158804, 2.37503651
439, 32.0620192, -17.4158804, 7.12523816
440, 31.8482777, -17.5948929, 9.5
441, 31.8482944, -17.5948788, -9.5
442, 32.4543916, -17.0197507, -4.75
443, 32.4543916, -17.0197507, -0.000119346915
444, 32.4543916, -17.0197507, 4.74995684
445, 32.4543916, -17.0197507, -7.125
446, 32.4543916, -17.0197507, -2.37499524
447, 32.4543916, -17.0197507, 2.37499838
448, 32.4543916, -17.0197507, 7.12495118
449, 32.2582054, -17.2178156, 9.5
450, 32.2582054, -17.2178156, -9.5
451, 32.8082985, -16.5889087, -4.75
452, 32.8082985, -16.5889087, 0.000392735135
453, 32.8082985, -16.5889087, 4.75
454, 32.8082985, -16.5889087, -7.125
455, 32.8082985, -16.5889087, -2.37467872
456, 32.8082985, -16.5889087, 2.37438546
457, 32.8082985, -16.5889087, 7.125
458, 32.631345, -16.8043297, 9.5
459, 32.631345, -16.8043297, -9.5
460, 33.1206837, -16.1270751, -4.75
461, 33.1206837, -16.1270751, 0.000133302436
462, 33.1206837, -16.1270751, 4.75
463, 33.1206837, -16.1270751, -7.125
464, 33.1206837, -16.1270751, -2.37563725
465, 33.1206837, -16.1270751, 2.37551682
466, 33.1206837, -16.1270751, 7.125
467, 32.9644911, -16.3579919, 9.5
468, 32.9644911, -16.3579919, -9.5
469, 33.3888497, -15.6382378, -4.75072451
470, 33.3888497, -15.6382378, 0.000273264789
471, 33.3888497, -15.6382378, 4.74624881
472, 33.3888497, -15.6382378, -7.1250731
473, 33.3888497, -15.6382378, -2.37540945
474, 33.3888497, -15.6382378, 2.37610074
475, 33.3888497, -15.6382378, 7.12492431
476, 33.25476, -15.8826686, 9.5
477, 33.2547667, -15.8826565, -9.5
478, 33.6104808, -15.1266183, -4.74890628
479, 33.6104808, -15.1266183, 5.20770758e-05
480, 33.6104808, -15.1266183, 4.751625
481, 33.6104808, -15.1266183, -7.12502878
482, 33.6104808, -15.1266183, -2.37504879
483, 33.6104808, -15.1266183, 2.37521887
484, 33.6104808, -15.1266183, 7.12496514
485, 33.4996501, -15.382463, 9.5
486, 33.4996588, -15.382443, -9.5
487, 33.783663, -14.5966346, -4.75120238
488, 33.783663, -14.5966346, 2.89340741e-05
489, 33.783663, -14.5966346, 4.75
490, 33.783663, -14.5966346, -7.12499394
491, 33.783663, -14.5966346, -2.37523416
492, 33.783663, -14.5966346, 2.3750803
493, 33.783663, -14.5966346, 7.125
494, 33.6970719, -14.8616265, 9.5
495, 33.6970719, -14.8616265, -9.5
496, 33.906901, -14.0528632, -4.75
497, 33.906901, -14.0528632, -2.37841537e-06
498, 33.906901, -14.0528632, 4.75
499, 33.906901, -14.0528632, -7.12510801
500, 33.906901, -14.0528632, -2.37496273
501, 33.906901, -14.0528632, 2.37510817
502, 33.906901, -14.0528632, 7.12536833
503, 33.845282, -14.3247489, 9.5
504, 33.8452793, -14.3247607, -9.5
505, 33.9791304, -13.5, -4.75
506, 33.9791304, -13.5, 1.10790227e-05
507, 33.9791304, -13.5, 4.75
508, 33.9791304, -13.5, -7.12503213
509, 33.9791304, -13.5, -2.37501377
510, 33.9791304, -13.5, 2.37496431
511, 33.9791304, -13.5, 7.125
512, 33.9430213, -13.7763887, 9.5
513, 33.9430157, -13.7764316, -9.5
514, 33.9895652, -13.5, -9.5
515, 34, -13.5, 4.75
516, 34, -13.5, 0.00118225872
517, 34, -13.5, -4.75
518, 34, -13.5, 7.125
519, 34, -13.5, 2.37358549
520, 34, -13.5, -2.37625265
521, 34, -13.5, -7.125
522, 33.9895669, -13.5, 9.5
523, 34, -9, -9.5
524, 34, -4.5, -9.5
525, 34, -11.25, -9.5
526, 34, -6.75, -9.5
527, 34, -2.25063785, -9.5
528, 34, 0.619999413, -9.45936309
529, 34, 1.84938988, -9.29751077
530, 34, 3.04776066, -8.97636367
531, 34, 4.1927463, -8.50204845
532, 34, 5.26661679, -7.88204903
533, 34, 6.250374, -7.12718558
534, 34, 7.12718558, -6.250374
535, 34, 7.8818771, -5.26687411
536, 34, 8.50140237, -4.19405642
537, 34, 8.97518184, -3.05124223
538, 34, 9.30295708, -1.82200942
539, 34, 9.45890404, -0.627003161
540, 34, 9.46179631, 0.582875677
541, 34, 9.29467136, 1.86366456
542, 34, 8.97551708, 3.05025465
543, 34, 8.5013875, 4.19408657
544, 34, 7.88128418, 5.26776148
545, 34, 7.12725455, 6.25029535
546, 34, 6.25062866, 7.12696224
547, 34, 5.26686593, 7.88188256
548, 34, 4.19245055, 8.5021943
549, 34, 3.04713677, 8.97657545
550, 34, 1.86474209, 9.29445702
551, 34, 0.591119087, 9.46125601
552, 34, -4.49221617, 9.5
553, 34, -8.99992205, 9.5
554, 34, -2.26950417, 9.5
555, 34, -6.75000899, 9.5
556, 34, -11.2502643, 9.5
557, 34, -2.04058017, -4.37269162
558, 34, -2.5458254, -6.57521564
559, 34, -1.13243656, -8.35152875
560, 34, 1.13243656, -8.35152875
561, 34, 2.54456185, -6.58077964
562, 34, 2.04058017, -4.37269162
563, 34, -1.13243656, -3.64847125
564, 34, -2.54298438, -5.41235178
565, 34, -2.02275254, -7.6494157
566, 34, 1.71233505e-14, -8.61
567, 34, 2.04058017, -7.62730838
568, 34, 2.54456185, -5.41922036
569, 34, 1.13243656, -3.64847125
570, 34, -8.03621283, 1.63276983
571, 34, -8.54652134, -0.572126786
572, 34, -7.14467201, -2.34559715
573, 34, -4.86756344, -2.35152875
574, 34, -3.45491434, -0.578479908
575, 34, -3.95941983, 1.62730838
576, 34, -7.13672826, 2.34945714
577, 34, -8.54591214, 0.574831619
578, 34, -8.02729397, -1.64383064
579, 34, -6.00074473, -2.60999989
580, 34, -3.96624878, -1.63583495
581, 34, -3.455169, 0.579599174
582, 34, -4.86972962, 2.35257069
583, 34, 3.95941983, 1.62730838
584, 34, 3.45543815, -0.580779638
585, 34, 4.86756344, -2.35152875
586, 34, 7.14556863, -2.34515938
587, 34, 8.54408938, -0.582845822
588, 34, 8.04431922, 1.62260868
589, 34, 4.86756344, 2.35152875
590, 34, 3.45528632, 0.580114015
591, 34, 3.95920579, -1.62703995
592, 34, 5.99513962, -2.60999547
593, 34, 8.03364342, -1.63596897
594, 34, 8.54177476, 0.592858371
595, 34, 7.13340469, 2.35106227
596, 34, -2.0398972, 7.62816443
597, 34, -2.54456185, 5.41922036
598, 34, -1.13243656, 3.64847125
599, 34, 1.13243656, 3.64847125
600, 34, 2.54456185, 5.41922036
601, 34, 2.04058017, 7.62730838
602, 34, -1.10054248, 8.36662339
603, 34, -2.5448116, 6.57968432
604, 34, -2.02621892, 4.35484442
605, 34, 1.85929266e-14, 3.39
606, 34, 2.03391932, 4.36437407
607, 34, 2.54262792, 6.58918865
608, 34, 1.13728685, 8.3491868
609, 35.9944895, 1.52771652e-15, -9.5
610, 37.99, 0.612756481, -9.45983782
611, 37.99, 0.296750318, -9.48054996
612, 37.99, 0.929042582, -9.43910733
613, 35.9913195, 1.23999883, -9.41872618
614, 37.99, 1.8472138, -9.29794361
615, 37.99, 1.52513101, -9.36200987
616, 37.99, 2.16387859, -9.23495507
617, 35.9910363, 2.45878093, -9.17629535
618, 37.99, 0.625173185, -9.47940707
619, 37.99, 0.206409805, -9.49775737
620, 37.99, 0.999752794, -9.44724798
621, 38.2471088, 2.32682892e-15, 9.5
622, 38.5, -4.74608086, 8.22950281
623, 38.5, -8.22328001, 4.75685462
624, 38.5, -9.5, 0.000189594848
625, 38.5, -8.22665432, -4.7510166
626, 38.5, -4.74821356, -8.22827248
627, 38.5, 0.00643632816, -9.49999782
628, 38.5, 4.73562868, -8.2355219
629, 38.5, 8.22333818, -4.75675406
630, 38.5, 9.49999987, 0.00159584122
631, 38.5, 8.21887186, 4.76446695
632, 38.5, 4.75, 8.22724134
633, 38.5, -2.47034841, 9.17318804
634, 38.5, -6.72194096, 6.71308497
635, 38.5, -9.17652376, 2.45792833
636, 38.5, -9.17614623, -2.4593374
637, 38.5, -6.72157699, -6.71344939
638, 38.5, -2.46953316, -9.17340755
639, 38.5, 2.47184014, -9.17278618
640, 38.5, 6.72383701, -6.71118588
641, 38.5, 9.177015, -2.45609359
642, 38.5, 9.1766157, 2.45758507
643, 38.5, 6.72205221, 6.71297357
644, 38.5, 2.46865841, 9.17364299
645, 38, -4.70077955, 8.25546314
646, 38, -8.22168427, 4.75961215
647, 38, -9.49999975, 0.00218596524
648, 38, -8.23230151, -4.74122472
649, 38, -4.70500611, -8.25305504
650, 38, -2.61683479, 9.13247916
651, 38, -6.71073611, 6.7242859
652, 38, -9.17860455, 2.45014664
653, 38, -9.17762927, -2.45379727
654, 38, -6.71157073, -6.72345286
655, 38, -2.614064, -9.13327266
656, 37.9949054, 1.52771652e-15, -9.5
657, 37.99, 1.85214817, -9.31770074
658, 37.99, 1.52037069, -9.37755154
659, 37.99, 2.2021625, -9.24123803
660, 37.99, 3.05892067, -8.99405383
661, 37.99, 2.70777202, -9.10593052
662, 37.99, 3.36850364, -8.88274638
663, 37.99, 4.20005818, -8.52112148
664, 37.99, 3.85331123, -8.68343207
665, 37.99, 4.53925743, -8.3453665
666, 37.99, 5.27955412, -7.89786732
667, 37.99, 4.95712508, -8.10412925
668, 37.99, 5.59343035, -7.67877183
669, 37.99, 6.26250707, -7.14359889
670, 37.99, 6.00387029, -7.36230545
671, 37.99, 6.52622725, -6.9035033
672, 37.99, 7.14600356, -6.25976302
673, 37.99, 6.90463092, -6.52503424
674, 37.99, 7.36451527, -6.00115946
675, 37.99, 7.89778898, -5.27967132
676, 37.99, 7.67408651, -5.59985681
677, 37.99, 8.10558222, -4.95474892
678, 37.99, 8.52117716, -4.19994521
679, 37.99, 8.34344688, -4.54278485
680, 37.99, 8.68512364, -3.84949702
681, 37.99, 8.99496041, -3.05625378
682, 37.99, 8.88042761, -3.3746119
683, 37.99, 9.10397878, -2.71432687
684, 37.99, 9.31816345, -1.8498189
685, 37.99, 9.24137391, -2.20159219
686, 37.99, 9.37830306, -1.51572808
687, 37.99, 9.47970243, -0.620678479
688, 37.99, 9.44625119, -1.00912759
689, 37.99, 9.49708232, -0.235430312
690, 37.99, 9.47966381, 0.621268164
691, 37.99, 9.49693747, 0.241202644
692, 37.99, 9.44668592, 1.00504984
693, 37.99, 9.31801878, 1.8505475
694, 37.99, 9.37705249, 1.52344562
695, 37.99, 9.23907814, 2.21120671
696, 37.99, 8.99488825, 3.05646615
697, 37.99, 9.10329066, 2.71663379
698, 37.99, 8.87990001, 3.37599996
699, 37.99, 8.52017795, 4.20197189
700, 37.99, 8.68427639, 3.85140799
701, 37.99, 8.34258629, 4.54436509
702, 37.99, 7.8978957, 5.27951167
703, 37.99, 8.10469007, 4.95620812
704, 37.99, 7.6784448, 5.59387928
705, 37.99, 7.1391811, 6.26754284
706, 37.99, 7.35509547, 6.01270077
707, 37.99, 6.88376515, 6.54704341
708, 37.99, 6.26378524, 7.14247817
709, 37.99, 6.51893687, 6.91038799
710, 37.99, 6.0267362, 7.34359931
711, 37.99, 5.27791721, 7.89896132
712, 37.99, 5.53353812, 7.7220435
713, 37.99, 5.01664458, 8.06742072
714, 37.99, 4.20174256, 8.52029104
715, 37.99, 4.478269, 8.37825201
716, 37.99, 3.92071678, 8.65320634
717, 37.99, 3.05367492, 8.99583623
718, 37.99, 3.34637546, 8.8911063
719, 37.99, 2.75770443, 9.09093319
720, 37.99, 1.84973631, 9.31817984
721, 37.99, 2.20364949, 9.24088356
722, 37.99, 1.52073389, 9.37749265
723, 37.99, 0.625932923, 9.47935694
724, 37.99, 0.998785003, 9.44735034
725, 37.99, 0.213557719, 9.49759933
726, 37.9948971, -3.64302058e-16, 9.5
727, 37.99, 0.592644761, 9.46115601
728, 37.99, 0.926441469, 9.43927782
729, 37.99, 0.287576755, 9.48115122
730, 37.99, 1.84846731, 9.29769428
731, 37.99, 2.16486076, 9.23475971
732, 37.99, 1.52886326, 9.36126747
733, 37.99, 3.04713677, 8.97657545
734, 37.99, 3.34131469, 8.87671551
735, 37.99, 2.75295885, 9.0764354
736, 37.99, 4.1927463, 8.50204845
737, 37.99, 4.47137315, 8.36464489
738, 37.99, 3.91411946, 8.639452
739, 37.99, 5.26661679, 7.88204903
740, 37.99, 5.52492518, 7.70945288
741, 37.99, 5.00830839, 8.05464519
742, 37.99, 6.250374, 7.12718558
743, 37.99, 6.49731746, 6.91062197
744, 37.99, 6.01680379, 7.33202115
745, 37.99, 7.12613758, 6.25156901
746, 37.99, 7.34220487, 6.00519149
747, 37.99, 6.91422619, 6.49320764
748, 37.99, 7.88604975, 5.2606293
749, 37.99, 8.06053434, 4.99949465
750, 37.99, 7.70995175, 5.52417857
751, 37.99, 8.50467612, 4.18741791
752, 37.99, 8.64267433, 3.90758522
753, 37.99, 8.36325052, 4.47420067
754, 37.99, 8.97540492, 3.05058505
755, 37.99, 9.07995761, 2.74258275
756, 37.99, 8.86961977, 3.36221806
757, 37.99, 9.29686769, 1.85262285
758, 37.99, 9.36077416, 1.53134331
759, 37.99, 9.23400937, 2.16863297
760, 37.99, 9.4597114, 0.614685287
761, 37.99, 9.48038661, 0.299242464
762, 37.99, 9.43888869, 0.932378382
763, 37.99, 9.45947381, -0.618310183
764, 37.99, 9.43882179, -0.933399076
765, 37.99, 9.48011667, -0.303360953
766, 37.99, 9.29919475, -1.84092394
767, 37.99, 9.23471236, -2.1650988
768, 37.99, 9.36225575, -1.52389488
769, 37.99, 8.97581458, -3.04937824
770, 37.99, 8.87079397, -3.35875899
771, 37.99, 9.07921906, -2.74475846
772, 37.99, 8.50121655, -4.19443322
773, 37.99, 8.36179635, -4.47714942
774, 37.99, 8.64085082, -3.91128294
775, 37.99, 7.88636562, -5.26015657
776, 37.99, 7.70832657, -5.52661083
777, 37.99, 8.06034881, -4.99977232
778, 37.99, 7.12718558, -6.250374
779, 37.99, 6.92235, -6.48394421
780, 37.99, 7.34162773, -6.00584959
781, 37.99, 6.250374, -7.12718558
782, 37.99, 6.00151096, -7.34543261
783, 37.99, 6.49102689, -6.91613866
784, 37.99, 5.26349595, -7.88413431
785, 37.99, 4.99977279, -8.06034849
786, 37.99, 5.52854679, -7.70703301
787, 37.99, 4.19960824, -8.49866451
788, 37.99, 3.9154929, -8.63877469
789, 37.99, 4.48290854, -8.35895627
790, 37.99, 3.04807551, -8.97625679
791, 37.99, 2.74068218, -9.08060277
792, 37.99, 3.35831385, -8.87094507
793, 38.5, -4.69805307, 6.47520636
794, 38.5, -7.60714915, 2.47614252
795, 38.5, -7.62840468, -2.4098635
796, 38.5, -4.6986486, -6.47477423
797, 38.5, 0.010893251, -7.99999258
798, 38.5, 4.70228202, -6.47213595
799, 38.5, 7.61818786, -2.44196924
800, 38.5, 7.61527763, 2.4510297
801, 38.5, 4.70228202, 6.47213595
802, 38.5, -2.48753864, 7.60343025
803, 38.5, -6.47700444, 4.69557382
804, 38.5, -7.99991347, -0.0372089644
805, 38.5, -6.47950748, -4.69211922
806, 38.5, -2.50139838, -7.5988819
807, 38.5, 2.52701269, -7.59040228
808, 38.5, 6.48683425, -4.68198477
809, 38.5, 7.99992267, -0.0351745496
810, 38.5, 6.47444414, 4.69910343
811, 38.5, 2.49590325, 7.60068859
812, 35.9904843, 3.63549261, -8.77685556
813, 35.9894918, 4.75, -8.22724134
814, 35.9894457, 1.23999883, 9.41872618
815, 35.9924098, -3.64302058e-16, 9.5
816, 35.9888521, 5.78323358, -7.53685673
817, 35.9948925, 2.45878093, 9.17629535
818, 35.995, 6.71751442, -6.71751442
819, 35.9943055, 3.63549261, 8.77685556
820, 35.9895566, 7.53685673, -5.78323358
821, 35.9967855, 4.75, 8.22724134
822, 35.9905109, 8.22724134, -4.75
823, 35.9949034, 5.78323358, 7.53685673
824, 35.9892178, 8.77685556, -3.63549261
825, 35.9899314, 6.71751442, 6.71751442
826, 35.9915467, 9.17629535, -2.45878093
827, 35.9920634, 7.53685673, 5.78323358
828, 35.9775977, 9.41872618, -1.23999883
829, 35.9921517, 8.22724134, 4.75
830, 35.9923131, 9.5, -1.60579684e-15
831, 35.9883245, 8.77685556, 3.63549261
832, 35.9914243, 9.41872618, 1.23999883
833, 35.9883135, 9.17629535, 2.45878093
834, 34.275, -4.6291649e-16, -3.39
835, 34.55, -2.04058017, -4.37269162
836, 34.55, -2.54456185, -6.58077964
837, 34.55, -1.13184064, -8.35181563
838, 34.55, 1.13243656, -8.35152875
839, 34.55, 2.54456185, -6.58077964
840, 34.55, 2.04058017, -4.37269162
841, 34.55, -1.11843993, -3.641782
842, 34.55, -2.54456185, -5.41922036
843, 34.55, -2.05229022, -7.61251507
844, 34.55, 0.00870318256, -8.60998549
845, 34.55, 2.04058017, -7.62730838
846, 34.55, 2.54456185, -5.41922036
847, 34.55, 1.13243656, -3.64847125
848, 34.2739242, -6, 2.61
849, 34.55, -8.07414044, 1.58431103
850, 34.55, -8.54820436, -0.564583502
851, 34.55, -7.14030694, -2.34772232
852, 34.55, -4.86756344, -2.35152875
853, 34.55, -3.45467501, -0.577425941
854, 34.55, -3.95941983, 1.62730838
855, 34.55, -7.10438472, 2.36483285
856, 34.55, -8.54616893, 0.573693115
857, 34.55, -8.02643919, -1.64488426
858, 34.55, -6.00394422, -2.60999702
859, 34.55, -3.96300762, -1.63179718
860, 34.55, -3.45636385, 0.584820614
861, 34.55, -4.87115342, 2.35325421
862, 34.275, 6, 2.61
863, 34.55, 3.95941983, 1.62730838
864, 34.55, 3.45543815, -0.580779638
865, 34.55, 4.86756344, -2.35152875
866, 34.55, 7.1358988, -2.34985828
867, 34.55, 8.5449935, -0.57888522
868, 34.55, 8.04296676, 1.62431119
869, 34.55, 4.86756344, 2.35152875
870, 34.55, 3.45596662, 0.583090165
871, 34.55, 3.96023305, -1.62832761
872, 34.55, 6.00113887, -2.60999975
873, 34.55, 8.03753349, -1.63112148
874, 34.55, 8.53851999, 0.606643433
875, 34.55, 7.13032606, 2.35254394
876, 34.275, 1.00665967e-15, 8.61
877, 34.55, -2.04486581, 7.62191979
878, 34.55, -2.54456185, 5.41922036
879, 34.55, -1.13243656, 3.64847125
880, 34.55, 1.13243656, 3.64847125
881, 34.55, 2.54456185, 5.41922036
882, 34.55, 2.04058017, 7.62730838
883, 34.55, -1.13069271, 8.35236774
884, 34.55, -2.54362373, 6.58487462
885, 34.55, -2.04058017, 4.37269162
886, 34.55, 1.85929266e-14, 3.39
887, 34.55, 2.04058017, 4.37269162
888, 34.55, 2.54456185, 6.58077964
889, 34.55, 1.13243656, 8.35152875
890, 39.4704655, 1.95943488e-15, 8
891, 40.45, -4.70901999, 6.46723517
892, 40.45, -7.62409347, 2.42346834
893, 40.45, -7.61667013, -2.44669904
894, 40.45, -4.70125762, -6.4728801
895, 40.45, -0.000309291982, -7.99999999
896, 40.45, 4.70228202, -6.47213595
897, 40.45, 7.6121767, -2.46064338
898, 40.45, 7.62736321, 2.41315778
899, 40.45, 4.70228202, 6.47213595
900, 40.45, -2.47094419, 7.60883926
901, 40.45, -6.47048239, 4.70455712
902, 40.45, -7.99994473, 0.0297386384
903, 40.45, -6.47095594, -4.70390574
904, 40.45, -2.46664221, -7.61023496
905, 40.45, 2.46685324, -7.61016656
906, 40.45, 6.47096874, -4.70388813
907, 40.45, 7.99991003, 0.0379417835
908, 40.45, 6.47479664, 4.69861772
909, 40.45, 2.47213595, 7.60845213
910, 34.55, -1.89203219, -4.49115468
911, 34.55, -2.3589313, -6.54022505
912, 34.55, -1.04117148, -8.18457363
913, 34.55, 1.04999865, -8.18034466
914, 34.55, 2.35932555, -6.53850066
915, 34.55, 1.89203219, -4.49115468
916, 34.55, -1.04999865, -3.81965534
917, 34.55, -2.35783161, -5.45499534
918, 34.55, -1.89803404, -7.50128837
919, 34.55, -0.00388802937, -8.41999688
920, 34.55, 1.89203219, -7.50884532
921, 34.55, 2.35932555, -5.46149934
922, 34.55, 1.04999865, -3.81965534
923, 34.55, -7.90652344, 1.49049266
924, 34.55, -8.35933837, -0.53844449
925, 34.55, -7.05464085, -2.178103
926, 34.55, -4.94697217, -2.17888329
927, 34.55, -3.64036757, -0.537154347
928, 34.55, -4.10934076, 1.51056534
929, 34.55, -7.0589949, 2.17598938
930, 34.55, -8.35709938, 0.548162858
931, 34.55, -7.889681, -1.51178891
932, 34.55, -6.00620799, -2.41999204
933, 34.55, -4.11283846, -1.51493278
934, 34.55, -3.6393794, 0.53279487
935, 34.55, -4.94231657, 2.17662715
936, 34.55, 4.10672144, 1.5072811
937, 34.55, 3.64167691, -0.542874033
938, 34.55, 4.94847337, -2.17960816
939, 34.55, 7.05247596, -2.17914991
940, 34.55, 8.35996746, -0.535680503
941, 34.55, 7.8948483, 1.50530725
942, 34.55, 4.95476243, 2.18263108
943, 34.55, 3.64226982, 0.54544329
944, 34.55, 4.10378299, -1.50358274
945, 34.55, 5.99267289, -2.41998891
946, 34.55, 7.88960787, -1.51188032
947, 34.55, 8.36071873, 0.532359914
948, 34.55, 7.05937382, 2.17580493
949, 34.55, -1.89522403, 7.50483417
950, 34.55, -2.35829152, 5.45698885
951, 34.55, -1.04999865, 3.81965534
952, 34.55, 1.04999865, 3.81965534
953, 34.55, 2.35932555, 5.46149934
954, 34.55, 1.89203219, 7.50884532
955, 34.55, -1.04474187, 8.18286839
956, 34.55, -2.35680907, 6.54940967
957, 34.55, -1.8977433, 4.49834412
958, 34.55, 2.22042129e-15, 3.58
959, 34.55, 1.88657813, 4.48434075
960, 34.55, 2.35932555, 6.53850066
961, 34.55, 1.04999865, 8.18034466
962, 40.45, 5.06063471, 0.746721399
963, 40.45, 4.83002357, -0.266749244
964, 40.45, 5.4741355, -1.07864106
965, 40.45, 6.52470804, -1.07920409
966, 40.45, 7.17309071, -0.252701765
967, 40.45, 6.97420009, 0.700666957
968, 40.45, 5.49787334, 1.08989395
969, 40.45, 4.83119179, 0.271822323
970, 40.45, 5.07031394, -0.758738309
971, 40.45, 6.00657137, -1.19998201
972, 40.45, 6.93088772, -0.757263528
973, 40.45, 7.15653808, 0.32003073
974, 40.45, 6.56115306, 1.06071073
975, 40.45, -0.935807138, -5.24882425
976, 40.45, -1.16346584, -6.29384902
977, 40.45, -0.522583905, -7.08023426
978, 40.45, 0.516430126, -7.0831897
979, 40.45, 1.16512051, -6.28721804
980, 40.45, 0.939216068, -5.25309092
981, 40.45, -0.514045296, -4.91567651
982, 40.45, -1.17162417, -5.74058372
983, 40.45, -0.971224169, -6.70478622
984, 40.45, -0.00208178937, -7.19999819
985, 40.45, 0.974311573, -6.70051193
986, 40.45, 1.17083681, -5.73705291
987, 40.45, 0.531621454, -4.92418467
988, 40.45, -2.34574014, 1.87016127
989, 40.45, -2.92541966, -0.664770498
990, 40.45, -1.29800872, -2.70465772
991, 40.45, 1.30296045, -2.70227572
992, 40.45, 2.92566119, -0.663706707
993, 40.45, 2.34326464, 1.87326208
994, 40.45, -1.30695091, 2.700348
995, 40.45, -2.92437718, 0.669341541
996, 40.45, -2.34485155, -1.87127529
997, 40.45, -0.00726220965, -2.99999121
998, 40.45, 2.34477985, -1.87136513
999, 40.45, 2.92401202, 0.670934947
1000, 40.45, 1.29874751, 2.70430304
1001, 40.45, -0.927355085, 6.76158555
1002, 40.45, -1.16991349, 5.73297488
1003, 40.45, -0.520660487, 4.91883736
1004, 40.45, 0.520660487, 4.91883736
1005, 40.45, 1.16991349, 5.73297488
1006, 40.45, 0.938197779, 6.74818776
1007, 40.45, -0.475233588, 7.10188613
1008, 40.45, -1.17420068, 6.24749296
1009, 40.45, -0.938197779, 5.25181224
1010, 40.45, -1.09706117e-14, 4.8
1011, 40.45, 0.938197779, 5.25181224
1012, 40.45, 1.16991349, 6.26702512
1013, 40.45, 0.464631446, 7.10639849
1014, 40.45, -6.96454581, 0.71389872
1015, 40.45, -7.17243966, -0.255705407
1016, 40.45, -6.52324965, -1.07991194
1017, 40.45, -5.47587238, -1.0794861
1018, 40.45, -4.8294198, -0.264087079
1019, 40.45, -5.06213644, 0.748606671
1020, 40.45, -6.50262706, 1.08966327
1021, 40.45, -7.15259916, 0.333938898
1022, 40.45, -6.92959953, -0.758844324
1023, 40.45, -6.01332813, -1.19992598
1024, 40.45, -5.07086134, -0.759408548
1025, 40.45, -4.83016688, 0.267377031
1026, 40.45, -5.48645634, 1.08456116
1027, 36.025, -5.09453068e-16, -3.58
1028, 37.5, -1.9017823, -4.50346263
1029, 37.5, -2.34874421, -6.58292423
1030, 37.5, -1.08555252, -8.16286285
1031, 37.5, 1.06480982, -8.1731498
1032, 37.5, 2.35932555, -6.53850066
1033, 37.5, 1.89203219, -4.49115468
1034, 37.5, -1.04302584, -3.81631112
1035, 37.5, -2.35439345, -5.44032914
1036, 37.5, -1.88766298, -7.51430792
1037, 37.5, -0.0241158932, -8.41987984
1038, 37.5, 1.88385445, -7.51904326
1039, 37.5, 2.35932555, -5.46149934
1040, 37.5, 1.07190807, -3.83034263
1041, 35.9957544, -6, 2.42
1042, 37.5, -7.91302259, 1.48214188
1043, 37.5, -8.36782144, -0.499821593
1044, 37.5, -7.07681323, -2.16722709
1045, 37.5, -4.93326056, -2.17220325
1046, 37.5, -3.62950135, -0.486966285
1047, 37.5, -4.06454514, 1.45272657
1048, 37.5, -7.06333683, 2.17387092
1049, 37.5, -8.35624184, 0.55183729
1050, 37.5, -7.87269371, -1.53278123
1051, 37.5, -6.00830309, -2.41998576
1052, 37.5, -4.15163872, -1.56203731
1053, 37.5, -3.67307024, 0.664678801
1054, 37.5, -4.96290941, 2.18651392
1055, 36.0109019, 6, 2.42
1056, 37.5, 4.07373525, 1.46489048
1057, 37.5, 3.63283679, -0.502929766
1058, 37.5, 4.94642812, -2.17862027
1059, 37.5, 7.03595418, -2.18705257
1060, 37.5, 8.35793429, -0.544560286
1061, 37.5, 7.89134212, 1.50971023
1062, 37.5, 4.95056294, 2.18061502
1063, 37.5, 3.66879257, 0.649516685
1064, 37.5, 4.1389328, -1.54687714
1065, 37.5, 6.01746266, -2.41993699
1066, 37.5, 7.89961381, -1.49928896
1067, 37.5, 8.35917058, 0.539179188
1068, 37.5, 7.07993006, 2.16567566
1069, 36.0082941, 9.60123091e-16, 8.42
1070, 37.5, -1.88875926, 7.51294033
1071, 37.5, -2.35625587, 5.44822263
1072, 37.5, -1.04999865, 3.81965534
1073, 37.5, 1.04999865, 3.81965534
1074, 37.5, 2.35932555, 5.46149934
1075, 37.5, 1.89203219, 7.50884532
1076, 37.5, -1.01710094, 8.19588381
1077, 37.5, -2.35842712, 6.54242192
1078, 37.5, -1.92816296, 4.53760895
1079, 37.5, -0.00893584715, 3.5800165
1080, 37.5, 1.89203219, 4.49115468
1081, 37.5, 2.35932555, 6.53850066
1082, 37.5, 1.02639584, 8.1915546
1083, 37.5, 5.04588141, 0.727775871
1084, 37.5, 4.835135, -0.288252566
1085, 37.5, 5.49871363, -1.09028069
1086, 37.5, 6.53438307, -1.07444625
1087, 37.5, 7.17520516, -0.242678434
1088, 37.5, 6.91990638, 0.770566188
1089, 37.5, 5.52155659, 1.10049621
1090, 37.5, 4.83966691, 0.305985505
1091, 37.5, 5.04100722, -0.721341001
1092, 37.5, 5.96881755, -1.19959479
1093, 37.5, 6.91424219, -0.777278083
1094, 37.5, 7.17767046, 0.23041762
1095, 37.5, 6.56231307, 1.06009623
1096, 38.9788687, 6, 1.2
1097, 37.5, -0.952854583, -5.27056999
1098, 37.5, -1.16599518, -6.28364635
1099, 37.5, -0.506403314, -7.08791345
1100, 37.5, 0.544814525, -7.06919462
1101, 37.5, 1.17516046, -6.24289484
1102, 37.5, 0.919649374, -5.2291271
1103, 37.5, -0.475618099, -4.89827979
1104, 37.5, -1.16115862, -5.69716234
1105, 37.5, -0.956758429, -6.72430195
1106, 37.5, -0.0433308826, -7.19921743
1107, 37.5, 0.917603793, -6.77330672
1108, 37.5, 1.17792762, -5.77090064
1109, 37.5, 0.561282328, -4.93935767
1110, 38.9694517, -8.08266887e-16, -4.8
1111, 39.475, 7.34788079e-16, 3
1112, 38.5, -2.38659556, 1.81773531
1113, 38.5, -2.93012081, -0.643732909
1114, 38.5, -1.31724577, -2.69534109
1115, 38.5, 1.30165122, -2.7029066
1116, 38.5, 2.92717535, -0.656996565
1117, 38.5, 2.37482108, 1.83309161
1118, 38.5, -1.31609062, 2.69590532
1119, 38.5, -2.92185304, 0.680275542
1120, 38.5, -2.36822526, -1.84160504
1121, 38.5, -0.00831402053, -2.99998848
1122, 38.5, 2.34660768, -1.8690726
1123, 38.5, 2.90988961, 0.729755074
1124, 38.5, 1.31560421, 2.69614272
1125, 37.5, -0.954615773, 6.7271236
1126, 37.5, -1.16395778, 5.70810569
1127, 37.5, -0.498056319, 4.90824
1128, 37.5, 0.549359996, 4.93313375
1129, 37.5, 1.16991349, 5.73297488
1130, 37.5, 0.938197779, 6.74818776
1131, 37.5, -0.447066083, 7.1136121
1132, 37.5, -1.16101945, 6.30337078
1133, 37.5, -0.962438471, 5.28326282
1134, 37.5, -0.0405982322, 4.80068695
1135, 37.5, 0.885957182, 5.19062995
1136, 37.5, 1.16991349, 6.26702512
1137, 37.5, 0.57545028, 7.05302278
1138, 38.9798017, 6.61309272e-16, 7.2
1139, 37.5, -6.95088331, 0.7319979
1140, 37.5, -7.1647215, -0.288831821
1141, 37.5, -6.49337043, -1.09388556
1142, 37.5, -5.45733499, -1.0702872
1143, 37.5, -4.82528545, -0.245042284
1144, 37.5, -5.07919967, 0.769497727
1145, 37.5, -6.47886023, 1.1003149
1146, 37.5, -7.15988134, 0.30769348
1147, 37.5, -6.95913025, -0.721158206
1148, 37.5, -6.03516623, -1.19948461
1149, 37.5, -5.08777534, -0.779644902
1150, 37.5, -4.82171733, 0.227266235
1151, 37.5, -5.44850041, 1.0657618
1152, 38.9724459, -6, 1.2
1153, 38, -9, -9.5
1154, 38, -4.48932184, -9.5
1155, 38, -11.25, -9.5
1156, 38, -6.74802401, -9.5
1157, 38, -2.30061295, -9.5
1158, 37.9807382, -13.8920835, -9.5
1159, 37.90388, -14.6724298, -9.5
1160, 37.7509025, -15.4415, -9.5
1161, 37.5232795, -16.1918724, -9.5
1162, 37.2232032, -16.9163207, -9.5
1163, 36.8535929, -17.6078188, -9.5
1164, 36.4179203, -18.2598541, -9.5
1165, 35.9204689, -18.8660003, -9.5
1166, 35.3657733, -19.4206747, -9.5
1167, 34.7598541, -19.9179203, -9.5
1168, 34.2222809, -20.284987, -9.5
1169, 34, -20.9591085, -9.5
1170, 29.875, -21.5, -9.5
1171, 25.75, -21.5, -9.5
1172, 21.6144175, -21.5, -9.5
1173, 31.9375, -21.5, -9.5
1174, 27.8124149, -21.5, -9.5
1175, 23.6875877, -21.5, -9.5
1176, 19.5760073, -21.5, -9.5
1177, 17.5, -20.249442, -9.5
1178, 17.5, -19.005052, -9.5
1179, 24.5, -19, -9.5
1180, 21.0222791, -19, -9.5
1181, 26.2534401, -19, -9.5
1182, 22.7530694, -19, -9.5
1183, 19.3192052, -19, -9.5
1184, 17.5, -18.7570696, 9.5
1185, 22.249431, -18.5, 8.22756983
1186, 25.7301615, -18.5, 4.7449385
1187, 26.9999777, -18.5, -0.0205964723
1188, 25.7315138, -18.5, -4.74259209
1189, 22.2496431, -18.5, -8.22744741
1190, 17.4954155, -18.5, -9.49999889
1191, 12.7622085, -18.5, -8.23427788
1192, 9.28178958, -18.5, -4.76560778
1193, 8.00000067, -18.5, 0.00355798727
1194, 9.27370294, -18.5, 4.75163515
1195, 12.75, -18.5, 8.22724134
1196, 19.9687818, -18.5, 9.17360978
1197, 24.2219308, -18.5, 6.71309512
1198, 26.6742035, -18.5, 2.46657448
1199, 26.6776292, -18.5, -2.45379764
1200, 24.2218951, -18.5, -6.71313085
1201, 19.967685, -18.5, -9.17390489
1202, 15.0291324, -18.5, -9.1730482
1203, 10.778812, -18.5, -6.71383878
1204, 8.32299854, -18.5, -2.45614416
1205, 8.32349665, -18.5, 2.45800453
1206, 10.7766496, -18.5, 6.71167337
1207, 15.0322867, -18.5, 9.17389727
1208, 22.062973, -19, 8.33242329
1209, 20.0399369, -19, 9.15416412
1210, 24.0601687, -19, 6.871258
1211, 26.8372292, -19, 1.75104266
1212, 26.8401178, -19, -1.73556891
1213, 26.3527381, -19, 3.4465966
1214, 26.9999895, -19, -0.01410598
1215, 26.352841, -19, -3.44633239
1216, 22.0897004, -19, -8.31773107
1217, 24.0602371, -19, -6.87119271
1218, 20.0377325, -19, -9.15477546
1219, 16.8725494, -19.01, -9.4792566
1220, 17.2876841, -19.01, -9.49762718
1221, 16.5012269, -19.01, -9.44735161
1222, 15.6478759, -19.01, -9.31770553
1223, 15.9803936, -19.01, -9.37767542
1224, 15.2973352, -19.01, -9.24111831
1225, 14.4395511, -19.01, -8.99353394
1226, 14.7912902, -19.01, -9.1056516
1227, 14.1293396, -19.01, -8.88192818
1228, 13.2993365, -19.01, -8.52082309
1229, 13.6452427, -19.01, -8.68279021
1230, 12.9601721, -19.01, -8.34505617
1231, 12.2211787, -19.01, -7.89835712
1232, 12.5496506, -19.01, -8.1082699
1233, 11.9031848, -19.01, -7.67630511
1234, 11.2364904, -19.01, -7.14271989
1235, 11.4961649, -19.01, -7.36233416
1236, 10.9724106, -19.01, -6.90221538
1237, 10.3626992, -19.01, -6.26968399
1238, 10.6115872, -19.01, -6.5421532
1239, 10.1419388, -19.01, -6.0090711
1240, 9.60218365, -19.01, -5.27963038
1241, 9.81993749, -19.01, -5.59165806
1242, 9.39772032, -19.01, -4.96014757
1243, 8.97897306, -19.01, -4.20024998
1244, 9.15588181, -19.01, -4.54155168
1245, 8.81555193, -19.01, -3.85102086
1246, 8.50470134, -19.01, -3.05525811
1247, 8.62006325, -19.01, -3.37590334
1248, 8.39598181, -19.01, -2.71419469
1249, 8.18197871, -19.01, -1.85053486
1250, 8.25872137, -19.01, -2.20199212
1251, 8.12147374, -19.01, -1.51434643
1252, 8.02030778, -19.01, -0.620834418
1253, 8.05364013, -19.01, -1.00810971
1254, 8.00294972, -19.01, -0.236719361
1255, 8.0203703, -19.01, 0.621788373
1256, 8.00309275, -19.01, 0.242389685
1257, 8.0533214, -19.01, 1.00511865
1258, 8.18239821, -19.01, 1.8526459
1259, 8.12268397, -19.01, 1.52182259
1260, 8.26117237, -19.01, 2.21225315
1261, 8.50539111, -19.01, 3.05728816
1262, 8.3966053, -19.01, 2.71628514
1263, 8.62054949, -19.01, 3.37718205
1264, 8.97799537, -19.01, 4.19826597
1265, 8.81489557, -19.01, 3.84954037
1266, 9.15524454, -19.01, 4.54038064
1267, 9.60284435, -19.01, 5.28061858
1268, 9.39633217, -19.01, 4.95787935
1269, 9.82231232, -19.01, 5.5949184
1270, 10.359063, -19.01, 6.26554221
1271, 10.1412031, -19.01, 6.00817008
1272, 10.6075963, -19.01, 6.53794851
1273, 11.2362148, -19.01, 7.14247817
1274, 11.0058731, -19.01, 6.93370869
1275, 11.4732638, -19.01, 7.34359931
1276, 12.2220828, -19.01, 7.89896132
1277, 11.9664619, -19.01, 7.7220435
1278, 12.4833554, -19.01, 8.06742072
1279, 13.2982574, -19.01, 8.52029104
1280, 13.021731, -19.01, 8.37825201
1281, 13.5792832, -19.01, 8.65320634
1282, 14.4463251, -19.01, 8.99583623
1283, 14.1536245, -19.01, 8.8911063
1284, 14.7422956, -19.01, 9.09093319
1285, 15.6482448, -19.01, 9.31777885
1286, 15.3003273, -19.01, 9.24183099
1287, 15.9788404, -19.01, 9.3774236
1288, 16.8718186, -19.01, 9.4792082
1289, 16.5008357, -19.01, 9.44731023
1290, 17.2813869, -19.01, 9.49748431
1291, 17.5, -19.005231, 9.5
1292, 16.8988589, -19.01, 9.46059913
1293, 16.5772881, -19.01, 9.43952227
1294, 17.2137445, -19.01, 9.48123782
1295, 16.8895325, -21.5, 9.45998785
1296, 16.2600012, -20.2583117, 9.41872618
1297, 17.5, -20.2591422, 9.5
1298, 15.6413143, -21.5, 9.29566172
1299, 15.0412191, -20.255, 9.17629535
1300, 15.6506101, -19.01, 9.29751077
1301, 15.3459146, -19.01, 9.23690306
1302, 15.9703424, -19.01, 9.36110948
1303, 14.4528632, -21.5, 8.97657545
1304, 13.8645074, -20.255, 8.77685556
1305, 14.4528632, -19.01, 8.97657545
1306, 14.1586853, -19.01, 8.87671551
1307, 14.7470412, -19.01, 9.0764354
1308, 13.3072537, -21.5, 8.50204845
1309, 12.75, -20.255, 8.22724134
1310, 13.3072537, -19.01, 8.50204845
1311, 13.0286268, -19.01, 8.36464489
1312, 13.5858805, -19.01, 8.639452
1313, 12.2333832, -21.5, 7.88204903
1314, 11.7167664, -20.255, 7.53685673
1315, 12.2333832, -19.01, 7.88204903
1316, 11.9750748, -19.01, 7.70945288
1317, 12.4916916, -19.01, 8.05464519
1318, 11.249626, -21.5, 7.12718558
1319, 10.7824856, -20.255, 6.71751442
1320, 11.249626, -19.01, 7.12718558
1321, 11.0160558, -19.01, 6.92235
1322, 11.4831962, -19.01, 7.33202115
1323, 10.3728144, -21.5, 6.250374
1324, 9.96314327, -20.255087, 5.78323358
1325, 10.3742859, -19.01, 6.25205188
1326, 10.1556988, -19.01, 6.00280107
1327, 10.5880487, -19.01, 6.49580166
1328, 9.61690079, -21.5, 5.26504509
1329, 9.27275866, -20.2576533, 4.75
1330, 9.61251904, -19.01, 5.25848733
1331, 9.43553139, -19.01, 4.9936066
1332, 9.79048736, -19.01, 5.52483576
1333, 8.99817098, -21.5, 4.19319125
1334, 8.72314444, -20.2556886, 3.63549261
1335, 8.99950497, -19.01, 4.19589632
1336, 8.85828272, -19.01, 3.90952592
1337, 9.14226445, -19.01, 4.48538391
1338, 8.52408953, -21.5, 3.04909574
1339, 8.32370465, -20.2554268, 2.45878093
1340, 8.52404147, -19.01, 3.04895417
1341, 8.41936521, -19.01, 2.74058784
1342, 8.63056187, -19.01, 3.36275314
1343, 8.20287514, -21.5, 1.85132996
1344, 8.08127382, -20.2586448, 1.23999883
1345, 8.20337134, -19.01, 1.85382455
1346, 8.1381207, -19.01, 1.5257874
1347, 8.26696039, -19.01, 2.17350828
1348, 8.04132506, -21.5, 0.630498569
1349, 8, -20.2582112, 1.56210168e-15
1350, 8.04023706, -19.01, 0.613898836
1351, 8.0193668, -19.01, 0.295480207
1352, 8.06127472, -19.01, 0.93487156
1353, 8.04087385, -21.5, -0.623614505
1354, 8.08127382, -20.2550484, -1.23999883
1355, 8.0407872, -19.01, -0.622292429
1356, 8.06160977, -19.01, -0.939983487
1357, 8.01973022, -19.01, -0.301025034
1358, 8.20335945, -21.5, -1.85376475
1359, 8.32370465, -20.2708843, -2.45878093
1360, 8.20059889, -19.01, -1.8398865
1361, 8.26652068, -19.01, -2.17129771
1362, 8.1365453, -19.01, -1.51786731
1363, 8.52404881, -21.5, -3.04897578
1364, 8.72314444, -20.2595237, -3.63549261
1365, 8.52465971, -19.01, -3.05077543
1366, 8.6314951, -19.01, -3.36550237
1367, 8.41849725, -19.01, -2.73803094
1368, 8.99795155, -21.5, -4.1927463
1369, 9.27275866, -20.2578015, -4.75
1370, 8.99930878, -19.01, -4.1954985
1371, 9.14003432, -19.01, -4.48086166
1372, 8.85783177, -19.01, -3.90861149
1373, 9.61795097, -21.5, -5.26661679
1374, 9.96314327, -20.25606, -5.78323358
1375, 9.61408232, -19.01, -5.26082695
1376, 9.79236336, -19.01, -5.52764339
1377, 9.43620605, -19.01, -4.9946163
1378, 10.3728144, -21.5, -6.250374
1379, 10.7824856, -20.2543805, -6.71751442
1380, 10.3752494, -19.01, -6.25315051
1381, 10.5918, -19.01, -6.50007922
1382, 10.1523928, -19.01, -5.99903136
1383, 11.249626, -21.5, -7.12718558
1384, 11.7167664, -20.255, -7.53685673
1385, 11.2537635, -19.01, -7.13081411
1386, 11.5007898, -19.01, -7.34745029
1387, 11.0082084, -19.01, -6.91546802
1388, 12.2333832, -21.5, -7.88204903
1389, 12.75, -20.255, -8.22724134
1390, 12.2333832, -19.01, -7.88204903
1391, 12.4916916, -19.01, -8.05464519
1392, 11.9750748, -19.01, -7.70945288
1393, 13.3072537, -21.5, -8.50204845
1394, 13.8645074, -20.2568554, -8.77685556
1395, 13.3052884, -19.01, -8.50107927
1396, 13.5893558, -19.01, -8.6411658
1397, 13.0221979, -19.01, -8.36147447
1398, 14.4485246, -21.5, -8.97510269
1399, 15.0412191, -20.2624016, -9.17629535
1400, 14.4638798, -19.01, -8.98031508
1401, 14.7698639, -19.01, -9.0841827
1402, 14.1426902, -19.01, -8.87128591
1403, 15.6506101, -21.5, -9.29751077
1404, 16.2600012, -20.2517561, -9.41872618
1405, 15.6551942, -19.01, -9.2984226
1406, 15.9763477, -19.01, -9.36230401
1407, 15.3349419, -19.01, -9.23472046
1408, 16.8861019, -21.5, -9.45976299
1409, 16.8866512, -19.01, -9.459799
1410, 17.2102354, -19.01, -9.48100783
1411, 16.5686666, -19.01, -9.43895719
1412, 22.2058958, -18.5, 6.46950884
1413, 25.1151998, -18.5, 2.45127144
1414, 25.1258116, -18.5, -2.4180567
1415, 22.1946099, -18.5, -6.4777031
1416, 17.4931489, -18.5, -7.99999707
1417, 12.797718, -18.5, -6.47213595
1418, 9.88102381, -18.5, -2.43950853
1419, 9.8858235, -18.5, 2.45444825
1420, 12.797718, -18.5, 6.47213595
1421, 20.0043091, -18.5, 7.59792312
1422, 23.9785218, -18.5, 4.69348008
1423, 25.4997205, -18.5, -0.0668780641
1424, 23.9773063, -18.5, -4.69515736
1425, 19.9910212, -18.5, -7.60229
1426, 14.9859079, -18.5, -7.59469162
1427, 11.0224907, -18.5, -4.69487738
1428, 9.50007849, -18.5, -0.0354372498
1429, 11.0225056, -18.5, 4.69489785
1430, 15.0023508, -18.5, 7.60011504
1431, 17.5, -17.520551, 8
1432, 22.1982195, -16.55, 6.47508557
1433, 25.1244785, -16.55, 2.42225663
1434, 25.1184177, -16.55, -2.44125223
1435, 22.1900981, -16.55, -6.48097062
1436, 17.5, -16.55, -8
1437, 12.797718, -16.55, -6.47213595
1438, 9.87840938, -16.55, -2.43132812
1439, 9.87785689, -16.55, 2.42959553
1440, 12.797718, -16.55, 6.47213595
1441, 19.9705807, -16.55, 7.60895729
1442, 23.9703838, -16.55, 4.70469266
1443, 25.4999343, -16.55, 0.0324289606
1444, 23.9744195, -16.55, -4.69913737
1445, 19.983168, -16.55, -7.60485875
1446, 15.027864, -16.55, -7.60845213
1447, 11.0260042, -16.55, -4.69972113
1448, 9.50007825, -16.55, 0.0353834742
1449, 11.0253187, -16.55, 4.69877671
1450, 15.027864, -16.55, 7.60845213
1451, 36.09227, -18.676447, -5
1452, 36, -20.1369056, -5
1453, 31.9343316, -21.5, -5
1454, 27.8411422, -21.5, -5
1455, 23.7537292, -21.5, -5
1456, 33.9416215, -21.5, -5
1457, 29.8918918, -21.5, -5
1458, 25.8241005, -21.5, -5
1459, 21.7449835, -21.5, -5
1460, 19.7037241, -22.7476743, -5
1461, 24.1136906, -24, -5
1462, 28.5888589, -24, -5
1463, 21.9153353, -24, -5
1464, 26.3512105, -24, -5
1465, 30.7641377, -24, -5
1466, 33.222272, -23.9878745, -5
1467, 33.6341245, -23.9436156, -5
1468, 34.0241795, -23.8608261, -5
1469, 34.3935895, -23.7433098, -5
1470, 34.7609575, -23.5852979, -5
1471, 35.0957081, -23.4003389, -5
1472, 35.4166689, -23.1802108, -5
1473, 35.7176489, -22.927205, -5
1474, 35.9948435, -22.6430213, -5
1475, 36.2385882, -22.3379562, -5
1476, 36.4529106, -22.0079976, -5
1477, 36.6314666, -21.6633421, -5
1478, 36.7769363, -21.2996097, -5
1479, 36.8869238, -20.9199914, -5
1480, 36.9584078, -20.5344036, -5
1481, 36.9916018, -20.1464011, -5
1482, 37, -18.6741402, -5
1483, 36.8268033, -17.6525146, -5
1484, 36.4179362, -18.2598326, -5
1485, 36.1840836, -18.5751463, -7.25037054
1486, 35.6568542, -19.1568542, -7.26416275
1487, 35.8284876, -18.967486, -5.0073677
1488, 36.6517569, -17.9445619, -7.24994133
1489, 37.0276248, -17.3174641, -4.99961836
1490, 37.0553701, -17.2711739, -7.24877602
1491, 38, -16.7341511, -4
1492, 38, -18.3597988, -4
1493, 38, -15.1230223, -4
1494, 37.7033587, -19.9854269, -4.71118892
1495, 37.9535782, -19.9977194, -4.30132269
1496, 37.2840715, -19.9648287, -4.95905847
1497, 37.2237545, -16.9151551, -4.97464554
1498, 37.5207525, -16.1989347, -4.85370767
1499, 37.7500274, -15.4449933, -4.66140672
1500, 37.9033124, -14.6762567, -4.4289834
1501, 37.9811955, -13.8827734, -4.1930163
1502, 37.6852357, -20.4469662, -4.70808084
1503, 37.9024716, -20.4791901, -4.3781502
1504, 37.3627687, -20.3991328, -4.92493061
1505, 37.9878828, -20.2466523, -4
1506, 37.6170615, -20.9035957, -4.70992978
1507, 37.8406511, -20.959602, -4.35525394
1508, 37.2964351, -20.823283, -4.9275333
1509, 37.9412292, -20.7239765, -4
1510, 37.5089298, -21.3527506, -4.70710678
1511, 37.7130309, -21.4257792, -4.38268343
1512, 37.2034709, -21.2434557, -4.92387953
1513, 37.844314, -21.2134375, -4
1514, 37.3546253, -21.7881892, -4.70710678
1515, 37.5505856, -21.8808715, -4.38268343
1516, 37.0613501, -21.6494803, -4.92387953
1517, 37.7020951, -21.6822932, -4
1518, 37.1583834, -22.2064065, -4.70710678
1519, 37.3443156, -22.3178499, -4.38268343
1520, 36.8801162, -22.0396195, -4.92387953
1521, 37.514502, -22.1352004, -4
1522, 36.922094, -22.6033749, -4.70710678
1523, 37.0962075, -22.7325063, -4.38268343
1524, 36.6615147, -22.4101161, -4.92387953
1525, 37.2834772, -22.5674174, -4
1526, 36.6480327, -22.9752714, -4.70710678
1527, 36.8086507, -23.120847, -4.38268343
1528, 36.4076509, -22.757402, -4.92387953
1529, 37.008679, -22.9783082, -4
1530, 36.3388388, -23.3185143, -4.70710678
1531, 36.4844145, -23.4791324, -4.38268343
1532, 36.1319431, -23.0902401, -4.91694049
1533, 36.6981381, -23.3561278, -4
1534, 35.9974901, -23.6297982, -4.70710678
1535, 36.1294007, -23.807659, -4.37122009
1536, 35.8042314, -23.369219, -4.92387953
1537, 36.3583414, -23.6961319, -4
1538, 35.6270887, -23.9058161, -4.70746693
1539, 35.7405329, -24.0950863, -4.37404413
1540, 35.4573175, -23.6225699, -4.9264092
1541, 35.9712018, -24.0139495, -4
1542, 35.2307313, -24.1426681, -4.70949458
1543, 35.3263384, -24.3448124, -4.3717711
1544, 35.0891221, -23.8432607, -4.92762857
1545, 35.5704103, -24.2816834, -4
1546, 34.814311, -24.3424145, -4.70839089
1547, 34.8891191, -24.551489, -4.37289084
1548, 34.7010069, -24.0257508, -4.92923215
1549, 35.1309011, -24.5165354, -4
1550, 34.3800158, -24.4996264, -4.70809471
1551, 34.4339626, -24.7149943, -4.3722337
1552, 34.2997192, -24.1790646, -4.9267608
1553, 34.6807953, -24.7026311, -4
1554, 33.9323512, -24.6133671, -4.70795111
1555, 33.9646427, -24.8310587, -4.37670072
1556, 33.8842611, -24.2891702, -4.92559427
1557, 34.2096778, -24.8452558, -4
1558, 33.4756378, -24.6818292, -4.70865925
1559, 33.4866629, -24.9062515, -4.36694201
1560, 33.4589535, -24.342213, -4.93080147
1561, 33.7301367, -24.9403154, -4
1562, 33, -24.6883729, -4.72535703
1563, 33, -24.9533521, -4.30186064
1564, 33, -24.2616549, -4.9651615
1565, 33.2396848, -24.988225, -4
1566, 23.5864712, -25, -4
1567, 28.314601, -25, -4
1568, 21.2201309, -25, -4
1569, 25.9315947, -25, -4
1570, 30.6476208, -25, -4
1571, 19.4585534, -24.8156341, -4.57856805
1572, 19.2877627, -24.9294469, -4.36895598
1573, 19.6590104, -24.4215488, -4.90680571
1574, 17.5, -22.25, -3.58
1575, 17.5, -23.6171306, -3.58
1576, 17.5, -20.8747269, -3.58
1577, 19.3957892, -19.5, -4.49587789
1578, 19.8572509, -19.5, -6.547511
1579, 18.5694016, -19.5, -8.17089387
1580, 16.4443527, -19.5, -8.17761541
1581, 15.1406745, -19.5, -6.53850066
1582, 15.6079678, -19.5, -4.49115468
1583, 18.5685807, -19.5, -3.82870193
1584, 19.8586452, -19.5, -5.4585273
1585, 19.3761972, -19.5, -7.52849076
1586, 17.4965682, -19.5, -8.41999757
1587, 15.6151119, -19.5, -7.51776043
1588, 15.1406745, -19.5, -5.46149934
1589, 16.4500014, -19.5, -3.81965534
1590, 18.202841, -25, -3.68431123
1591, 19.4689602, -21.5, -7.40698107
1592, 17.2756957, -21.5, -8.40958245
1593, 15.2959352, -21.5, -6.99924892
1594, 19.9075586, -21.5, -6.2450747
1595, 18.4671266, -21.5, -8.2183476
1596, 16.0840105, -21.5, -7.96249173
1597, 15.0920009, -21.5, -5.75929186
1598, 15.5327527, -22.75, -4.59062488
1599, 15.5667559, -24.3323816, -4.54433274
1600, 15.5412058, -24.1686567, -4.5789
1601, 15.6098993, -24.4863299, -4.48873587
1602, 15.9874852, -24.917809, -4.11089998
1603, 15.8089435, -24.7999692, -4.268894
1604, 16.2115843, -24.9837715, -3.951492
1605, 16.9512224, -25, -3.64304367
1606, 35.3602581, -19.4256733, -5.10507776
1607, 34.7324916, -19.9382137, -5.45293105
1608, 34.1303143, -20.3401096, -6.28987652
1609, 34, -20.9589667, -7
1610, 34.6272645, -21.5, -5.54549073
1611, 35.1103585, -21.5, -5.20876075
1612, 34.1468165, -21.5, -6.24786254
1613, 35.0751463, -19.6840836, -7.35816273
1614, 37.3910363, -16.5614675, -7.20959534
1615, 37.9614778, -14.2841371, -6.88744127
1616, 37.9614778, -14.2841371, -8.19372064
1617, 37.9614778, -14.2841371, -5.58108205
1618, 38, -13.5, -6.75030158
1619, 38, -13.5, -8.12503626
1620, 38, -13.5, -5.37933542
1621, 37.8462822, -15.0607226, -7.0162871
1622, 37.6555227, -15.8222774, -7.12699057
1623, 37.9759236, -20.4900857, -0.00169601843
1624, 37.9759236, -20.4900857, -1.99583644
1625, 37.9759236, -20.4900857, 1.99856033
1626, 37.9878506, -20.2473069, 4
1627, 38, -20, -0.000184157348
1628, 38, -20, -2.00137603
1629, 38, -20, 2.00097602
1630, 37.9039264, -20.9754516, 0.00179676402
1631, 37.9039264, -20.9754516, -1.99960835
1632, 37.9039264, -20.9754516, 1.99351398
1633, 37.9412961, -20.7235258, 4
1634, 37.7847017, -21.4514234, 1.62076467e-05
1635, 37.7847017, -21.4514234, -1.99948817
1636, 37.7847017, -21.4514234, 1.99939877
1637, 37.844314, -21.2134375, 4
1638, 37.6193977, -21.9134172, -8.50058624e-05
1639, 37.6193977, -21.9134172, -1.99911135
1640, 37.6193977, -21.9134172, 1.99895716
1641, 37.7015116, -21.6839242, 4
1642, 37.4096063, -22.3569837, -1.33226763e-14
1643, 37.4096063, -22.3569837, -2
1644, 37.4096063, -22.3569837, 2
1645, 37.514502, -22.1352004, 4
1646, 37.1573481, -22.7778512, -1.33226763e-14
1647, 37.1573481, -22.7778512, -1.99768503
1648, 37.1573481, -22.7778512, 1.9985153
1649, 37.2834772, -22.5674174, 4
1650, 36.8650523, -23.1719664, -9.76221498e-05
1651, 36.8650523, -23.1719664, -1.99970981
1652, 36.8650523, -23.1719664, 1.99922756
1653, 37.0112002, -22.9749088, 4
1654, 36.5355339, -23.5355339, 0.000124682351
1655, 36.5355339, -23.5355339, -1.99936074
1656, 36.5355339, -23.5355339, 1.99911417
1657, 36.7002931, -23.3537502, 4
1658, 36.1719664, -23.8650523, 0.000256993747
1659, 36.1719664, -23.8650523, -1.99777081
1660, 36.1719664, -23.8650523, 1.99926388
1661, 36.3537502, -23.7002931, 4
1662, 35.7778512, -24.1573481, 9.10860443e-05
1663, 35.7778512, -24.1573481, -1.99789
1664, 35.7778512, -24.1573481, 1.99536955
1665, 35.9698907, -24.0149219, 4
1666, 35.3569837, -24.4096063, 0.00014968653
1667, 35.3569837, -24.4096063, -1.99532663
1668, 35.3569837, -24.4096063, 1.99513108
1669, 35.5698944, -24.2819926, 4
1670, 34.9134172, -24.6193977, -0.000682485659
1671, 34.9134172, -24.6193977, -1.99301515
1672, 34.9134172, -24.6193977, 1.99492763
1673, 35.129683, -24.5171115, 4
1674, 34.4514234, -24.7847017, 0.000587348742
1675, 34.4514234, -24.7847017, -1.99905336
1676, 34.4514234, -24.7847017, 1.99581945
1677, 34.6822822, -24.7020991, 4
1678, 33.9754516, -24.9039264, -0.000493267763
1679, 33.9754516, -24.9039264, -1.99725521
1680, 33.9754516, -24.9039264, 1.99631966
1681, 34.210231, -24.8451172, 4
1682, 33.4900857, -24.9759236, 0.00107778514
1683, 33.4900857, -24.9759236, -1.99863352
1684, 33.4900857, -24.9759236, 1.99706886
1685, 33.7304437, -24.9402699, 4
1686, 33, -25, -0.00137817639
1687, 33, -25, -1.99793476
1688, 33, -25, 1.99866856
1689, 33.2393072, -24.9882436, 4
1690, 16.2000272, -25, -3.76048674
1691, 15.6257626, -25, -3.5064516
1692, 14.9777007, -25, -3.07343053
1693, 14.4265695, -25, -2.52229925
1694, 13.9935484, -25, -1.87423743
1695, 13.7395133, -25, -1.29997282
1696, 13.92, -25, -1.91725546e-16
1697, 13.7395133, -25, 1.29997282
1698, 13.9935484, -25, 1.87423743
1699, 14.4265695, -25, 2.52229925
1700, 14.9777007, -25, 3.07343053
1701, 15.6257626, -25, 3.5064516
1702, 16.2000272, -25, 3.76048674
1703, 17.6661109, -25, 3.58570773
1704, 23.6159451, -25, 4
1705, 28.3078162, -25, 4
1706, 21.2214332, -25, 4
1707, 25.9609708, -25, 4
1708, 30.6254042, -25, 4
1709, 25.3990891, -25, 1.49995356
1710, 25.8595463, -25, -0.537532402
1711, 24.5513946, -25, -2.17967188
1712, 22.4436937, -25, -2.17729582
1713, 21.1405942, -25, -0.538148727
1714, 21.6002435, -25, 1.49910817
1715, 24.5004933, -25, 2.20350022
1716, 25.8609507, -25, 0.531330056
1717, 25.3971144, -25, -1.50245033
1718, 23.4991394, -25, -2.41999985
1719, 21.6035672, -25, -1.50331059
1720, 21.1390156, -25, 0.531180581
1721, 22.5083351, -25, 2.20748742
1722, 15.804923, -24.9017792, -4.09227793
1723, 14.8861355, -24.7079595, -3.9119246
1724, 15.0672102, -24.924205, -3.64092722
1725, 14.7648266, -24.3834733, -4.09347629
1726, 15.1274508, -24, -4.37398647
1727, 14.7221488, -22.75, -4.15734806
1728, 15.1274508, -21.5, -4.37398647
1729, 18.4472595, -19.5, -5.26331861
1730, 18.6650119, -19.5, -6.28765818
1731, 18.0046887, -19.5, -7.08870992
1732, 16.9530499, -19.5, -7.06810373
1733, 16.3300865, -19.5, -6.26702512
1734, 16.5618022, -19.5, -5.25181224
1735, 17.9826858, -19.5, -4.90135792
1736, 18.6605174, -19.5, -5.69471415
1737, 18.4606146, -19.5, -6.71917974
1738, 17.5360195, -19.5, -7.19945929
1739, 16.5916684, -19.5, -6.78417706
1740, 16.3300865, -19.5, -5.73297488
1741, 16.8945715, -19.5, -4.96392264
1742, 13.9644661, -22.75, -3.53553391
1743, 14.3433075, -24, -3.84644098
1744, 14.3433075, -21.5, -3.84644098
1745, 13.3426519, -22.75, -2.77785117
1746, 13.653559, -24, -3.15669254
1747, 13.653559, -21.5, -3.15669254
1748, 12.9093751, -22.7489972, -1.96724726
1749, 13.1260135, -24, -2.37254921
1750, 13.1325849, -21.5, -2.38484332
1751, 11.5, -20.4988612, 2.42
1752, 13.3998938, -19.5, 1.4989341
1753, 13.8577142, -19.5, -0.54551255
1754, 12.5510893, -19.5, -2.17981911
1755, 10.4504148, -19.5, -2.18054372
1756, 9.1431366, -19.5, -0.549176588
1757, 9.60697244, -19.5, 1.50759631
1758, 12.530843, -19.5, 2.18946629
1759, 13.8452364, -19.5, 0.596880593
1760, 13.4013331, -19.5, -1.49710803
1761, 11.5019479, -19.5, -2.41999922
1762, 9.59657133, -19.5, -1.49444281
1763, 9.13867483, -19.5, 0.529663498
1764, 10.4162007, -19.5, 2.16374194
1765, 12.2381465, -21.5, 2.30467781
1766, 12.9093751, -22.7536288, 1.96724726
1767, 12.9556673, -24.3323816, 1.93324412
1768, 12.9211, -24.1686567, 1.95879422
1769, 13.0112641, -24.4863299, 1.89010072
1770, 13.3891, -24.917809, 1.51251482
1771, 13.231106, -24.7999692, 1.69105648
1772, 13.5396098, -24.9813917, 1.30245604
1773, 13.3891, -24.917809, -1.51251483
1774, 13.5396098, -24.9813917, -1.30245607
1775, 13.2311058, -24.7999691, -1.69105666
1776, 12.9556673, -24.3323816, -1.93324412
1777, 13.0112641, -24.4863299, -1.89010072
1778, 12.9211, -24.1686567, -1.95879422
1779, 10.7443823, -21.5, -2.2990089
1780, 9.19147877, -21.5, -0.726037003
1781, 9.55042724, -21.5, 1.43372454
1782, 11.8663529, -21.5, -2.39210902
1783, 9.76352563, -21.5, -1.68554346
1784, 9.10727397, -21.5, 0.36230117
1785, 10.3982338, -21.5, 2.15464875
1786, 13.3426519, -22.75, 2.77785117
1787, 13.1260135, -24, 2.37254921
1788, 13.1314923, -21.5, 2.38279926
1789, 13.9644661, -22.75, 3.53553391
1790, 13.653559, -24, 3.15669254
1791, 13.6521113, -21.5, 3.15492847
1792, 14.7221488, -22.75, 4.15734806
1793, 14.3433075, -24, 3.84644098
1794, 14.3433075, -21.5, 3.84644098
1795, 15.5327527, -22.75, 4.59062488
1796, 15.1274508, -24, 4.37398647
1797, 15.1274508, -21.5, 4.37398647
1798, 17.5, -20.4966447, 8.42
1799, 19.3871819, -19.5, 7.5149074
1800, 19.8619422, -19.5, 5.47309478
1801, 18.5491096, -19.5, 3.81922742
1802, 16.4563464, -19.5, 3.81661107
1803, 15.1406745, -19.5, 5.46149934
1804, 15.6079678, -19.5, 7.50884532
1805, 18.5177264, -19.5, 8.19559401
1806, 19.8578735, -19.5, 6.54482358
1807, 19.3853504, -19.5, 4.48281382
1808, 17.5039125, -19.5, 3.58000316
1809, 15.5824981, -19.5, 4.52365775
1810, 15.1406745, -19.5, 6.53850066
1811, 16.4451316, -19.5, 8.17799278
1812, 19.5374675, -21.5, 7.30580484
1813, 18.6146491, -21.5, 8.14801244
1814, 19.9126277, -21.5, 6.18875233
1815, 19.7037241, -22.754193, 5
1816, 19.4616687, -24.8125651, 4.58287049
1817, 19.6559621, -24.4342217, 4.90080605
1818, 19.2846274, -24.9308011, 4.36552609
1819, 15.9874852, -24.917809, 4.11089999
1820, 16.1975439, -24.9813917, 3.96039018
1821, 15.8089433, -24.7999691, 4.26889418
1822, 15.5667559, -24.3323816, 4.54433274
1823, 15.6098993, -24.4863299, 4.48873587
1824, 15.5412058, -24.1686567, 4.5789
1825, 15.0944034, -21.5, 6.26363793
1826, 15.8846988, -21.5, 7.80199942
1827, 15.1590207, -21.5, 5.38663553
1828, 15.3474332, -21.5, 7.10582824
1829, 16.6350622, -21.5, 8.26015099
1830, 36.0922959, -18.6764184, 5
1831, 36, -20.1404685, 5
1832, 23.7671206, -21.5, 5
1833, 27.8469617, -21.5, 5
1834, 31.9302695, -21.5, 5
1835, 21.7359521, -21.5, 5
1836, 25.8228284, -21.5, 5
1837, 29.8906237, -21.5, 5
1838, 33.9403668, -21.5, 5
1839, 24.1454496, -24, 5
1840, 28.5832448, -24, 5
1841, 21.925755, -24, 5
1842, 26.3483133, -24, 5
1843, 30.7688618, -24, 5
1844, 33.2219086, -23.9878923, 5
1845, 33.6341942, -23.9436052, 5
1846, 34.0245615, -23.8607304, 5
1847, 34.3936, -23.743306, 5
1848, 34.7614367, -23.5850713, 5
1849, 35.0957889, -23.4002905, 5
1850, 35.4153837, -23.181164, 5
1851, 35.7272345, -22.9185171, 5
1852, 35.9944571, -22.6434476, 5
1853, 36.2323238, -22.3464027, 5
1854, 36.4571108, -22.0009899, 5
1855, 36.6309772, -21.6643768, 5
1856, 36.7756052, -21.30333, 5
1857, 36.8862312, -20.9227564, 5
1858, 36.9584844, -20.5338869, 5
1859, 36.9916288, -20.1458512, 5
1860, 37, -18.6743972, 5
1861, 36.8268016, -17.6525174, 5
1862, 36.4178942, -18.2598891, 5
1863, 34, -21.5, -8.24945931
1864, 34, -20.418217, -8.25
1865, 34.4445619, -20.1517569, -7.58843985
1866, 37.9811778, -13.8831353, 4.19310666
1867, 37.9034728, -14.6751753, 4.42864548
1868, 37.7488558, -15.4496707, 4.66273296
1869, 37.5160528, -16.2120697, 4.85655678
1870, 37.2240338, -16.9145644, 4.97458136
1871, 37.0276075, -17.3174929, 4.99961884
1872, 37.7024369, -19.9853817, 4.71210002
1873, 37.9539759, -19.997739, 4.30005988
1874, 37.2841137, -19.9648308, 4.95904602
1875, 38, -16.735844, 4
1876, 38, -18.3600872, 4
1877, 38, -15.1233841, 4
1878, 37.6847217, -20.44689, 4.70859867
1879, 37.903459, -20.4793366, 4.37569713
1880, 37.3614729, -20.3989405, 4.92546792
1881, 37.6173514, -20.9036683, 4.70963316
1882, 37.8416884, -20.9598618, 4.35242735
1883, 37.2961739, -20.8232175, 4.92764179
1884, 37.5089298, -21.3527506, 4.70710678
1885, 37.7130309, -21.4257792, 4.38268343
1886, 37.2019628, -21.2429161, 4.92454138
1887, 37.3546253, -21.7881892, 4.70710678
1888, 37.5505856, -21.8808715, 4.38268343
1889, 37.0705725, -21.6538422, 4.91958746
1890, 37.1583834, -22.2064065, 4.70710678
1891, 37.3443156, -22.3178499, 4.38268343
1892, 36.878794, -22.038827, 4.92451657
1893, 36.922094, -22.6033749, 4.70710678
1894, 37.0962075, -22.7325063, 4.38268343
1895, 36.6706585, -22.4168976, 4.91908151
1896, 36.6480327, -22.9752714, 4.70710678
1897, 36.814995, -23.1265971, 4.36132011
1898, 36.4076509, -22.757402, 4.92387953
1899, 36.3388388, -23.3185143, 4.70710678
1900, 36.4844145, -23.4791324, 4.38268343
1901, 36.1334538, -23.0919069, 4.91595827
1902, 35.9974901, -23.6297982, 4.70710678
1903, 36.1266215, -23.8039117, 4.38268343
1904, 35.7986778, -23.3617308, 4.92768629
1905, 35.6270057, -23.9056777, 4.70762814
1906, 35.7404233, -24.0949034, 4.37457251
1907, 35.4575897, -23.6230241, 4.9261938
1908, 35.2305909, -24.1423712, 4.70982073
1909, 35.3263609, -24.3448599, 4.37163978
1910, 35.0891035, -23.8432212, 4.92764612
1911, 34.8143331, -24.3424761, 4.70832571
1912, 34.8893271, -24.5520703, 4.37135082
1913, 34.7010499, -24.025871, 4.92918136
1914, 34.3800326, -24.4996936, 4.70802564
1915, 34.4340385, -24.7152975, 4.3714535
1916, 34.2997044, -24.1790055, 4.9267855
1917, 33.9324129, -24.6137831, 4.70753136
1918, 33.9646273, -24.8309545, 4.37695962
1919, 33.8842772, -24.2892785, 4.92554947
1920, 33.4756442, -24.6819599, 4.708529
1921, 33.4866591, -24.9061728, 4.36714172
1922, 33.4589431, -24.3420007, 4.9308849
1923, 33, -24.690717, 4.72312513
1924, 33, -24.9513426, 4.30813519
1925, 33, -24.2574363, 4.96629528
1926, 15.804923, -24.9017792, 4.09227793
1927, 14.8861355, -24.7079595, 3.9119246
1928, 15.0672102, -24.924205, 3.64092722
1929, 14.7648266, -24.3834733, 4.09347629
1930, 14.1731816, -24.7079595, 3.32681841
1931, 14.4036459, -24.924205, 3.09635408
1932, 14.0187846, -24.3834733, 3.48121543
1933, 13.5880754, -24.7079595, 2.61386445
1934, 13.8590728, -24.924205, 2.43278979
1935, 13.4065237, -24.3834733, 2.73517341
1936, 13.4077221, -24.9017792, 1.69507702
1937, 13.4077221, -24.9017792, -1.69507702
1938, 13.5880754, -24.7079595, -2.61386445
1939, 13.8590728, -24.924205, -2.43278979
1940, 13.4065237, -24.3834733, -2.73517341
1941, 14.1731816, -24.7079595, -3.32681841
1942, 14.4036459, -24.924205, -3.09635408
1943, 14.0187846, -24.3834733, -3.48121543
1944, 23.5, -22.2450152, 2.42
1945, 23.5, -23.6190903, 2.42
1946, 23.5, -20.8689901, 2.42
1947, 25.4203411, -19.5, 1.47264732
1948, 25.8671655, -19.5, -0.502918983
1949, 24.5459289, -19.5, -2.18229988
1950, 22.4667147, -19.5, -2.18831476
1951, 21.1394245, -19.5, -0.53299469
1952, 21.6047837, -19.5, 1.50484391
1953, 24.5599443, -19.5, 2.17552706
1954, 25.8573473, -19.5, 0.547095739
1955, 25.4208369, -19.5, -1.4720005
1956, 23.4721684, -19.5, -2.41983995
1957, 21.6269559, -19.5, -1.53235305
1958, 21.1607785, -19.5, 0.620034331
1959, 22.4322183, -19.5, 2.17169108
1960, 17.5, -18.0206982, -4.8
1961, 18.4312168, -16.55, -5.2431412
1962, 18.6448515, -16.55, -6.35960405
1963, 18.0218023, -16.55, -7.08061203
1964, 16.9793395, -16.55, -7.08116264
1965, 16.3300865, -16.55, -6.26702512
1966, 16.5618022, -16.55, -5.25181224
1967, 18.0142275, -16.55, -4.91576292
1968, 18.6713402, -16.55, -5.73930469
1969, 18.4604634, -16.55, -6.71938169
1970, 17.5003039, -16.55, -7.19999996
1971, 16.5618022, -16.55, -6.74818776
1972, 16.3300865, -16.55, -5.73297488
1973, 16.9793395, -16.55, -4.91883736
1974, 12.4528117, -19.5, 0.729485989
1975, 12.6647157, -19.5, -0.288855399
1976, 12.0014723, -19.5, -1.0901952
1977, 10.9643227, -19.5, -1.0738016
1978, 10.325015, -19.5, -0.243742292
1979, 10.5704392, -19.5, 0.758891824
1980, 11.9785667, -19.5, 1.10044261
1981, 12.6602155, -19.5, 0.306431119
1982, 12.4602653, -19.5, -0.719646073
1983, 11.5324097, -19.5, -1.19956226
1984, 10.5864254, -19.5, -0.778062581
1985, 10.3221148, -19.5, 0.229317596
1986, 10.9423957, -19.5, 1.06258056
1987, 18.4445935, -19.5, 6.74009675
1988, 18.6345045, -19.5, 5.60897626
1989, 18.004476, -19.5, 4.91119149
1990, 16.9591195, -19.5, 4.92880985
1991, 16.3300865, -19.5, 5.73297488
1992, 16.5618022, -19.5, 6.74818776
1993, 17.9824513, -19.5, 7.09874508
1994, 18.6681714, -19.5, 6.27454601
1995, 18.4462369, -19.5, 5.26200566
1996, 17.5363313, -19.5, 4.80055011
1997, 16.5896016, -19.5, 5.21822332
1998, 16.3300865, -19.5, 6.26702512
1999, 16.9703376, -19.5, 7.07678121
2000, 35.8312977, -18.9643855, 5.00712781
2001, 35.6568542, -19.1568542, 7.26341979
2002, 35.9204689, -18.8660003, 9.5
2003, 36.1840836, -18.5751463, 7.250273
2004, 36.4178967, -18.2598859, 9.5
2005, 36.6517569, -17.9445619, 7.25001985
2006, 36.8535635, -17.6078679, 9.5
2007, 37.0553701, -17.2711739, 7.24877963
2008, 34.6235108, -21.5, 5.54904256
2009, 35.1062978, -21.5, 5.21078333
2010, 34.155216, -21.5, 6.2274899
2011, 34, -20.9584686, 7
2012, 34.1425775, -20.3327594, 6.25839255
2013, 34.7355255, -19.9359636, 5.45045031
2014, 35.3611561, -19.4248594, 5.10477482
2015, 34, -21.5, 8.2497896
2016, 34, -20.9591027, 9.5
2017, 34, -20.418217, 8.25
2018, 37.9614778, -14.2841371, 6.88744127
2019, 37.9614778, -14.2841371, 5.58038667
2020, 37.9614778, -14.2841371, 8.19372064
2021, 37.9807389, -13.8920686, 9.5
2022, 38, -13.5, 6.75
2023, 38, -13.5, 5.37875719
2024, 38, -13.5, 8.125
2025, 37.8462822, -15.0607226, 7.01531761
2026, 37.90388, -14.6724298, 9.5
2027, 37.6555227, -15.8222774, 7.12559965
2028, 37.7508732, -15.4416168, 9.5
2029, 37.3910363, -16.5614675, 7.20928975
2030, 37.5232115, -16.1920625, 9.5
2031, 37.2232032, -16.9163207, 9.5
2032, 24.4467927, -19.5, 0.737281206
2033, 24.6640658, -19.5, -0.291463261
2034, 23.9878446, -19.5, -1.09636109
2035, 22.9586115, -19.5, -1.07093346
2036, 22.3246772, -19.5, -0.242107937
2037, 22.5723868, -19.5, 0.761271169
2038, 23.9820511, -19.5, 1.0989207
2039, 24.6605742, -19.5, 0.305069889
2040, 24.4701963, -19.5, -0.706200557
2041, 23.5388458, -19.5, -1.19937109
2042, 22.585233, -19.5, -0.776660388
2043, 22.3224839, -19.5, 0.231205399
2044, 22.9384684, -19.5, 1.06051037
2045, 12.4396651, -16.55, 0.746344105
2046, 12.6680974, -16.55, -0.274860919
2047, 12.024986, -16.55, -1.0790689
2048, 10.9805934, -16.55, -1.0817656
2049, 10.3259794, -16.55, -0.248345799
2050, 10.533634, -16.55, 0.711432941
2051, 12.0036779, -16.55, 1.08917793
2052, 12.6664182, -16.55, 0.2819016
2053, 12.4355746, -16.55, -0.75146529
2054, 11.4802943, -16.55, -1.19983819
2055, 10.5624117, -16.55, -0.748951389
2056, 10.3457056, -16.55, 0.328031168
2057, 10.9509293, -16.55, 1.06701516
2058, 19.8443332, -16.55, 1.87192466
2059, 20.4254429, -16.55, -0.664668198
2060, 18.7979428, -16.55, -2.70468937
2061, 16.1964376, -16.55, -2.70198538
2062, 14.5760747, -16.55, -0.671312906
2063, 15.1580187, -16.55, 1.87486632
2064, 18.8078447, -16.55, 2.69991522
2065, 20.4245235, -16.55, 0.668701991
2066, 19.843586, -16.55, -1.87285999
2067, 17.5090929, -16.55, -2.99998622
2068, 15.1556931, -16.55, -1.87195757
2069, 14.5755889, -16.55, 0.669193262
2070, 16.2010173, -16.55, 2.70419005
2071, 18.4269963, -16.55, 6.76202216
2072, 18.6711899, -16.55, 5.73863013
2073, 18.0206605, -16.55, 4.91883736
2074, 16.9793395, -16.55, 4.91883736
2075, 16.3300865, -16.55, 5.73297488
2076, 16.5618022, -16.55, 6.74818776
2077, 17.9791917, -16.55, 7.1001706
2078, 18.6739032, -16.55, 6.2489
2079, 18.445697, -16.55, 5.26131388
2080, 17.5, -16.55, 4.8
2081, 16.5486431, -16.55, 5.26861766
2082, 16.3300865, -16.55, 6.26702512
2083, 17.0363813, -16.55, 7.10682327
2084, 24.4607304, -16.55, 0.719025126
2085, 24.6745649, -16.55, -0.245758649
2086, 24.0248448, -16.55, -1.07913761
2087, 22.9753179, -16.55, -1.07921668
2088, 22.3292155, -16.55, -0.263179881
2089, 22.5602703, -16.55, 0.746262769
2090, 23.999268, -16.55, 1.09120642
2091, 24.65565, -16.55, 0.32322306
2092, 24.4303068, -16.55, -0.757977093
2093, 23.5136376, -16.55, -1.1999225
2094, 22.5696829, -16.55, -0.75796438
2095, 22.3305796, -16.55, 0.269176371
2096, 22.9879227, -16.55, 1.08525427
2097, 11.5, -18.0163223, 1.2
2098, 17.5, -18.0247955, 7.2
2099, 35.0751463, -19.6840836, 7.35809714
2100, 35.3660003, -19.4204689, 9.5
2101, 34.4445619, -20.1517569, 7.59520652
2102, 34.7587257, -19.9187572, 9.5
2103, 34.2222809, -20.284987, 9.5
2104, 23.5, -18.0259555, 1.2
2105, 17.5, -17.525, 3
2106, 19.8375111, -18.5, 1.88043666
2107, 20.4303958, -18.5, -0.642479938
2108, 18.798502, -18.5, -2.70442095
2109, 16.1891795, -18.5, -2.6984717
2110, 14.5711997, -18.5, -0.649714299
2111, 15.1583509, -18.5, 1.8752812
2112, 18.8072337, -18.5, 2.7002111
2113, 20.4440261, -18.5, 0.57681024
2114, 19.8648982, -18.5, -1.84587555
2115, 17.501386, -18.5, -2.99999968
2116, 15.1507296, -18.5, -1.86572473
2117, 14.5570427, -18.5, 0.582238819
2118, 16.2042233, -18.5, 2.70572777
2119, 21.6234759, -21.5, 9.5
2120, 25.7490359, -21.5, 9.5
2121, 29.875, -21.5, 9.5
2122, 19.5770574, -21.5, 9.5
2123, 23.6875897, -21.5, 9.5
2124, 27.8123247, -21.5, 9.5
2125, 31.9376515, -21.5, 9.5
2126, 38, -4.48930397, 9.5
2127, 38, -9, 9.5
2128, 38, -2.30138628, 9.5
2129, 38, -6.74787455, 9.5
2130, 38, -11.25, 9.5
2131, 20.9872853, -19, 9.5
2132, 24.4969857, -19, 9.5
2133, 19.311293, -19, 9.5
2134, 22.7535269, -19, 9.5
2135, 26.2529087, -19, 9.5
2136, 28.2781976, -18.98706, -7.12510042
2137, 28.2775743, -18.987089, -4.75047835
2138, 28.2785154, -18.9870452, 7.12543201
2139, 28.2777435, -18.9870811, 4.749282
2140, 28.2775855, -18.9870885, -2.37453179
2141, 28.2771951, -18.9871066, 2.37515861
2142, 28.2775178, -18.9870916, -0.0008844896
2143, 28.8330342, -18.9353463, -7.125
2144, 28.8332743, -18.9353126, -4.74941436
2145, 28.8330088, -18.9353498, 7.12514357
2146, 28.8330342, -18.9353463, 4.75
2147, 28.8343612, -18.93516, -2.37569745
2148, 28.8330185, -18.9353485, 2.37477566
2149, 28.8327099, -18.9353918, -0.000762139818
2150, 29.3802296, -18.8324307, -7.12501643
2151, 29.3801312, -18.832454, -4.74982978
2152, 29.3805684, -18.8323505, 7.12493232
2153, 29.3804396, -18.832381, 4.74933238
2154, 29.3798658, -18.8325168, -2.37492495
2155, 29.3803187, -18.8324096, -0.000932935949
2156, 29.3801837, -18.8324415, 2.3749153
2157, 29.9157858, -18.6790885, -7.12500314
2158, 29.9158325, -18.6790727, -4.74986545
2159, 29.9157942, -18.6790857, 7.12506308
2160, 29.9157679, -18.6790945, 4.74966313
2161, 29.9152365, -18.6792738, -2.37432257
2162, 29.9158842, -18.6790553, 2.37497361
2163, 29.9158895, -18.6790535, -0.000791066671
2164, 30.4348038, -18.4766789, -7.12508613
2165, 30.4347771, -18.4766908, -4.74996228
2166, 30.4345884, -18.4767747, 7.12512449
2167, 30.4346079, -18.476766, 4.74998956
2168, 30.4344188, -18.47685, -2.37445498
2169, 30.4344158, -18.4768514, 2.37476069
2170, 30.4345722, -18.4767818, 6.36556542e-05
2171, 30.9325547, -18.2270837, -7.12503508
2172, 30.932509, -18.2271093, -4.75012705
2173, 30.9326043, -18.2270559, 7.125
2174, 30.9326043, -18.2270559, 4.75
2175, 30.9325251, -18.2271003, 0.000211345256
2176, 30.9325956, -18.2270608, -2.37502467
2177, 30.9326611, -18.227024, 2.37473193
2178, 31.4051944, -17.932234, -7.12499414
2179, 31.4053647, -17.9321164, -4.75034122
2180, 31.4050635, -17.9323244, 7.12513733
2181, 31.4051518, -17.9322634, 4.75
2182, 31.405167, -17.932253, -2.37496808
2183, 31.4052197, -17.9322166, 2.37503383
2184, 31.4051434, -17.9322692, 1.03864811e-05
2185, 31.8482424, -17.5949224, -7.12500259
2186, 31.8482757, -17.5948945, -4.74989589
2187, 31.8481334, -17.5950137, 7.12522037
2188, 31.8483663, -17.5948186, 4.75031372
2189, 31.8482902, -17.5948824, 1.1611224e-05
2190, 31.8482635, -17.5949047, -2.37501657
2191, 31.8483319, -17.5948474, 2.37500779
2192, 32.2581609, -17.2178605, -7.1250163
2193, 32.2582338, -17.2177868, -4.74972481
2194, 32.2580445, -17.217978, 7.12500355
2195, 32.2582228, -17.217798, 4.7500425
2196, 32.2582452, -17.2177754, 8.74433456e-06
2197, 32.2582103, -17.2178106, -2.37501339
2198, 32.2582568, -17.2177637, 2.3749962
2199, 32.631345, -16.8043297, -7.125
2200, 32.6314137, -16.8042461, 7.12505147
2201, 32.6313929, -16.8042715, 4.74986685
2202, 32.631345, -16.8043297, -4.75
2203, 32.6313583, -16.8043135, 0.000150783354
2204, 32.6313785, -16.804289, -2.37500613
2205, 32.6313342, -16.8043429, 2.37485199
2206, 32.9644495, -16.3580534, -7.1249604
2207, 32.9644911, -16.3579919, 7.125
2208, 32.9645591, -16.3578913, -4.74995842
2209, 32.9644911, -16.3579919, 4.75
2210, 32.9645062, -16.3579696, 0.000143655766
2211, 32.9646119, -16.3578133, -2.37465451
2212, 32.9645692, -16.3578764, 2.3748186
2213, 33.2547667, -15.8826565, -7.125
2214, 33.2548266, -15.8825473, 7.12492889
2215, 33.2546772, -15.8828196, 4.75002411
2216, 33.2546591, -15.8828526, -4.74952582
2217, 33.2548694, -15.8824692, -2.37523638
2218, 33.2548254, -15.8825494, 2.37525833
2219, 33.2548348, -15.8825324, 9.86603834e-05
2220, 33.4996684, -15.3824208, -7.12501816
2221, 33.499612, -15.382551, -4.750703
2222, 33.4996999, -15.382348, 7.12510292
2223, 33.4998572, -15.381985, 4.75019835
2224, 33.4996219, -15.382528, 9.72965918e-05
2225, 33.4996824, -15.3823885, -2.37496822
2226, 33.4993768, -15.3830939, 2.37582133
2227, 33.697058, -14.861669, -7.12502298
2228, 33.6971221, -14.8614727, -4.74916772
2229, 33.697081, -14.8615986, 7.12503014
2230, 33.6972288, -14.8611464, 4.75056956
2231, 33.6970658, -14.8616452, -2.37505338
2232, 33.697073, -14.8616231, 0.000110261054
2233, 33.6969342, -14.8620478, 2.37531003
2234, 33.8452704, -14.3247999, -7.1250782
2235, 33.8454336, -14.3240798, -4.74909315
2236, 33.845282, -14.3247489, 7.125
2237, 33.845282, -14.3247489, 4.75
2238, 33.8452987, -14.3246754, -2.37503934
2239, 33.8452059, -14.3250846, 2.37508043
2240, 33.8452876, -14.3247242, 5.23063999e-05
2241, 33.9430074, -13.7764946, -7.12508181
2242, 33.9430157, -13.7764316, -4.75
2243, 33.9430157, -13.7764316, 7.125
2244, 33.9430157, -13.7764316, 4.75
2245, 33.9430092, -13.7764812, -2.37497801
2246, 33.9430087, -13.7764846, 2.3749874
2247, 33.9430032, -13.7765268, 6.52924969e-06
2248, 33.9895622, -13.5, -7.12494032
2249, 33.9895652, -13.5, 7.125
2250, 33.9895652, -13.5, 4.75
2251, 33.9895652, -13.5, -4.75
2252, 33.9896221, -13.5, -2.37497018
2253, 33.9895925, -13.5, 2.37498964
2254, 33.9892156, -13.5, -1.81081628e-05
2255, 34, -0.537714454, 1.38724804
2256, 34, -6.25551933, -4.67927459
2257, 34, 5.52360379, -6.09707496
2258, 34, 5.56869621, 6.26129235
2259, 34, 6.96673883, -4.65743726
2260, 34, -7.84413858, 4.31583369
2261, 34, -8.62335564, -3.93781533
2262, 34, -5.63597226, 5.13414429
2263, 34, 3.63702837, 7.43000726
2264, 34, 6.86881075, 4.42798335
2265, 34, -2.24813814, -8.43004862
2266, 34, 4.06004212, -5.69589279
2267, 34, 4.16790406, 3.90756111
2268, 34, -1.77200209, -2.11008798
2269, 34, 0.0842227435, -0.952953749
2270, 34, -4.36810825, 7.03959944
2271, 34, -4.76704315, -6.88575007
2272, 34, -10.5105044, 2.92863271
2273, 34, -10.1426164, 6.14810103
2274, 34, -2.10366124, 0.923004297
2275, 34, 1.75656049, 0.981502418
2276, 34, 7.76512661, 3.26457925
2277, 34, -3.98225459, -4.78675032
2278, 34, -4.00594914, 3.85737256
2279, 34, 2.72221103, -2.60803142
2280, 34, 4.19063676, 5.9127363
2281, 34, 3.71676642, -7.53685673
2282, 34, -6.89020164, 7.0929338
2283, 34, 4.79306969, 7.09715647
2284, 34, 6.45366864, 5.54315733
2285, 34, 5.56702604, 4.53286457
2286, 34, -10.8118418, -2.50927438
2287, 34, 6.45655847, -5.54659979
2288, 34, 5.59609194, -4.75663491
2289, 34, 7.64575066, -3.71965211
2290, 34, -10.6230748, -6.33834903
2291, 34, 4.76672918, -7.01878451
2292, 34, 2.69760767, -8.0844632
2293, 34, -10.3354237, 0.28518353
2294, 34, 6.17623964, -3.56783718
2295, 34, 2.70101595, 2.82695776
2296, 34, -3.27002824, -3.11203257
2297, 34, -2.48703434, 2.57311178
2298, 34, -7.47648312, -6.87113708
2299, 34, 1.59293739, -1.26986232
2300, 34, 4.29173302, -3.74712243
2301, 34, 2.84176795, 8.26002165
2302, 34, 1.79145949, 8.68341447
2303, 34, -1.4729399, -0.359523685
2304, 34, 8.17268738, -2.70988743
2305, 34, -12.0615374, -5.54417451
2306, 34, -12.0615374, -7.91917451
2307, 34, -9.81153741, -7.91917451
2308, 34, -11.8180983, 7.82297301
2309, 34, -11.8249348, 5.4532228
2310, 34, -9.57862037, 7.82995057
2311, 34, 1.18621769, -8.88512746
2312, 34, 0.56621828, -8.92576437
2313, 34, -3.37704415, -8.95394717
2314, 34, -1.1336269, -8.96528267
2315, 34, -0.56621828, -8.92576437
2316, 34, -1.70201615, -8.42655585
2317, 34, 1.79560874, -8.76391205
2318, 34, 2.5781943, -8.63037928
2319, 34, 3.16655014, -8.43065938
2320, 34, 1.91502212, -8.21799598
2321, 34, 3.67612952, -8.15685615
2322, 34, 4.23338321, -7.88204903
2323, 34, 3.20718705, -7.81065997
2324, 34, 4.75836459, -7.62301292
2325, 34, 5.27498138, -7.27782062
2326, 34, 4.2417478, -7.27782062
2327, 34, 5.65396302, -6.8166356
2328, 34, 6.1205591, -6.40729469
2329, 34, 5.14516247, -6.55728048
2330, 34, 6.58703645, -6.13205711
2331, 34, 6.9967076, -5.66491668
2332, 34, 5.99008113, -5.82183737
2333, 34, 7.25179778, -5.22033542
2334, 34, 7.59838073, -4.70382724
2335, 34, 6.71164865, -5.10201852
2336, 34, 7.93669472, -4.23595949
2337, 34, 8.21269728, -3.67605174
2338, 34, 7.30624474, -4.18854468
2339, 34, 8.47825886, -3.16474365
2340, 34, 8.69992053, -2.61873225
2341, 34, 7.90856199, -3.21451067
2342, 34, 8.92707334, -1.52967442
2343, 34, 9.00021799, -0.903374115
2344, 34, 8.49779422, -1.74524355
2345, 34, 9.03997302, -0.311018973
2346, 34, 9.08999241, 0.339162775
2347, 34, 8.60679264, 2.06642947
2348, 34, 8.7697549, 1.49869592
2349, 34, 8.4899637, 2.87850834
2350, 34, 8.26987013, 3.44591051
2351, 34, 7.96548053, 2.49314222
2352, 34, 7.99304766, 4.00296019
2353, 34, 7.55268404, 4.5951802
2354, 34, 7.20268215, 5.10697523
2355, 34, 7.32534498, 3.87260017
2356, 34, 6.99532555, 5.66388564
2357, 34, 6.58620036, 6.13071962
2358, 34, 6.66070324, 4.98223371
2359, 34, 6.14360742, 6.48911431
2360, 34, 5.6764984, 6.89918586
2361, 34, 6.01039771, 5.90226936
2362, 34, 5.28792541, 7.31639044
2363, 34, 4.77140306, 7.6623228
2364, 34, 5.18207825, 6.67777441
2365, 34, 4.19444272, 7.82698126
2366, 34, 3.63256053, 8.1017508
2367, 34, 4.21385205, 7.25697495
2368, 34, 3.23970689, 8.52110066
2369, 34, 2.6632865, 8.72015593
2370, 34, 3.23432413, 7.85113016
2371, 34, 2.12917254, 8.91509775
2372, 34, 1.51425783, 9.06112461
2373, 34, 2.31962297, 8.45195045
2374, 34, -0.0299599225, 9.07436745
2375, 34, 0.617735473, 9.06911594
2376, 34, 0.9142374, 8.75920591
2377, 34, -1.17227539, 8.74082656
2378, 34, -3.29281912, 8.54680805
2379, 34, -1.95799154, -3.19955763
2380, 34, -0.886296335, -2.68041185
2381, 34, 1.40347942, -2.85537672
2382, 34, 2.40843077, -3.47643952
2383, 34, -0.832978155, -1.52766761
2384, 34, 0.0433633943, -2.15575302
2385, 34, 0.83278107, -1.11760211
2386, 34, 0.791379266, -2.29164563
2387, 34, 2.15454033, -1.90870479
2388, 34, -7.9998039, 3.01930511
2389, 34, -6.93022576, 3.53422794
2390, 34, -5.00585119, 3.33785885
2391, 34, -3.93949076, 2.77163876
2392, 34, -6.73628748, 4.73882335
2393, 34, -5.83848983, 3.88795566
2394, 34, -4.8269306, 4.50585729
2395, 34, 4.0089905, 2.80510482
2396, 34, 5.07875098, 3.33909983
2397, 34, 6.89058397, 3.05257382
2398, 34, 6.42603882, 3.55307043
2399, 34, 5.7870258, 3.59129954
2400, 34, 6.21415607, 4.47250149
2401, 34, 4.8702263, 4.23316179
2402, 34, 1.96331799, 8.17843582
2403, 34, -12.0085046, 3.83760299
2404, 34, -12.0141505, 1.45904996
2405, 34, -10.330927, 4.54181032
2406, 34, -12.1701112, -1.26069724
2407, 34, -12.1588678, -3.62842455
2408, 34, -10.448955, 1.63106752
2409, 34, -11.9199188, 0.144728038
2410, 34, -10.5982359, -1.10566841
2411, 34, -10.7211751, -4.424456
2412, 34, -8.23824156, -8.18556854
2413, 34, -5.98824156, -8.18556854
2414, 34, -9.04922281, -6.60347579
2415, 34, -4.63352157, -8.19287503
2416, 34, -3.53915753, -7.66738354
2417, 34, -6.12176313, -6.87844357
2418, 34, -5.70659184, 8.29890987
2419, 34, -7.94616847, 8.29761019
2420, 34, -3.26633411, 7.37366036
2421, 34, -4.44998329, 8.27594279
2422, 34, -5.63188155, 7.06595808
2423, 34, -8.51808236, 6.62230664
2424, 34, -3.31354248, -5.693121
2425, 34, -3.01141738, -4.57972097
2426, 34, -2.65989258, -3.72911509
2427, 34, -2.51663838, -2.61059801
2428, 34, -3.62403548, -3.94978087
2429, 34, -2.51413063, -7.53220469
2430, 34, -3.64509651, -6.73127361
2431, 34, -4.37740046, -5.84061098
2432, 34, 2.62108476, -7.33262142
2433, 34, 3.05031115, -5.0342922
2434, 34, 3.30230199, -6.13833621
2435, 34, 3.88840427, -6.61637476
2436, 34, 3.13066414, -7.05881819
2437, 34, 3.1661566, -4.05990702
2438, 34, 4.17588757, -4.72150761
2439, 34, 3.50151215, -3.20334981
2440, 34, -9.48389543, -0.156548115
2441, 34, -9.31748974, 1.03087354
2442, 34, -9.28592514, 2.29127639
2443, 34, -9.19781559, 3.62529917
2444, 34, -7.89564104, -3.15454909
2445, 34, -8.73050509, -2.32954329
2446, 34, -9.75240591, -3.23268099
2447, 34, -9.71634092, -1.52379687
2448, 34, -5.5193566, -3.59085693
2449, 34, -6.70119673, -3.54654834
2450, 34, -7.44910449, -4.31937151
2451, 34, -3.23452433, -1.89500678
2452, 34, -4.0559175, -2.76571956
2453, 34, -4.408977, -3.58692727
2454, 34, -5.11888696, -4.73301246
2455, 34, -2.96310123, 1.3361166
2456, 34, -2.66986251, 0.163428429
2457, 34, -2.57497919, -1.34942919
2458, 34, -2.45407861, -0.48456814
2459, 34, -1.61613174, -1.23440268
2460, 34, -1.78435479, 0.270921759
2461, 34, -3.22628983, 2.1213244
2462, 34, -2.28949154, 1.76504368
2463, 34, -3.27405617, 3.18792487
2464, 34, 2.5119233, 0.189586165
2465, 34, 2.79615179, 1.36017349
2466, 34, 3.32347268, 2.24058315
2467, 34, 3.44411599, 3.36070839
2468, 34, 2.21926166, 1.92611023
2469, 34, 3.75431586, -2.54148515
2470, 34, 3.00860413, -1.60544851
2471, 34, 2.51447516, -0.922872608
2472, 34, 1.65956998, -0.164674336
2473, 34, 6.66742787, -3.03104485
2474, 34, 5.46071799, -3.07161155
2475, 34, 4.55329003, -3.0497238
2476, 34, 5.23398633, -3.6574798
2477, 34, 7.66787114, -2.55687833
2478, 34, 7.38410053, -3.03110032
2479, 34, 6.91099515, -3.64374465
2480, 34, -3.55385543, 6.21840184
2481, 34, -1.81764309, 3.09504184
2482, 34, -2.65532196, 3.93563013
2483, 34, -4.11226481, 5.28760962
2484, 34, -5.0127449, 6.08761347
2485, 34, -3.31691244, 4.63752495
2486, 34, 0.320611574, 2.43251179
2487, 34, -0.850220859, 2.48919122
2488, 34, -1.50846388, 1.99053676
2489, 34, 2.74201108, 4.07787875
2490, 34, 1.92557569, 3.20796789
2491, 34, 1.4598956, 2.30458842
2492, 34, 0.624255634, 1.16873842
2493, 34, 2.87005117, 7.55046494
2494, 34, 3.2112721, 6.42044107
2495, 34, 3.94418651, 6.6607954
2496, 34, 3.38422229, 5.65562898
2497, 34, 3.39052501, 4.65666484
2498, 34, 4.17456262, 4.91222124
2499, 34, 2.458494, 7.94029368
2500, 34, -0.220888057, 0.220013437
2501, 34, 0.926628937, 0.0017674526
2502, 34, -0.695967834, -0.649189777
2503, 34, -1.00528125, 0.524539271
2504, 34, -1.32942661, 1.16031936
2505, 34, -6.86680369, -5.77248739
2506, 34, -8.06356596, -5.40924923
2507, 34, -5.51101762, -5.78249981
2508, 34, 4.79182296, -5.89648387
2509, 34, 4.82806703, -5.22626385
2510, 34, 5.55984786, -5.42685494
2511, 34, 4.41338565, -6.35733865
2512, 34, 6.02632521, -5.15161735
2513, 34, 4.88052346, 6.09229528
2514, 34, 4.50573782, 6.50654198
2515, 34, 5.56880197, 5.3938387
2516, 34, 4.87408175, 5.22729054
2517, 34, 6.01161077, 5.0366246
2518, 34, 6.28141539, -4.70703608
2519, 34, 5.88616579, -4.16223605
2520, 34, 6.57148923, -4.11263722
2521, 34, -7.3703861, 5.70936557
2522, 34, -6.26771183, 6.11556553
2523, 34, -8.99929608, 5.23024486
2524, 34, -9.63280453, -5.14119958
2525, 34, 4.94391248, -4.25187867
2526, 35.9961007, 0.918533313, -9.43979615
2527, 35.9988154, 0.316970247, -9.47922467
2528, 35.9865656, 2.16015115, -9.23569651
2529, 35.984662, 1.55070718, -9.35692245
2530, 37.99, 0.611752394, -9.47000955
2531, 37.9938799, 0.230672568, -9.49719907
2532, 38.2051246, 0.314220978, -9.49480201
2533, 38.2133334, 0.651567968, -9.47762941
2534, 38.2165825, 0.918112948, -9.45553111
2535, 38.2201096, 1.24033064, -9.41868249
2536, 38.2283198, 3.64620914, -8.77240896
2537, 38.2172678, 3.9285356, -8.64965942
2538, 38.2514379, -2.47419827, 9.1721504
2539, 37.9938087, 0.228266784, 9.4972572
2540, 38.2051382, 0.32491599, 9.49444204
2541, 38.2620264, -4.72541984, 8.24138383
2542, 38.245, 3.63549261, 8.77685556
2543, 38.2219493, 1.24005251, 9.41871912
2544, 38.2167885, 0.915619511, 9.45577289
2545, 38.214306, 0.648278911, 9.47785495
2546, 38.2491292, -0.0150835246, -9.49998803
2547, 38.2568503, -2.47448893, -9.17207199
2548, 38.2652436, -4.72636532, -8.24084164
2549, 38.2163216, 4.17995179, -8.53100247
2550, 38.2059726, 4.49532156, -8.36911489
2551, 38.2162882, 4.75260965, -8.2257341
2552, 38.2070673, 5.00172454, -8.07667949
2553, 38.2178548, 5.29768723, -7.88571556
2554, 38.217213, 5.5226077, -7.72986444
2555, 38.2209321, 5.77839322, -7.5405684
2556, 38.2238564, 7.54605523, -5.77122608
2557, 38.2182901, 7.72974565, -5.52277395
2558, 38.2205559, 7.88094811, -5.3047768
2559, 38.2022434, 8.07544323, -5.00372029
2560, 38.2162729, 8.22674784, -4.75085465
2561, 38.2044474, 8.36878517, -4.49593537
2562, 38.2186865, 8.53262963, -4.17662922
2563, 38.2180985, 8.64783209, -3.93255645
2564, 38.2225597, 8.77333012, -3.64399212
2565, 38.2248902, 9.42069616, -1.22494243
2566, 38.2195453, 9.45484596, -0.92514207
2567, 38.2199495, 9.47730328, -0.65629453
2568, 38.2046349, 9.49521594, -0.301453447
2569, 38.2179253, 9.499996, -0.00871858466
2570, 38.2057723, 9.49567228, 0.286719412
2571, 38.2174606, 9.4778715, 0.648036927
2572, 38.218322, 9.45473808, 0.926243917
2573, 38.2303661, 9.41648865, 1.25687769
2574, 38.2224008, 8.77135619, 3.64874096
2575, 38.2191773, 8.6493753, 3.9291611
2576, 38.2180399, 8.53499388, 4.17179571
2577, 38.2062792, 8.37040521, 4.4929185
2578, 38.2183983, 8.23078365, 4.74385925
2579, 38.2049524, 8.07989324, 4.99653131
2580, 38.2185799, 7.89585017, 5.2825704
2581, 38.2148019, 7.72745164, 5.52598328
2582, 38.2435691, 7.52711621, 5.79590559
2583, 38.2427999, 5.81896319, 7.50930538
2584, 38.245, 5.53353812, 7.7220435
2585, 38.245, 5.27791721, 7.89896132
2586, 38.245, 5.01664458, 8.06742072
2587, 38.245, 4.75, 8.22724134
2588, 38.245, 4.478269, 8.37825201
2589, 38.245, 4.20174256, 8.52029104
2590, 38.245, 3.92071678, 8.65320634
2591, 38.2652237, -6.72152931, 6.71349713
2592, 38.2632519, -9.17729686, 2.4550402
2593, 38.266133, -9.49999998, 0.00064466949
2594, 38.2543745, -8.22907306, 4.74682595
2595, 38.2681861, -9.17700928, -2.45611497
2596, 38.2650607, -8.22413108, -4.75538305
2597, 38.2687314, -6.7200028, -6.71502512
2598, 37.99, 0.602307851, 9.47075025
2599, 37.99, 1.85081065, 9.30770882
2600, 37.99, 3.05040584, 8.98620584
2601, 37.99, 4.19724443, 8.51116975
2602, 37.99, 5.272267, 7.89050518
2603, 37.99, 6.25707962, 7.13483187
2604, 37.99, 7.12860737, 6.26386122
2605, 37.99, 7.89100173, 5.27185563
2606, 37.99, 8.51373289, 4.19248448
2607, 37.99, 8.98543983, 3.05301824
2608, 37.99, 9.30692772, 1.85488413
2609, 37.99, 9.46960425, 0.622012438
2610, 37.99, 9.46951592, -0.624917546
2611, 37.99, 9.30856939, -1.84656959
2612, 37.99, 8.98583193, -3.05184566
2613, 37.99, 8.51312105, -4.19374063
2614, 37.99, 7.888654, -5.27563796
2615, 37.99, 7.13602742, -6.25588322
2616, 37.99, 6.25698991, -7.13504209
2617, 37.99, 5.2742056, -7.88943888
2618, 37.99, 4.19704898, -8.51149624
2619, 37.99, 3.05106803, -8.98601372
2620, 37.99, 1.8506706, -9.30772119
2621, 38.5, 0.0127228956, 8.7867349
2622, 38.5, -2.40910417, 8.28722317
2623, 38.5, 2.40584839, 8.2947949
2624, 38.5, -4.75069571, 7.36018895
2625, 38.5, 4.72614101, 7.34968865
2626, 38.5, -6.56740425, 5.73804798
2627, 38.5, -8.62831279, 1.27616705
2628, 38.5, -8.00004448, 3.5989049
2629, 38.5, -8.63370848, -1.27716105
2630, 38.5, -7.97266867, -3.60076525
2631, 38.5, -6.53883757, -5.70927479
2632, 38.5, -4.75003782, -7.34629603
2633, 38.5, -2.41385203, -8.28288924
2634, 38.5, 0.0137450971, -8.79428832
2635, 38.5, 2.41534249, -8.30999866
2636, 38.5, 6.57787547, -5.73411957
2637, 38.5, 4.77793685, -7.39054089
2638, 38.5, 8.01564666, -3.63313001
2639, 38.5, 8.69532856, -1.26451228
2640, 38.5, 8.67602926, 1.26568086
2641, 38.5, 8.00938434, 3.63944911
2642, 38.5, 6.56307359, 5.70442923
2643, 35.9972914, 3.33499785, -8.87885978
2644, 35.9958504, 2.75811583, -9.07468484
2645, 35.9950728, 4.47431048, -8.36319636
2646, 35.9919722, 3.92400649, -8.63457626
2647, 35.9967044, 0.297080643, 9.48052831
2648, 35.9924417, 0.904376592, 9.44072403
2649, 35.9941853, 5.52604949, -7.70870164
2650, 35.9947002, 5.00787144, -8.05493715
2651, 35.9972642, 1.56486461, 9.35410636
2652, 35.9950645, 2.15662158, 9.23639858
2653, 35.995, 6.48394421, -6.92235
2654, 35.995, 6.01680379, -7.33202115
2655, 35.9938788, 2.75682425, 9.07512327
2656, 35.9920895, 3.34104898, 8.8768057
2657, 35.995, 7.33202115, -6.01680379
2658, 35.995, 6.92235, -6.48394421
2659, 35.996425, 3.91717617, 8.6379446
2660, 35.9953102, 4.47254039, 8.36406927
2661, 35.9954418, 8.05510881, -5.00761453
2662, 35.9919375, 7.71094564, -5.52269112
2663, 35.9954699, 5.00815426, 8.05474817
2664, 35.9949245, 5.52439443, 7.70980752
2665, 35.9943547, 8.63890251, -3.91523371
2666, 35.9946505, 8.36419219, -4.47229114
2667, 35.994347, 6.01647857, 7.33230636
2668, 35.9983382, 6.48457665, 6.92179537
2669, 35.9974117, 9.07368828, -2.76105161
2670, 35.9996567, 8.87587728, -3.34378403
2671, 35.9972603, 6.92250324, 6.48376947
2672, 35.9987446, 7.33158908, 6.01729648
2673, 36.0010109, 9.35546293, -1.55804466
2674, 35.994959, 9.23797614, -2.14869063
2675, 35.995267, 7.70925177, 5.52522617
2676, 35.9962157, 8.05406953, 5.00916993
2677, 35.9863224, 9.4792764, -0.316181
2678, 35.9871271, 9.43860193, -0.936753529
2679, 35.9962974, 8.36346271, 4.47377037
2680, 35.9936876, 8.63817684, 3.91670522
2681, 35.9939045, 9.4396329, 0.92102402
2682, 36.001266, 9.47878318, 0.323706052
2683, 35.998687, 8.87837246, 3.33643345
2684, 35.9944738, 9.07652529, 2.75269403
2685, 35.9990292, 9.23543842, 2.16144864
2686, 35.9958442, 9.35594922, 1.55559995
2687, 34.275, -1.33107782, -3.75493167
2688, 34.275, 1.13243656, -3.64847125
2689, 34.4125, -0.690098416, -3.48288574
2690, 34.1375, -0.690098416, -3.48288574
2691, 34.1375, -1.71389213, -4.0315809
2692, 34.275, 2.04058017, -4.37269162
2693, 34.4125, -1.71389213, -4.0315809
2694, 34.275, -2.54456185, -5.41922036
2695, 34.2826525, -2.54101635, -6.59610057
2696, 34.275, -2.04058017, -4.37269162
2697, 34.2937146, -2.04927086, -7.6163505
2698, 34.275, 1.71233505e-14, -8.61
2699, 34.275, 1.13243656, -8.35152875
2700, 34.2830737, -1.14320265, -8.34631364
2701, 34.275, 2.04058017, -7.62730838
2702, 34.275, 2.54456185, -6.58077964
2703, 34.275, 2.54456185, -5.41922036
2704, 34.246898, -7.39367948, 2.2067527
2705, 34.2781958, -4.87372456, 2.35448585
2706, 34.3199162, -6.67568626, 2.52102124
2707, 34.1258608, -6.69369574, 2.51612524
2708, 34.1327814, -7.71417847, 1.96816975
2709, 34.275, -3.95941983, 1.62730838
2710, 34.3677051, -7.73330384, 1.95134769
2711, 34.2789697, -8.54678666, 0.570944563
2712, 34.2762304, -8.54676885, -0.571023997
2713, 34.2713586, -8.0309596, 1.63929957
2714, 34.26718, -8.02038516, -1.65231468
2715, 34.2739445, -6.00200417, -2.60999923
2716, 34.275, -4.86756344, -2.35152875
2717, 34.2768282, -7.14652614, -2.34469141
2718, 34.2721371, -3.96713342, -1.63693417
2719, 34.2747405, -3.45484093, -0.578156817
2720, 34.2753545, -3.45580427, 0.582381404
2721, 34.275, 4.86756344, 2.35152875
2722, 34.2777547, 7.1272707, 2.35400951
2723, 34.275, 3.95941983, 1.62730838
2724, 34.2755836, 8.04376616, 1.62330523
2725, 34.2753079, 3.45572248, 0.582023975
2726, 34.275, 3.45543815, -0.580779638
2727, 34.2758078, 3.95826542, -1.62585975
2728, 34.275, 4.86756344, -2.35152875
2729, 34.2784865, 5.98388765, -2.60995027
2730, 34.2764315, 8.0363353, -1.63261708
2731, 34.2735841, 8.54395072, -0.583450703
2732, 34.2734482, 7.13119672, -2.35212542
2733, 34.2841243, 8.5370295, 0.612846898
2734, 34.236898, -1.33092565, 8.24515855
2735, 34.282619, 1.15463948, 8.34070666
2736, 34.3470487, -0.65298606, 8.52699608
2737, 34.1081643, -0.659365329, 8.52533906
2738, 34.1249348, -1.73136672, 7.95306664
2739, 34.275, 2.04058017, 7.62730838
2740, 34.3777068, -1.73610617, 7.94885489
2741, 34.2742993, -2.54479353, 6.57976364
2742, 34.2759369, -2.03952564, 7.62862984
2743, 34.275, -2.54456185, 5.41922036
2744, 34.275, -2.04058017, 4.37269162
2745, 34.275, -1.13243656, 3.64847125
2746, 34.275, 1.85929266e-14, 3.39
2747, 34.275, 1.13243656, 3.64847125
2748, 34.282377, 2.02685985, 4.35563411
2749, 34.275, 2.54456185, 6.58077964
2750, 34.275, 2.54456185, 5.41922036
2751, 39.4840277, -3.05620713, 7.39321297
2752, 39.4596526, 2.47271754, 7.60826314
2753, 38.9690796, -1.55989333, 7.84644714
2754, 39.9737211, -1.56556334, 7.8453178
2755, 38.9461794, -3.90765094, 6.98070657
2756, 39.475, 4.70228202, 6.47213595
2757, 39.9813855, -3.89901922, 6.98553141
2758, 39.4779152, -6.47255789, 4.70170123
2759, 39.4659863, -4.71066917, 6.46603402
2760, 39.4978516, -7.61691803, 2.44592717
2761, 39.4621608, -7.99999989, -0.00130684792
2762, 39.5032933, -4.67857458, -6.48929425
2763, 39.4792386, -6.47190896, -4.70259444
2764, 39.4597439, -7.62964071, -2.40594734
2765, 39.4912116, -0.00243855576, -7.99999963
2766, 39.4874027, -2.47114146, -7.60877519
2767, 39.4425984, 2.46799587, -7.60979608
2768, 39.4773626, 6.47228917, -4.70207113
2769, 39.475, 4.70228202, -6.47213595
2770, 39.4927733, 7.62005494, 2.43613685
2771, 39.4567602, 7.99999993, 0.00102041308
2772, 39.4504463, 7.6299693, -2.4049051
2773, 39.4779634, 6.47252677, 4.70174406
2774, 34.55, 1.12797204, -3.75259035
2775, 34.55, 3.47055197e-05, -3.48426441
2776, 34.55, -1.05381656, -3.71687895
2777, 34.55, -1.96830258, -4.43348244
2778, 34.55, 1.96690292, -4.43149165
2779, 34.55, -2.45457054, -6.56061757
2780, 34.55, -2.44494982, -5.40718371
2781, 34.55, -1.08844824, -8.26971848
2782, 34.55, -1.99309029, -7.5361097
2783, 34.55, 1.09150549, -8.2666145
2784, 34.55, -0.0322267859, -8.51455216
2785, 34.55, 2.45265312, -6.55983767
2786, 34.55, 1.94006501, -7.59978712
2787, 34.55, 2.46037468, -5.48064705
2788, 34.55, -4.87569949, 2.25014852
2789, 34.55, -6.00412062, 2.51503247
2790, 34.55, -7.0635709, 2.2786395
2791, 34.55, -7.9850675, 1.54237919
2792, 34.55, -4.03304061, 1.57019095
2793, 34.55, -8.45387051, -0.553172873
2794, 34.55, -8.4443444, 0.584334159
2795, 34.55, -7.09839687, -2.26424278
2796, 34.55, -7.98022757, -1.54991299
2797, 34.55, -4.90762341, -2.26692264
2798, 34.55, -6.03556767, -2.51515732
2799, 34.55, -3.54595769, -0.558262796
2800, 34.55, -4.05741593, -1.5974989
2801, 34.55, -3.54087249, 0.528983309
2802, 34.55, 7.12570739, 2.25100415
2803, 34.55, 5.99967613, 2.51637138
2804, 34.55, 4.93935643, 2.28019006
2805, 34.55, 4.03134871, 1.56839757
2806, 34.55, 7.96800603, 1.56809242
2807, 34.55, 3.54723804, -0.561461667
2808, 34.55, 3.55601373, 0.59475825
2809, 34.55, 4.90927846, -2.26777479
2810, 34.55, 4.01231695, -1.53986546
2811, 34.55, 7.09326797, -2.26729572
2812, 34.55, 5.9658997, -2.51585771
2813, 34.55, 8.45215964, -0.557008864
2814, 34.55, 7.94423598, -1.59453453
2815, 34.55, 8.45469796, 0.534992027
2816, 34.55, 1.12797204, 8.24740965
2817, 34.55, 3.47055197e-05, 8.51573559
2818, 34.55, -1.05829287, 8.28010257
2819, 34.55, -1.97293047, 7.56277424
2820, 34.55, 1.96690292, 7.56850835
2821, 34.55, -2.45273514, 5.43476181
2822, 34.55, -2.44342502, 6.5972525
2823, 34.55, -1.09156803, 3.73341562
2824, 34.55, -1.99063432, 4.4606255
2825, 34.55, 1.09150549, 3.7333855
2826, 34.55, -0.0411531852, 3.48574515
2827, 34.55, 2.45265312, 5.44016233
2828, 34.55, 1.94006501, 4.40021288
2829, 34.55, 2.46037468, 6.51935295
2830, 40.45, 5.42355237, 1.97083128
2831, 40.45, -5.27384105, 2.03515524
2832, 40.45, 3.55952119, -2.97293497
2833, 40.45, -3.56034542, -2.97247413
2834, 40.45, -1.72329538, 4.95410701
2835, 40.45, 1.72305603, 4.95162827
2836, 40.45, 6.11171953, -2.05327368
2837, 40.45, -6.09846121, -2.06787839
2838, 40.45, 4.15407166, 0.599306527
2839, 40.45, -4.09166168, 0.454711118
2840, 40.45, 4.49742415, -1.33557266
2841, 40.45, -4.53070651, -1.37340295
2842, 40.45, -2.31665824, -4.56818129
2843, 40.45, 2.32111919, -4.56404524
2844, 40.45, 2.38232862, 5.79050399
2845, 40.45, 3.23384504, 4.3463221
2846, 40.45, -2.38200597, 5.79119224
2847, 40.45, -3.16014479, 4.25120092
2848, 40.45, -0.589900686, -4.12103365
2849, 40.45, 0.962564733, -4.25603533
2850, 40.45, -6.20386577, 2.03156994
2851, 40.45, -5.15382006, 3.48303021
2852, 40.45, -1.18015799, 3.88060001
2853, 40.45, 0.904413474, 4.00854635
2854, 40.45, 4.14269992, 2.54402392
2855, 40.45, 5.16197054, 3.6627791
2856, 40.45, -3.80988206, -4.74921317
2857, 40.45, -2.89866162, -6.09323325
2858, 40.45, 3.810603, -4.75583002
2859, 40.45, 2.90573447, -6.0463708
2860, 40.45, -4.10545932, 2.13229226
2861, 40.45, 5.17141939, -3.43546185
2862, 40.45, -5.17761696, -3.44886131
2863, 40.45, -1.88040912, -5.56146879
2864, 40.45, 1.86973397, -5.57207436
2865, 40.45, 0.00480975002, 7.63296784
2866, 40.45, -0.558550761, 7.42573399
2867, 40.45, 0.536955098, 7.42474922
2868, 40.45, -2.85927321, 6.87880748
2869, 40.45, 2.87280757, 6.91346127
2870, 40.45, 6.8979959, 1.8352191
2871, 40.45, 7.38098409, 1.52686058
2872, 40.45, 6.54783083, 2.22805992
2873, 40.45, 5.72005396, 1.59622501
2874, 40.45, 5.2052863, 1.38115952
2875, 40.45, -0.296050698, -4.44775485
2876, 40.45, -0.828559523, -4.64368126
2877, 40.45, 1.00862033, -4.72742604
2878, 40.45, 0.477533858, -4.51187781
2879, 40.45, 0.205799407, -4.21466223
2880, 40.45, -0.581565524, 3.45874076
2881, 40.45, -1.88832163, 3.01323952
2882, 40.45, 1.76106495, 3.10986564
2883, 40.45, 0.44252492, 3.51803315
2884, 40.45, -0.142769712, 3.86147314
2885, 40.45, -6.10988983, 1.63032715
2886, 40.45, -6.63779346, 1.44506953
2887, 40.45, -5.14281558, 1.42466823
2888, 40.45, -5.64780933, 1.64553889
2889, 40.45, -5.74119855, 2.0573698
2890, 40.45, -6.44364768, 3.03163667
2891, 40.45, -5.05856574, 5.03436155
2892, 40.45, -3.52329382, 6.26313061
2893, 40.45, -1.71800785, 6.34405374
2894, 40.45, -3.95149211, 5.43390608
2895, 40.45, -2.77606986, 5.0227873
2896, 40.45, -4.15469067, 3.86147786
2897, 40.45, -7.47697971, -1.26772776
2898, 40.45, -7.56615534, 1.01276104
2899, 40.45, -7.37417944, 1.51482512
2900, 40.45, -6.95061723, 2.22919609
2901, 40.45, -5.69957046, 2.78167172
2902, 40.45, -5.05447822, -5.01933044
2903, 40.45, -6.45948649, -3.01182767
2904, 40.45, -7.14645502, -1.73658569
2905, 40.45, -6.89288869, -2.26197562
2906, 40.45, -6.35427817, -1.61259206
2907, 40.45, -5.66354432, -2.78490779
2908, 40.45, -2.66557695, -7.0272784
2909, 40.45, -0.296401977, -7.56687807
2910, 40.45, -1.78030639, -6.70414432
2911, 40.45, -3.77313048, -6.34719875
2912, 40.45, -3.35323654, -5.40318961
2913, 40.45, -4.27103411, -5.64877207
2914, 40.45, -4.52723796, -4.10983171
2915, 40.45, 0.278392436, -7.54992072
2916, 40.45, 2.66835805, -7.03915249
2917, 40.45, 6.46118882, -3.00964352
2918, 40.45, 5.05873634, -5.02430536
2919, 40.45, 3.80635251, -6.33157511
2920, 40.45, 1.79262737, -6.69563278
2921, 40.45, 3.34984148, -5.3880921
2922, 40.45, 4.27468625, -5.65731828
2923, 40.45, 4.52283566, -4.10991497
2924, 40.45, 7.47953256, -1.25559299
2925, 40.45, 7.56966248, 1.01242625
2926, 40.45, 7.14452975, -1.73999563
2927, 40.45, 6.35788194, -1.61094488
2928, 40.45, 6.88380094, -2.26267195
2929, 40.45, 5.65631553, -2.78119632
2930, 40.45, 5.05044818, 5.11665088
2931, 40.45, 6.45986291, 3.14303554
2932, 40.45, 5.30434689, 2.82881994
2933, 40.45, 1.70597888, 6.31385846
2934, 40.45, 3.54667394, 6.25221649
2935, 40.45, 2.8125359, 5.07871659
2936, 40.45, 3.98823804, 5.47519552
2937, 40.45, 4.18779799, 4.00234381
2938, 40.45, 4.60337418, 0.688036848
2939, 40.45, 4.46569223, 0.144149853
2940, 40.45, 4.7510736, 1.30565338
2941, 40.45, 4.63962536, -0.806417201
2942, 40.45, 4.99343792, -1.25015905
2943, 40.45, 4.2933478, -0.402248072
2944, 40.45, 5.7798583, -1.6165685
2945, 40.45, 5.29236611, -1.74054815
2946, 40.45, -1.44165016, -5.37943214
2947, 40.45, -1.56151292, -5.9408542
2948, 40.45, -1.48416834, -4.32984089
2949, 40.45, -1.65263022, -4.90540969
2950, 40.45, -2.1191713, -5.07290322
2951, 40.45, -2.03936308, -6.24770505
2952, 40.45, -2.39386212, -5.83383598
2953, 40.45, 2.03535733, -6.23427645
2954, 40.45, 1.57528662, -5.95240193
2955, 40.45, 1.43790731, -5.38840327
2956, 40.45, 2.3840263, -5.83208041
2957, 40.45, 1.65166066, -4.39950813
2958, 40.45, 1.66357427, -4.90104163
2959, 40.45, 2.12520316, -5.07292705
2960, 40.45, -3.35218422, 1.25976174
2961, 40.45, -3.5471302, -0.156089644
2962, 40.45, -3.2286486, 2.05481617
2963, 40.45, -4.11328111, 1.33722946
2964, 40.45, -2.19558468, 4.08276356
2965, 40.45, -2.80134036, 3.07297523
2966, 40.45, -3.64228728, 3.18242874
2967, 40.45, -3.32147265, -1.85506057
2968, 40.45, -2.47440455, -2.91257381
2969, 40.45, -3.72047302, -1.0452922
2970, 40.45, -4.08362829, -2.18216178
2971, 40.45, -4.26855786, -0.487393921
2972, 40.45, -1.00601479, -3.47300622
2973, 40.45, 0.440048958, -3.55026384
2974, 40.45, -2.95054026, -3.78953081
2975, 40.45, -1.84722028, -3.62372939
2976, 40.45, 2.47221448, -2.91413329
2977, 40.45, 3.32144466, -1.85444418
2978, 40.45, 1.84146421, -3.62612316
2979, 40.45, 2.95125555, -3.78824319
2980, 40.45, 1.18796423, -3.5156698
2981, 40.45, 3.59359279, -0.0847681369
2982, 40.45, 3.38043053, 1.32756791
2983, 40.45, 4.07065865, -2.15934135
2984, 40.45, 3.70110032, -1.02146703
2985, 40.45, 4.16735259, 1.61606918
2986, 40.45, 3.24256764, 2.22947976
2987, 40.45, 2.10677759, 4.20968952
2988, 40.45, 2.84011902, 3.13049227
2989, 40.45, 3.70387952, 3.43620792
2990, 40.45, -1.78701, 5.7943974
2991, 40.45, -1.48282104, 5.3530965
2992, 40.45, -1.14260672, 4.90048348
2993, 40.45, -2.05554794, 5.37535855
2994, 40.45, 0.167450729, 4.38168278
2995, 40.45, 0.725696367, 4.45837181
2996, 40.45, -1.45604478, 4.40143355
2997, 40.45, -0.86291211, 4.39585594
2998, 40.45, 1.14044937, 4.8979676
2999, 40.45, 1.48225408, 5.35124496
3000, 40.45, 1.31847642, 4.46560792
3001, 40.45, 1.78695061, 5.79345931
3002, 40.45, 2.05530312, 5.37437854
3003, 40.45, -5.78299125, -1.61073174
3004, 40.45, -5.01034285, -1.25530514
3005, 40.45, -4.64645066, -0.832827506
3006, 40.45, -5.30693447, -1.75220087
3007, 40.45, -4.44039947, 0.0757083333
3008, 40.45, -4.53179549, 0.64862122
3009, 40.45, -4.6068282, 1.46692002
3010, 40.45, -4.69316978, 2.10207644
3011, 40.45, 4.79792311, 2.27588697
3012, 40.45, 4.65477931, 3.10210615
3013, 40.45, -5.224155, 2.76159162
3014, 40.45, -4.63112076, 2.80909467
3015, 40.45, 4.36772962, -3.20384638
3016, 40.45, 4.85399422, -2.39827414
3017, 40.45, 3.0595831, -4.66757696
3018, 40.45, 3.6958027, -3.87401891
3019, 40.45, -4.87151565, -2.42283156
3020, 40.45, -4.36805785, -3.20676471
3021, 40.45, -3.69580735, -3.87369287
3022, 40.45, -3.06031976, -4.67027242
3023, 40.45, -2.43372889, 4.61842959
3024, 40.45, 2.4750485, 4.67458681
3025, 40.45, -2.61697376, -5.32564309
3026, 40.45, 2.62856308, -5.31615899
3027, 36.0054004, 2.35932555, -5.46149934
3028, 36.0149213, 1.6524786, -4.23203097
3029, 36.0417062, -1.89199738, -7.50888897
3030, 36.0224041, 1.89230198, -7.50850695
3031, 36.0169496, 0.00632450256, -8.41999174
3032, 36.0497088, -2.35927994, -5.46129954
3033, 36.0338216, -1.65247222, -4.23202502
3034, 35.2824606, 0.888232781, -3.74890193
3035, 36.7390146, 0.834281704, -3.72835433
3036, 36.7669108, -0.888228726, -3.74890033
3037, 35.2919108, -0.888228726, -3.74890033
3038, 35.2919108, -1.77698197, -4.35721728
3039, 35.2824606, 1.77698493, -4.35722048
3040, 36.7652584, -1.7780034, -4.35832283
3041, 36.7574606, 1.77698493, -4.35722048
3042, 35.2600768, -2.18456131, -4.95880268
3043, 35.2599995, -2.41999921, -6.00194963
3044, 36.0524076, -2.10728517, -4.81014739
3045, 35.25696, -2.18111587, -7.04839572
3046, 35.2562704, -1.52139134, -7.88195866
3047, 36.0098841, -2.36075013, -6.53222063
3048, 35.2564624, -0.539601443, -8.35907403
3049, 35.2538109, 0.5443834, -8.35797513
3050, 36.0414118, -1.06189753, -8.17457436
3051, 35.286202, 1.50901449, -7.89189727
3052, 35.286202, 2.18043854, -7.04980369
3053, 36.0699953, 1.0614052, -8.17481471
3054, 35.2777002, 2.42, -6
3055, 35.2777002, 2.18034466, -4.95000135
3056, 36.0139022, 2.35937369, -6.5382897
3057, 36.0101608, 2.09798504, -4.79382474
3058, 36.7615997, -2.41999057, -5.99324455
3059, 36.7560389, -2.176191, -4.94141947
3060, 36.8048969, -1.53011892, -7.87486962
3061, 36.764134, -2.1733837, -7.06433233
3062, 36.771869, 0.576125442, -8.35042113
3063, 36.7564479, -0.554073503, -8.35571699
3064, 36.761202, 2.18043854, -7.04980369
3065, 36.7624969, 1.50394139, -7.89593256
3066, 36.7527002, 2.18034466, -4.95000135
3067, 36.7527002, 2.42, -6
3068, 36.0471016, -3.6423432, 0.545760379
3069, 36.0306792, -5.99583964, -2.41999642
3070, 36.0045074, -7.87996551, -1.52385357
3071, 36.0369475, -4.10637798, -1.50684957
3072, 36.0313331, -4.34774593, 1.76817886
3073, 36.0501819, -8.36269868, 0.523502556
3074, 35.9475581, -7.7590127, 1.66200912
3075, 35.2589576, -5.12464092, 2.2561353
3076, 36.7687356, -5.11900908, 2.2539421
3077, 36.6848877, -6.93360201, 2.23266372
3078, 35.2837398, -6.92081187, 2.23796906
3079, 35.3539884, -7.72619391, 1.69607034
3080, 35.2593331, -4.22875096, 1.64896235
3081, 36.7668271, -7.78136801, 1.63802564
3082, 36.7707231, -4.21417153, 1.63316156
3083, 35.2578781, -8.14530945, 1.11984257
3084, 35.2589237, -8.41999376, 0.00549516628
3085, 35.9849313, -8.10571231, 1.19263391
3086, 35.2554847, -8.17834533, -1.05414023
3087, 35.2469053, -7.50685058, -1.89362122
3088, 36.0618974, -8.36846199, -0.496777411
3089, 35.2551048, -6.54465545, -2.35791231
3090, 35.2535674, -5.46977683, -2.36119957
3091, 36.0145569, -7.06233764, -2.17435938
3092, 35.2596559, -4.48758295, -1.8891783
3093, 35.2562827, -3.82135851, -1.053528
3094, 36.0336251, -4.96167271, -2.1859269
3095, 35.2612612, -3.58000976, 0.0068737815
3096, 35.2578916, -3.81683349, 1.04411876
3097, 36.0312565, -3.64335925, -0.550131247
3098, 36.0381412, -3.89747664, 1.19824685
3099, 36.7220811, -8.41979408, -0.0315689164
3100, 36.7270349, -8.17207829, 1.06699386
3101, 36.7682235, -7.50699089, -1.89350956
3102, 36.7726298, -8.18694571, -1.03617974
3103, 36.7616581, -5.45399709, -2.35760065
3104, 36.7696519, -6.54977508, -2.35672386
3105, 36.7430268, -3.81714338, -1.04476648
3106, 36.7771285, -4.50456063, -1.90264582
3107, 36.7365743, -3.81514563, 1.04058224
3108, 36.7432798, -3.5800001, 0.000710654568
3109, 36.0105232, 8.35464579, 0.558608275
3110, 36.0412964, 7.6722093, 1.74931874
3111, 36.0122672, 6.00102803, -2.41999978
3112, 36.0047394, 4.11101834, -1.51266265
3113, 36.0009669, 7.88812234, -1.51373512
3114, 36.041381, 3.64033882, 0.537028031
3115, 36.0293603, 4.34372493, 1.7644129
3116, 35.2559686, 6.8627192, 2.2609988
3117, 36.7310163, 6.88544602, 2.25219567
3118, 36.7727358, 5.12800495, 2.25743763
3119, 35.2591663, 5.12836014, 2.25757479
3120, 35.2548526, 4.22930306, 1.64955519
3121, 35.2590632, 7.77431354, 1.64566445
3122, 36.7663245, 4.21784802, 1.63717266
3123, 36.7563379, 7.76904306, 1.65132876
3124, 35.2523233, 3.81640694, 1.04322642
3125, 35.2545419, 3.58001756, 0.00921833151
3126, 36.0296587, 3.89845723, 1.19996583
3127, 35.248128, 3.81933522, -1.04933365
3128, 35.2473606, 4.49315324, -1.89362426
3129, 36.0172049, 3.63573107, -0.516364618
3130, 35.2436802, 5.47200038, -2.36169778
3131, 35.2404606, 6.52835584, -2.36161811
3132, 36.0134183, 4.97882446, -2.19399191
3133, 35.2471307, 7.50959186, -1.8914366
3134, 35.2718797, 8.17834016, -1.05415092
3135, 36.0008528, 7.01958659, -2.19473078
3136, 35.2761367, 8.41998462, 0.0086290115
3137, 35.2588166, 8.17947681, 1.05179886
3138, 35.9506192, 8.35945752, -0.537922123
3139, 36.0337172, 8.0951954, 1.21101455
3140, 36.7403268, 3.58000865, -0.00647042782
3141, 36.7346697, 3.81795717, 1.04646504
3142, 36.7684734, 4.49678685, -1.89651001
3143, 36.7442041, 3.81398309, -1.0381378
3144, 36.7359917, 6.52189425, -2.36305446
3145, 36.7702492, 5.47027574, -2.36131154
3146, 36.7955692, 8.18688726, -1.0363031
3147, 36.7601219, 7.49753969, -1.90099313
3148, 36.7491571, 8.16630844, 1.07866016
3149, 36.8048237, 8.41980818, -0.0304694093
3150, 36.0445996, 2.35932555, 6.53850066
3151, 36.0350787, 1.6524786, 7.76796903
3152, 36.0322927, 1.1457254e-15, 3.58
3153, 36.0408738, 1.89204189, 4.49116685
3154, 36.0408738, -1.89204189, 4.49116685
3155, 36.0460722, -2.35555863, 6.55474639
3156, 36.0443311, -1.64458039, 7.77531838
3157, 35.2925394, 0.888232781, 8.25109807
3158, 36.7823669, 0.844743086, 8.26777625
3159, 36.7564307, -0.894216229, 8.24872794
3160, 35.2625756, -0.884045734, 8.25274569
3161, 35.2637694, -1.77458832, 7.64536814
3162, 35.2925394, 1.77698493, 7.64277952
3163, 36.7771813, -1.78042638, 7.63904909
3164, 36.7313237, 1.81288788, 7.60307129
3165, 35.2595338, -2.18289305, 7.04469035
3166, 35.2632708, -2.4199981, 6.00302965
3167, 36.0393875, -2.10678335, 7.1907409
3168, 35.2611805, -2.18036846, 4.95005078
3169, 35.2555538, -1.50913149, 4.10819606
3170, 36.0526379, -2.35696757, 5.45127068
3171, 35.2911464, -0.53850066, 3.64067445
3172, 35.2911464, 0.53850066, 3.64067445
3173, 36.0447476, -1.04455134, 3.81704043
3174, 35.2578576, 1.50696279, 4.10646807
3175, 35.2954369, 2.18034804, 4.95000836
3176, 36.0441414, 1.05320948, 3.82120451
3177, 35.2972998, 2.42, 6
3178, 35.2972998, 2.18034466, 7.04999865
3179, 36.0427367, 2.35932728, 5.46150693
3180, 36.0398392, 2.09798504, 7.20617526
3181, 36.7799806, -2.41998938, 5.99283109
3182, 36.761584, -2.1743942, 7.06226639
3183, 36.7815595, -1.51179287, 4.11032217
3184, 36.7851406, -2.17694174, 4.9429642
3185, 36.7389094, 0.529890104, 3.63872567
3186, 36.7298459, -0.530116332, 3.63877645
3187, 36.7704369, 2.18034804, 4.95000836
3188, 36.7769387, 1.49961554, 4.100644
3189, 36.7722998, 2.18034466, 7.04999865
3190, 36.7722998, 2.42, 6
3191, 38.3369568, 5.06928043, -0.757470184
3192, 39.6594129, 7.00498171, -0.655752818
3193, 38.5857024, 5.48760089, 1.08510237
3194, 39.3656971, 6.52546906, 1.07883375
3195, 39.4907217, 4.8479647, 0.335878951
3196, 38.4611447, 7.17532777, 0.242083917
3197, 38.3362489, 5.98534457, -1.1999105
3198, 39.2855884, 5.42917121, -1.05553517
3199, 38.3863576, 4.82935631, 0.263805505
3200, 39.5413687, 7.18631775, 0.180693636
3201, 38.4224519, 6.94469732, -0.739964171
3202, 39.748156, 5.24386353, 0.93180343
3203, 38.2067199, 6.7701804, 0.920229404
3204, 39.6834595, 6.32010093, -1.15651865
3205, 39.7038653, 4.9470491, -0.575581799
3206, 38.9789494, 6.59861808, -1.04002711
3207, 38.9776169, 7.17517485, -0.242825184
3208, 39.0122134, 4.86090614, -0.377445588
3209, 39.50623, 5.75492942, 1.17470865
3210, 38.0365666, 5.74799273, 1.1732401
3211, 38.4273156, 6.26733119, 1.1698436
3212, 39.8821363, 6.26350187, 1.17071208
3213, 40.0915192, 5.13679003, 0.833587758
3214, 40.0826876, 5.60773963, 1.13407751
3215, 39.9201885, 6.75050318, 0.936346608
3216, 39.1729136, 5.37146083, 1.02222234
3217, 38.0557943, 5.25847597, 0.943473431
3218, 37.8615592, 6.84373182, 0.853297496
3219, 37.861128, 6.39854813, 1.13188312
3220, 38.795988, 6.65667181, 1.00438147
3221, 39.9312161, 4.80041993, 0.0317435548
3222, 39.9437406, 4.93739572, 0.557559103
3223, 39.6279864, 4.9851821, 0.640425347
3224, 40.0621669, 5.16948374, -0.86616554
3225, 40.0705, 4.86691152, -0.395108216
3226, 39.6100304, 4.80172168, -0.0642578308
3227, 40.0793729, 6.39107091, -1.13448823
3228, 40.0646103, 5.86284746, -1.19213639
3229, 39.8773801, 5.46872922, -1.07598855
3230, 39.5727345, 5.80984257, -1.1848376
3231, 39.4937265, 5.15876646, -0.855760561
3232, 39.9962234, 7.123908, -0.420512551
3233, 40.0582964, 6.77963591, -0.912232341
3234, 39.6939438, 6.69722186, -0.976668663
3235, 40.0402216, 7.09990916, 0.479791464
3236, 40.0008982, 7.19997818, -0.00723616268
3237, 39.6013009, 7.15668873, -0.319485821
3238, 39.4649779, 6.94590536, 0.738419293
3239, 37.9413725, 4.92815068, 0.539573013
3240, 37.9540215, 4.80001944, -0.00682972523
3241, 38.4793868, 5.0794695, 0.769820494
3242, 37.9238974, 4.91896411, -0.520923597
3243, 37.9261506, 5.2454249, -0.933068279
3244, 38.3473719, 4.82984879, -0.265981457
3245, 37.9167402, 5.73080386, -1.16941585
3246, 37.9381192, 6.27215308, -1.16873124
3247, 38.3154062, 5.46223316, -1.07275665
3248, 37.9558854, 6.75756301, -0.930644019
3249, 37.9506598, 7.07960073, -0.523891464
3250, 38.3463774, 6.53880724, -1.07223447
3251, 37.9819586, 7.19992554, 0.0133682544
3252, 37.9836478, 7.07172567, 0.539818563
3253, 38.4301185, 7.16186784, -0.3001052
3254, 38.3246906, 7.00664221, 0.653200941
3255, 38.8144568, 5.25347775, -0.939523568
3256, 38.7533066, 5.72301301, -1.16759505
3257, 38.6783353, 4.94519669, -0.572180016
3258, 39.141966, 5.0957133, -0.788838108
3259, 38.7035532, 4.80136707, -0.0572633843
3260, 39.2497195, 7.19999462, -0.00359322973
3261, 39.3590754, 7.12303641, -0.422834736
3262, 39.3309185, 6.77855684, -0.91315346
3263, 39.3663613, 6.4102708, -1.12768696
3264, 38.9719088, 6.94305814, -0.742052113
3265, 39.0122343, 5.09979026, 0.793487502
3266, 38.9452532, 4.84274156, 0.317415968
3267, 38.9133738, 6.92221651, 0.767799915
3268, 38.9873678, 7.19485368, 0.111016583
3269, 39.2514054, 4.80000006, -0.000383530564
3270, 39.3490963, 4.89901225, -0.477311192
3271, 38.719408, 7.19994454, 0.011537106
3272, 38.6518364, 7.10296106, -0.47273343
3273, 39.1059042, 5.99199026, -1.19997327
3274, 38.66053, 6.29216754, -1.16388923
3275, 38.6948129, 6.77322941, -0.917668936
3276, 38.3774237, -0.00312939149, -7.19999592
3277, 39.4690503, -1.14781319, -5.64996445
3278, 38.4819507, 1.1587717, -5.68815364
3279, 39.6384152, 0.977070145, -6.69665912
3280, 38.581293, -0.512855398, -4.91511321
3281, 39.366901, 0.520660487, -4.91883736
3282, 38.3823243, 0.839564185, -6.85739838
3283, 38.3529779, -0.936722665, -6.75003377
3284, 39.2378124, -0.54251074, -7.0703654
3285, 39.5493257, 1.17055906, -5.7358192
3286, 38.3819504, -1.168546, -5.72705266
3287, 39.7472013, -0.753171058, -5.06579801
3288, 38.1954208, 0.757979983, -5.06969556
3289, 39.6978978, 0.230673967, -7.17762028
3290, 39.7077775, -1.05564061, -6.57063378
3291, 38.9250125, 1.17563919, -6.24056701
3292, 38.9743158, 0.461251544, -7.10781181
3293, 38.9932, -1.13553064, -6.38803371
3294, 39.5068732, -0.26681025, -4.83003748
3295, 38.031681, -0.248999529, -4.82611788
3296, 38.4185453, 0.256037552, -4.82763283
3297, 39.8787732, 0.264390772, -4.82948835
3298, 40.104709, -0.856538576, -5.15955865
3299, 40.0882476, -0.403441431, -4.86985177
3300, 39.9357506, 0.756786231, -5.06872421
3301, 39.1668976, -0.637766913, -4.98350929
3302, 38.0422779, -0.750342334, -5.06352449
3303, 37.8659205, 0.849787638, -5.15273324
3304, 37.855136, 0.383800721, -4.86303166
3305, 38.7827232, 0.644462507, -4.9877411
3306, 39.9421481, -1.19994299, -5.98830263
3307, 39.9451846, -1.05238291, -5.42338035
3308, 39.6243119, -1.00065174, -5.33765862
3309, 40.0633869, -0.864211805, -6.83254907
3310, 40.0942379, -1.11757095, -6.43707571
3311, 39.6052274, -1.19552809, -6.10350163
3312, 40.0471166, 0.433349171, -7.11902122
3313, 40.0649997, -0.152417317, -7.19028104
3314, 39.8551429, -0.556097869, -7.06336972
3315, 39.4779706, -0.132131437, -7.19270335
3316, 39.4908337, -0.856509565, -6.84047092
3317, 40.0812391, 1.0738962, -6.53548758
3318, 40.0556046, 0.777692628, -6.91388959
3319, 39.7145823, 0.567098443, -7.05754402
3320, 39.9679748, 1.06589024, -5.44874869
3321, 40.0084377, 1.19997299, -6.00805092
3322, 39.6486874, 1.1817731, -6.20835629
3323, 39.491295, 0.957800094, -5.27707609
3324, 37.9495979, -1.08418811, -5.48566922
3325, 37.9588059, -1.19999096, -6.00465873
3326, 38.4778092, -0.942127108, -5.25676618
3327, 37.9238054, -1.07917317, -6.52477163
3328, 37.9625615, -0.742408642, -6.9427775
3329, 38.3551303, -1.16885759, -6.27160989
3330, 37.9308824, -0.267045796, -7.16990878
3331, 37.9215225, 0.249971183, -7.1736756
3332, 38.3316594, -0.496492004, -7.09247228
3333, 37.9284986, 0.748566901, -6.9378953
3334, 37.9676026, 1.08068178, -6.52165783
3335, 38.337773, 0.460422262, -7.10815673
3336, 38.0095053, 1.19985071, -5.98107211
3337, 38.0030029, 1.0728343, -5.4623881
3338, 38.4486957, 1.16816295, -6.27458209
3339, 38.3500073, 1.00103362, -5.33823592
3340, 38.6458645, 0.283658113, -7.16599231
3341, 38.6605972, 0.728521461, -6.95354941
3342, 38.7804748, -0.745928611, -6.93999495
3343, 38.8057114, -0.293481796, -7.16355852
3344, 39.1220289, -0.0281172047, -7.19967055
3345, 39.0435026, -0.918533067, -5.2277973
3346, 38.9371962, -1.16297784, -5.70422552
3347, 39.2299005, -1.19967159, -6.02807282
3348, 38.6977589, -1.19850749, -6.05983147
3349, 39.35143, -1.09717551, -6.48601018
3350, 38.9166454, 0.928950299, -5.24036104
3351, 39.0158284, 1.16678987, -5.71964059
3352, 38.6602588, 1.07945792, -6.52418564
3353, 38.6845766, 1.1999906, -5.99524999
3354, 39.2542738, 1.19979169, -6.0223587
3355, 39.349023, 1.09204717, -6.49742636
3356, 39.3237925, 0.752649302, -6.9346224
3357, 39.3331087, 0.378658995, -7.13869108
3358, 39.0235523, 0.944318608, -6.74044741
3359, 38.7031104, -1.03016901, -6.61542815
3360, 39.0863248, -0.934104583, -6.75329186
3361, 39.4925839, 1.29638974, 2.70543409
3362, 39.4935799, 2.92109377, 0.683528471
3363, 39.4933321, 2.34627857, -1.86948573
3364, 39.4956813, -2.92410165, 0.670544197
3365, 39.4894612, -1.30151661, 2.70297142
3366, 39.4998782, -2.34545385, -1.87052031
3367, 39.4315887, -0.00586071347, -2.99999428
3368, 39.0470956, 0.656971118, 2.92718106
3369, 39.9629218, 0.672102965, 2.92374377
3370, 39.958903, -0.67559614, 2.92293857
3371, 39.0492484, -0.665460513, 2.92526278
3372, 39.9624827, -1.882377, 2.33594881
3373, 39.9738408, 1.89402179, 2.32651702
3374, 39.0305624, -1.88337885, 2.33514114
3375, 39.0224103, 1.89357079, 2.32688411
3376, 39.9559888, -2.99999278, -0.0065795782
3377, 39.9710608, -2.69689513, 1.31406113
3378, 39.4776653, -2.3440347, 1.87229841
3379, 39.0418702, -2.70778414, 1.29147398
3380, 39.971291, -1.85478811, -2.35791456
3381, 39.9583892, -2.7029835, -1.30149152
3382, 39.4768967, -2.92694542, -0.658020158
3383, 39.030946, -2.99994919, -0.0174598205
3384, 38.9994184, -2.69856518, -1.31062808
3385, 39.9377172, 0.685530121, -2.92062467
3386, 39.9476182, -0.68491245, -2.92076958
3387, 39.4784887, -1.30584165, -2.70088459
3388, 39.0108646, -1.8697435, -2.34607315
3389, 39.0238263, -0.678567603, -2.92225016
3390, 39.9588099, 2.70472102, -1.29787681
3391, 39.9688458, 1.85624594, -2.35676707
3392, 39.4758745, 1.30553983, -2.7010305
3393, 39.005465, 1.8624628, -2.3518572
3394, 39.0341988, 0.681224823, -2.92163186
3395, 39.9744539, 2.69496955, 1.31800575
3396, 39.962301, 2.99996379, -0.014740377
3397, 39.4753209, 2.92640087, -0.660437686
3398, 39.0214348, 2.99985938, -0.029046764
3399, 39.0213774, 2.70220454, -1.30310807
3400, 39.4758891, 2.33513269, 1.88338932
3401, 39.0465252, 2.70093735, 1.30573253
3402, 38.3939461, -0.938197779, 5.25181224
3403, 38.369995, 0.938250851, 5.25187879
3404, 38.393569, 0.829451771, 6.86718496
3405, 38.5728473, -0.528907337, 7.07715228
3406, 39.5783971, 0.00172911593, 4.80000125
3407, 39.5560539, 1.16991349, 6.26702512
3408, 39.4917879, -1.15966383, 6.30851222
3409, 38.3426065, 1.17656381, 6.23600341
3410, 38.3679827, -0.000172250658, 4.80000001
3411, 38.4036301, -1.17192113, 6.25807142
3412, 39.5810556, 0.938198376, 5.25181299
3413, 39.749338, -0.767472078, 6.92248935
3414, 39.636, -0.943060133, 5.25795042
3415, 39.2384273, 0.742904172, 6.94238707
3416, 38.9652495, 1.16953351, 5.73131547
3417, 38.9050242, 1.11946523, 6.43220087
3418, 38.9671546, 0.520695305, 4.91885413
3419, 38.9843258, -0.520722118, 4.91886704
3420, 38.9807389, -1.1546722, 5.67330119
3421, 39.5318269, -0.25599043, 7.17237746
3422, 38.0140439, -0.261681162, 7.17112039
3423, 38.3553187, 0.358133643, 7.14531231
3424, 39.8660399, 0.367540337, 7.14232837
3425, 40.0952567, -0.862356576, 6.83447057
3426, 40.1164591, -0.355620378, 7.14609517
3427, 39.8442137, 0.846140819, 6.85090876
3428, 39.1477059, -0.636930191, 7.01701521
3429, 38.068178, -0.73981159, 6.94481681
3430, 37.9492675, 0.872819402, 6.82352067
3431, 37.9376154, 0.403123555, 7.13026165
3432, 38.8181955, 0.789133166, 6.90402923
3433, 39.9788997, -1.19982984, 6.02020791
3434, 39.9607063, -1.07073664, 6.54177768
3435, 39.6144611, -1.01220899, 6.64454089
3436, 40.043, -0.75124492, 5.06424839
3437, 40.043, -1.08285569, 5.48286989
3438, 39.6031274, -1.18067517, 5.78550955
3439, 40.0141986, 0.267867933, 4.83027919
3440, 40.0141986, -0.26618217, 4.82989443
3441, 39.6071986, -0.523407472, 4.92016454
3442, 40.0155278, 1.08116285, 5.47933994
3443, 40.0155278, 0.748188136, 5.06180252
3444, 39.5797264, 0.521439723, 4.91921296
3445, 40.0030269, 1.08116264, 6.52066049
3446, 40.0030269, 1.2, 6
3447, 39.5685547, 1.1699136, 5.73297535
3448, 39.3972406, 1.01427131, 6.64129065
3449, 37.950517, -1.08266852, 6.51752186
3450, 37.9591321, -1.19999997, 6.00025729
3451, 38.4810122, -0.968522112, 6.70849483
3452, 37.9515741, -1.08129842, 5.47962156
3453, 37.9506172, -0.752828909, 5.06552227
3454, 38.3673626, -1.16731504, 5.7218353
3455, 37.9339232, -0.271494529, 4.83111561
3456, 37.9244387, 0.266469123, 4.82995974
3457, 38.3809644, -0.520738082, 4.91887473
3458, 37.9532909, 0.74562818, 5.05976672
3459, 37.9349975, 1.08118111, 5.47937786
3460, 38.3689889, 0.520621238, 4.91881846
3461, 37.9213033, 1.19989514, 5.98413673
3462, 37.9213033, 1.08795098, 6.50632268
3463, 38.3563008, 1.16629138, 5.71757403
3464, 38.3812401, 1.058724, 6.56489246
3465, 38.689136, -0.748214503, 5.06182355
3466, 38.6761543, -0.267142431, 4.83011329
3467, 38.6933717, -1.19995552, 5.98966775
3468, 38.6870385, -1.06978833, 5.45635219
3469, 38.9841856, -0.92911324, 5.24056035
3470, 38.6676223, 1.08081155, 5.47861109
3471, 38.653928, 1.19988359, 5.98328563
3472, 38.6675687, 0.266959993, 4.83007164
3473, 38.6685748, 0.748236145, 5.06184081
3474, 38.9662021, 0.937678899, 5.25116205
3475, 38.6238154, 1.1521982, 6.3353197
3476, 38.6661154, 1.00293446, 6.65887971
3477, 39.0717258, 0.965493365, 6.7126167
3478, 39.0305333, -0.935484829, 6.7515771
3479, 38.9416142, -1.16768237, 6.27661865
3480, 39.2741051, 0.748203244, 5.06181457
3481, 39.2727759, 0.267886769, 4.8302835
3482, 39.2813615, -0.26621552, 4.82990201
3483, 39.3101629, -0.751271591, 5.06426981
3484, 38.9757402, -1.48800985e-05, 4.8
3485, 39.2606517, 1.1999997, 5.99914882
3486, 39.2731526, 1.08079326, 5.47857319
3487, 39.230539, 1.1476648, 6.35052176
3488, 38.9351369, 1.19694983, 6.08550501
3489, 39.2288667, -1.1997428, 6.02484383
3490, 39.3042966, -1.06872592, 5.45426663
3491, 38.3873429, -6.9642681, -0.714273774
3492, 39.6672372, -5.04208139, -0.722766856
3493, 38.5935338, -6.53320249, 1.07503261
3494, 39.3697622, -5.48532091, 1.0840228
3495, 39.4890845, -7.16845434, 0.273339472
3496, 38.4545083, -4.83728857, 0.296820016
3497, 38.3105971, -5.99873171, -1.19999933
3498, 39.2974704, -6.52852368, -1.07734058
3499, 38.4592389, -7.17609563, 0.23832556
3500, 39.5601782, -4.82791599, 0.257330688
3501, 38.3799671, -5.07110876, -0.759711177
3502, 39.7456833, -6.76832348, 0.921780356
3503, 38.1947817, -5.24062519, 0.929166242
3504, 39.6986572, -5.78884509, -1.18127626
3505, 39.6848638, -7.1103946, -0.454998727
3506, 38.9880539, -5.45691299, -1.07007313
3507, 38.9893243, -4.84191225, -0.314376786
3508, 39.0346911, -7.15837946, -0.313300206
3509, 39.5192355, -6.26313657, 1.17079424
3510, 38.0357178, -6.26826919, 1.16962885
3511, 38.4170296, -5.75187415, 1.1740671
3512, 39.9095693, -5.75415347, 1.1745465
3513, 40.0908719, -6.88357367, 0.81197141
3514, 40.102561, -6.3869744, 1.13589208
3515, 39.8861991, -5.24542442, 0.933067895
3516, 39.1679876, -6.65815172, 1.00341233
3517, 38.0430449, -6.76619974, 0.923546406
3518, 37.8586288, -5.15623794, 0.853267596
3519, 37.8631482, -5.60242071, 1.13222379
3520, 38.7704623, -5.36835605, 1.02030678
3521, 39.976138, -7.19996498, 0.00916801812
3522, 39.991861, -7.08932154, 0.503367238
3523, 39.6361907, -7.00381701, 0.657534334
3524, 40.0649885, -6.8511945, -0.845853367
3525, 40.010159, -7.16245674, -0.297815936
3526, 39.5706695, -7.18748788, -0.17283676
3527, 40.0759943, -5.61583612, -1.13684569
3528, 40.0725963, -6.17166932, -1.18765721
3529, 39.868227, -6.53247816, -1.07539156
3530, 39.4949857, -6.15422123, -1.19004866
3531, 39.4951824, -6.8556751, -0.84132046
3532, 40.0601373, -4.89937596, -0.478149275
3533, 40.0407592, -5.23826392, -0.927231444
3534, 39.7060712, -5.34641457, -1.00639261
3535, 40.0201067, -4.91754579, 0.517969955
3536, 39.969581, -4.80020806, -0.0223450185
3537, 39.6529873, -4.81417382, -0.183891996
3538, 39.4920519, -5.04813284, 0.730718072
3539, 37.9886348, -7.09568163, 0.489368743
3540, 37.9797072, -7.19988337, 0.0167301253
3541, 38.4734036, -6.9421572, 0.74319568
3542, 37.9142839, -7.08239173, -0.518100522
3543, 37.9358076, -6.77261252, -0.918188375
3544, 38.3779649, -7.15917157, -0.310356698
3545, 37.9190599, -6.27295746, -1.16854363
3546, 37.9136477, -5.73109951, -1.16948387
3547, 38.319665, -6.55530605, -1.06378343
3548, 37.9460139, -5.25358909, -0.939612025
3549, 37.9521256, -4.92064078, -0.524388856
3550, 38.3312971, -5.47928131, -1.08113461
3551, 37.9833895, -4.80024016, 0.02400696
3552, 37.9762824, -4.92160521, 0.526369337
3553, 38.3933057, -4.82470856, -0.242260271
3554, 38.3224795, -5.00801421, 0.6752512
3555, 38.8379547, -6.76646559, -0.923325785
3556, 38.7989943, -6.27897928, -1.16712063
3557, 38.6529203, -7.08954605, -0.502881094
3558, 39.144941, -6.90969795, -0.782591622
3559, 38.7799842, -7.19756248, -0.0764467622
3560, 39.2714221, -4.80013122, -0.0177454212
3561, 39.3228503, -4.92534381, -0.533960742
3562, 39.3230331, -5.23037466, -0.920693668
3563, 39.3463083, -5.62595212, -1.14021409
3564, 38.9887576, -5.07575097, -0.765352027
3565, 39.0358085, -6.92034773, 0.770038997
3566, 38.9738234, -7.18230912, 0.205292838
3567, 38.9039496, -5.06313773, 0.749859379
3568, 39.0162379, -4.83987613, 0.306777762
3569, 39.2214179, -7.19708412, -0.0836038212
3570, 39.3777224, -7.15256362, -0.334061537
3571, 38.725592, -4.80000533, -0.00357682525
3572, 38.6835394, -4.92925388, -0.541758935
3573, 39.1835878, -5.99467394, -1.19998818
3574, 38.644491, -5.71838463, -1.16648737
3575, 38.6900323, -5.24471921, -0.932497149
3576, 37.5, 0.96575451, -4.56887433
3577, 37.5, 0.0188794444, -4.1714546
3578, 37.5, -0.523364733, -4.34599471
3579, 37.5, -1.40818615, -4.86598243
3580, 37.5, 1.40645057, -4.88913067
3581, 37.5, -1.76600595, -6.40437612
3582, 37.5, -1.6074657, -5.38647444
3583, 37.5, -1.4802322, -6.87875127
3584, 37.5, -0.800103721, -7.62410465
3585, 37.5, -0.261639867, -7.72148259
3586, 37.5, 0.789904856, -7.63352172
3587, 37.5, 1.7521162, -6.41829139
3588, 37.5, 1.18123083, -7.27131963
3589, 37.5, 1.71972641, -5.86420163
3590, 37.5, -5.04430726, 1.43320398
3591, 37.5, -6.00318266, 1.81442226
3592, 37.5, -6.5339424, 1.65863075
3593, 37.5, -7.417911, 1.12974345
3594, 37.5, -4.5967349, 1.10276426
3595, 37.5, -7.78396528, -0.394137808
3596, 37.5, -7.60811743, 0.615519002
3597, 37.5, -7.51739881, -0.87139729
3598, 37.5, -6.7868472, -1.62234564
3599, 37.5, -5.22504644, -1.6408219
3600, 37.5, -6.25494097, -1.71933745
3601, 37.5, -4.82070119, -1.2559112
3602, 37.5, -4.24054617, -0.419947698
3603, 37.5, -4.27039065, 0.141923211
3604, 37.5, 6.96712304, 1.42654685
3605, 37.5, 6.01901642, 1.81798058
3606, 37.5, 5.47416254, 1.64869078
3607, 37.5, 4.58350386, 1.13328
3608, 37.5, 7.42682267, 1.11414071
3609, 37.5, 4.24146891, -0.391076519
3610, 37.5, 4.39116678, 0.619912927
3611, 37.5, 5.20577693, -1.61470153
3612, 37.5, 4.49916177, -0.877277082
3613, 37.5, 6.77078238, -1.62576515
3614, 37.5, 5.75746015, -1.71053989
3615, 37.5, 7.76843663, -0.404965074
3616, 37.5, 7.18944297, -1.26158797
3617, 37.5, 7.7337056, 0.134120624
3618, 37.5, 0.9889965, 7.43641695
3619, 37.5, 0.00703981579, 7.81286456
3620, 37.5, -0.511335843, 7.64435458
3621, 37.5, -1.41443701, 7.12965514
3622, 37.5, 1.43564651, 7.12695296
3623, 37.5, -1.76286708, 5.60902898
3624, 37.5, -1.61913741, 6.63381921
3625, 37.5, -0.794812108, 4.36325063
3626, 37.5, -1.48917653, 5.12847006
3627, 37.5, 0.772787597, 4.35422383
3628, 37.5, -0.254999733, 4.27991874
3629, 37.5, 1.10995607, 4.77631511
3630, 37.5, 1.76461952, 5.59723711
3631, 37.5, 1.64876166, 6.10484355
3632, 38.5, 0.00304293545, 0.00326989922
3633, 38.5, -1.1876948, 0.945655802
3634, 38.5, 0.00212453609, 1.51766686
3635, 38.5, 1.18529855, 0.945688149
3636, 38.5, -1.4712878, -0.337481591
3637, 38.5, -0.660913427, -1.36898294
3638, 38.5, 0.654956116, -1.37111123
3639, 38.5, 1.4749977, -0.33483702
3640, 31.1688669, -18.6481689, -9.5
3641, 32.5715127, -17.5275347, -9.5
3642, 33.8998829, -15.5906987, -9.5
3643, 33.3586291, -16.6245213, -9.5
3644, 33.9837863, -19.8604295, -9.5
3645, 33.515185, -20.0587757, -9.5
3646, 37.1001823, -14.4395523, -9.5
3647, 33.5021807, -19.6006885, -9.5
3648, 33.1190505, -19.8219536, -9.5
3649, 36.2721329, -17.2274851, -9.5
3650, 34.9094062, -18.9166951, -9.5
3651, 33.0221098, -19.3216923, -9.5
3652, 36.8379662, -15.8835301, -9.5
3653, 33.5075813, -19.0506324, -9.5
3654, 33.0041522, -18.7530914, -9.5
3655, 33.5211657, -18.4518975, -9.5
3656, 32.5083435, -19.0488116, -9.5
3657, 32.4793762, -18.447914, -9.5
3658, 33.1814466, -20.3235952, -9.5
3659, 32.0578995, -18.7126144, -9.5
3660, 31.9679345, -19.2072844, -9.5
3661, 36.1623242, -13.3381082, -9.5
3662, 35.5934889, -14.4262242, -9.5
3663, 36.4597878, -15.1180926, -9.5
3664, 30.0433581, -19.173219, -9.5
3665, 31.9375, -20.5147063, -9.5
3666, 31.6858595, -19.7613741, -9.5
3667, 34.1440594, -18.8262562, -9.5
3668, 34.0758522, -18.1441621, -9.5
3669, 33.5525344, -17.840408, -9.5
3670, 34.0737008, -17.5199858, -9.5
3671, 34.6237237, -17.8241416, -9.5
3672, 34.6425079, -17.2073412, -9.5
3673, 35.1898991, -17.5086214, -9.5
3674, 35.1934178, -16.8316076, -9.5
3675, 34.560918, -16.5611969, -9.5
3676, 35.1761103, -16.1686998, -9.5
3677, 35.8616338, -16.5696865, -9.5
3678, 35.734863, -15.8562076, -9.5
3679, 35.1732866, -15.5115916, -9.5
3680, 28.9001469, -19.413522, -9.5
3681, 32.9781154, -17.0872283, -9.5
3682, 27.4050294, -20.0827044, -9.5
3683, 35.1201101, -18.1817824, -9.5
3684, 34.1584253, -15.0891316, -9.5
3685, 33.6527581, -16.1320422, -9.5
3686, 33.9194484, -16.6197189, -9.5
3687, 30.7541383, -20.0756057, -9.5
3688, 33.0392829, -18.1791333, -9.5
3689, 32.1583287, -17.965061, -9.5
3690, 18.9912709, -19.9948244, -9.5
3691, 35.8155297, -17.8840325, -9.5
3692, 34.69437, -15.8446589, -9.5
3693, 34.4598247, -19.4153879, -9.5
3694, 31.6948097, -18.3283871, -9.5
3695, 33.5884074, -17.180603, -9.5
3696, 37.1614259, -15.2921953, -9.5
3697, 36.6327752, -16.6214082, -9.5
3698, 35.7067949, -15.1928979, -9.5
3699, 35.151643, -14.9748245, -9.5
3700, 36.4151491, -1.78277188, -9.5
3701, 34.6906915, -15.2445689, -9.5
3702, 34.469259, -14.5548924, -9.5
3703, 32.488892, -19.7142025, -9.5
3704, 30.6734842, -19.0221749, -9.5
3705, 31.3053545, -19.2420646, -9.5
3706, 33.9305427, -19.3619465, -9.5
3707, 34.5878068, -18.4187237, -9.5
3708, 36.2823507, -16.1320393, -9.5
3709, 34.1862707, -16.0769902, -9.5
3710, 33.0766651, -17.6082168, -9.5
3711, 35.6665227, -17.2042866, -9.5
3712, 32.6162281, -17.972504, -9.5
3713, 35.5716967, -18.562279, -9.5
3714, 31.6226503, -18.8020113, -9.5
3715, 36, -6.75, -9.5
3716, 36.027054, -10.848018, -9.5
3717, 36.2043525, -15.6365535, -9.5
3718, 34.1648266, -17.0560351, -9.5
3719, 32.0976035, -18.3634941, -9.5
3720, 34.3484353, -15.5242557, -9.5
3721, 28.7285531, -19.1938079, -9.5
3722, 28.4495846, -19.2062257, -9.5
3723, 29.004628, -19.1550604, -9.5
3724, 27.702781, -19.5420901, -9.5
3725, 25.9525147, -19.5413522, -9.5
3726, 28.1521484, -19.7480393, -9.5
3727, 29.2759141, -19.0908531, -9.5
3728, 30.1116743, -18.881589, -9.5
3729, 29.8474666, -18.9706949, -9.5
3730, 29.4717525, -19.2933705, -9.5
3731, 30.6814794, -18.6928185, -9.5
3732, 30.4267373, -18.8060669, -9.5
3733, 30.3584211, -19.097697, -9.5
3734, 31.1723005, -18.3694092, -9.5
3735, 30.9291708, -18.5058155, -9.5
3736, 30.9211755, -18.8351719, -9.5
3737, 31.6646896, -18.0511321, -9.5
3738, 31.4352718, -18.2095183, -9.5
3739, 31.4318383, -18.488278, -9.5
3740, 32.110174, -17.6904707, -9.5
3741, 31.8964492, -17.8694691, -9.5
3742, 31.9265692, -18.146724, -9.5
3743, 32.5129521, -17.2736427, -9.5
3744, 32.3167659, -17.4717076, -9.5
3745, 32.3649207, -17.7462979, -9.5
3746, 32.8932069, -16.8380685, -9.5
3747, 32.7162535, -17.0534895, -9.5
3748, 32.7748141, -17.3073815, -9.5
3749, 33.2396564, -16.3757982, -9.5
3750, 33.0834638, -16.606715, -9.5
3751, 33.1683722, -16.8558748, -9.5
3752, 33.5208039, -15.88514, -9.5
3753, 33.3867209, -16.1295586, -9.5
3754, 33.5056936, -16.3782818, -9.5
3755, 33.7551419, -15.3586614, -9.5
3756, 33.6443663, -15.6144683, -9.5
3757, 33.7763205, -15.8613704, -9.5
3758, 33.9710442, -14.8428831, -9.5
3759, 33.884453, -15.1078749, -9.5
3760, 34.0291143, -15.3399269, -9.5
3761, 34.18808, -14.3038778, -9.5
3762, 34.126461, -14.5757635, -9.5
3763, 34.3138421, -14.822012, -9.5
3764, 33.9534505, -13.7764316, -9.5
3765, 34.2346295, -14.0274462, -9.5
3766, 35.013527, -9.92400902, -9.5
3767, 35.013527, -12.174009, -9.5
3768, 35.8779066, -13.8821662, -9.5
3769, 34.7967445, -13.9631121, -9.5
3770, 35.0809341, -13.4189059, -9.5
3771, 36.0946891, -12.0930631, -9.5
3772, 35.0313739, -14.4905583, -9.5
3773, 37.1569483, -0.906325733, -9.5
3774, 35.1980024, -0.911618571, -9.5
3775, 35.1997435, -3.15704542, -9.5
3776, 37.1601989, -0.908215045, -9.5
3777, 37.1806768, -3.15282725, -9.5
3778, 37.53083, -14.3618447, -9.5
3779, 37.5502726, -13.9693747, -9.5
3780, 37.013527, -12.174009, -9.5
3781, 37.013527, -9.92400902, -9.5
3782, 36.6312532, -13.8888302, -9.5
3783, 37.0803681, -13.4181258, -9.5
3784, 37.4732323, -14.7501374, -9.5
3785, 37.4084743, -15.5572364, -9.5
3786, 37.5038541, -15.1764589, -9.5
3787, 37.1308041, -14.8658738, -9.5
3788, 37.1145012, -16.2224988, -9.5
3789, 37.2467445, -15.8529037, -9.5
3790, 36.9996961, -15.5878627, -9.5
3791, 36.8440727, -16.9462911, -9.5
3792, 37.0119057, -16.5914378, -9.5
3793, 36.7353707, -16.2524691, -9.5
3794, 36.4619449, -17.5860235, -9.5
3795, 36.6637515, -17.2493295, -9.5
3796, 36.4524541, -16.9244466, -9.5
3797, 35.9998066, -18.2295894, -9.5
3798, 36.2336433, -17.9142972, -9.5
3799, 36.0438313, -17.5557588, -9.5
3800, 35.6142755, -18.8595666, -9.5
3801, 35.8778901, -18.5687126, -9.5
3802, 35.6936132, -18.2231557, -9.5
3803, 34.9922763, -19.3003893, -9.5
3804, 35.2831302, -19.0367747, -9.5
3805, 35.2405514, -18.739487, -9.5
3806, 34.4521933, -19.7835724, -9.5
3807, 34.7674855, -19.5497357, -9.5
3808, 34.6846154, -19.1660415, -9.5
3809, 33.9918931, -20.1393232, -9.5
3810, 34.2141741, -20.0060932, -9.5
3811, 34.2218055, -19.6379087, -9.5
3812, 33.5907233, -20.9117976, -9.5
3813, 33.5907233, -20.3709061, -9.5
3814, 33.7575925, -20.2384964, -9.5
3815, 33.7494856, -19.9596026, -9.5
3816, 33.3483158, -20.1911854, -9.5
3817, 30.90625, -21.0073531, -9.5
3818, 32.96875, -21.0073531, -9.5
3819, 32.5594733, -20.4191507, -9.5
3820, 18.2638169, -19.5523629, -9.5
3821, 18.2804085, -20.7272625, -9.5
3822, 20.3279328, -20.756882, -9.5
3823, 18.2651757, -19.5479978, -9.5
3824, 20.0163514, -19.5238822, -9.5
3825, 35, -5.625, -9.5
3826, 35, -7.875, -9.5
3827, 36.0124942, -8.80071446, -9.5
3828, 35.9992703, -4.49773684, -9.5
3829, 36.9974449, -5.62762081, -9.5
3830, 36.9946968, -7.88008785, -9.5
3831, 26.5775147, -20.7913522, -9.5
3832, 28.639631, -20.7910605, -9.5
3833, 30.3145692, -20.7878029, -9.5
3834, 31.3458192, -20.295156, -9.5
3835, 29.3875734, -20.456761, -9.5
3836, 29.8271426, -19.7445639, -9.5
3837, 25.125, -20.25, -9.5
3838, 23.0630253, -20.2542799, -9.5
3839, 21.3223081, -20.2534896, -9.5
3840, 31.65873, -18.5651992, -9.5
3841, 31.3957586, -18.7250901, -9.5
3842, 31.2371107, -18.9451167, -9.5
3843, 30.9894193, -19.1321198, -9.5
3844, 31.4640024, -19.0220379, -9.5
3845, 33.0273902, -17.3477226, -9.5
3846, 32.8240889, -17.5678757, -9.5
3847, 32.5938704, -17.7500193, -9.5
3848, 32.3872784, -17.9687825, -9.5
3849, 32.8464466, -17.7903604, -9.5
3850, 34.2534303, -15.3066936, -9.5
3851, 34.1241591, -15.5574772, -9.5
3852, 34.0430768, -15.8338444, -9.5
3853, 33.9195144, -16.1045162, -9.5
3854, 34.267353, -15.8006229, -9.5
3855, 33.4735183, -16.9025622, -9.5
3856, 33.2832614, -17.1339157, -9.5
3857, 33.7861033, -16.3758805, -9.5
3858, 33.6390388, -16.6221201, -9.5
3859, 33.7539279, -16.900161, -9.5
3860, 33.5086829, -19.8297321, -9.5
3861, 33.7429835, -19.730559, -9.5
3862, 33.7163617, -19.4813175, -9.5
3863, 33.9571645, -19.611188, -9.5
3864, 34.1951837, -19.3886672, -9.5
3865, 33.3171177, -19.9403647, -9.5
3866, 33.3106156, -19.7113211, -9.5
3867, 33.1502485, -20.0727744, -9.5
3868, 36.3468356, -14.4328882, -9.5
3869, 36.7799851, -14.7788224, -9.5
3870, 36.0266384, -14.7721584, -9.5
3871, 36.8106069, -15.205144, -9.5
3872, 33.0705801, -19.571823, -9.5
3873, 33.2621453, -19.4611904, -9.5
3874, 33.2648456, -19.1861624, -9.5
3875, 33.504881, -19.3256605, -9.5
3876, 33.719062, -19.2062895, -9.5
3877, 32.8039713, -19.7680781, -9.5
3878, 32.7555009, -19.5179474, -9.5
3879, 32.8351693, -20.0188988, -9.5
3880, 36.2472045, -16.5955473, -9.5
3881, 36.0668833, -16.8985858, -9.5
3882, 35.9693278, -17.2158858, -9.5
3883, 35.7640782, -16.8869865, -9.5
3884, 35.7410262, -17.5441596, -9.5
3885, 34.301942, -19.120822, -9.5
3886, 34.5267328, -18.8714756, -9.5
3887, 34.3659331, -18.62249, -9.5
3888, 34.7486065, -18.6677094, -9.5
3889, 34.8539585, -18.3002531, -9.5
3890, 35.0147582, -18.5492387, -9.5
3891, 35.3459034, -18.3720307, -9.5
3892, 33.013131, -19.0373919, -9.5
3893, 33.2558668, -18.9018619, -9.5
3894, 32.7652266, -19.1852519, -9.5
3895, 32.7562478, -18.9009515, -9.5
3896, 32.4986178, -19.381507, -9.5
3897, 36.648877, -15.5008113, -9.5
3898, 36.5211594, -15.7600418, -9.5
3899, 36.3320702, -15.3773231, -9.5
3900, 36.457563, -16.3767238, -9.5
3901, 36.5601585, -16.0077847, -9.5
3902, 36.2433516, -15.8842964, -9.5
3903, 33.2626589, -18.6024945, -9.5
3904, 33.5143735, -18.751265, -9.5
3905, 33.8326125, -18.6390769, -9.5
3906, 33.8258204, -18.9384443, -9.5
3907, 34.037301, -19.0941014, -9.5
3908, 33.0217175, -18.4661124, -9.5
3909, 33.2802243, -18.3155154, -9.5
3910, 32.4938598, -18.7483628, -9.5
3911, 32.7417642, -18.6005027, -9.5
3912, 32.7593295, -18.3135236, -9.5
3913, 33.7985089, -18.2980298, -9.5
3914, 34.1099558, -18.4852091, -9.5
3915, 33.53685, -18.1461528, -9.5
3916, 33.8141933, -17.9922851, -9.5
3917, 33.2959087, -18.0097707, -9.5
3918, 32.2831215, -18.880713, -9.5
3919, 32.2686378, -18.5802642, -9.5
3920, 32.238139, -19.128048, -9.5
3921, 32.012917, -18.9599494, -9.5
3922, 32.2284133, -19.4607434, -9.5
3923, 32.0777515, -18.5380543, -9.5
3924, 32.2884898, -18.405704, -9.5
3925, 32.5478021, -18.210209, -9.5
3926, 32.8277555, -18.0758187, -9.5
3927, 32.3188524, -18.2064875, -9.5
3928, 32.1279661, -18.1642776, -9.5
3929, 32.213196, -20.1144544, -9.5
3930, 31.7952924, -19.0046478, -9.5
3931, 31.8402749, -18.7573128, -9.5
3932, 31.8763546, -18.5205007, -9.5
3933, 31.8962066, -18.3459406, -9.5
3934, 32.0873758, -19.7377883, -9.5
3935, 31.826897, -19.4843293, -9.5
3936, 31.495607, -19.5017194, -9.5
3937, 31.6366445, -19.2246745, -9.5
3938, 36.0832914, -15.1554952, -9.5
3939, 35.6501419, -14.809561, -9.5
3940, 35.4292189, -15.0838612, -9.5
3941, 35.372566, -14.7005244, -9.5
3942, 34.810451, -14.7648585, -9.5
3943, 35.9555737, -15.4147257, -9.5
3944, 30.3987482, -19.6244124, -9.5
3945, 30.7138113, -19.5488903, -9.5
3946, 31.2199989, -19.9184899, -9.5
3947, 31.8116798, -20.1380402, -9.5
3948, 31.0297464, -19.6588352, -9.5
3949, 34.3318295, -18.2814429, -9.5
3950, 33.8131176, -17.6801969, -9.5
3951, 34.0747765, -17.8320739, -9.5
3952, 34.3487122, -17.6720637, -9.5
3953, 34.349788, -17.9841519, -9.5
3954, 34.6057653, -18.1214327, -9.5
3955, 33.5704709, -17.5105055, -9.5
3956, 33.8310541, -17.3502944, -9.5
3957, 33.057974, -17.8936751, -9.5
3958, 33.3145997, -17.7243124, -9.5
3959, 33.3325362, -17.3944099, -9.5
3960, 34.3581043, -17.3636635, -9.5
3961, 34.6331158, -17.5157414, -9.5
3962, 34.1192637, -17.2880104, -9.5
3963, 34.4036673, -17.1316882, -9.5
3964, 33.876617, -17.1183191, -9.5
3965, 34.9162035, -17.3579813, -9.5
3966, 34.9068114, -17.6663815, -9.5
3967, 35.1550046, -17.8452019, -9.5
3968, 34.8719169, -18.002962, -9.5
3969, 34.9179629, -17.0194744, -9.5
3970, 35.1916585, -17.1701145, -9.5
3971, 34.601713, -16.884269, -9.5
3972, 34.8771679, -16.6964022, -9.5
3973, 34.3628723, -16.808616, -9.5
3974, 35.4299702, -17.0179471, -9.5
3975, 35.4282109, -17.356454, -9.5
3976, 35.5027144, -17.6963269, -9.5
3977, 35.4678199, -18.0329075, -9.5
3978, 34.8685142, -16.3649483, -9.5
3979, 35.1847641, -16.5001537, -9.5
3980, 35.5188721, -16.3691932, -9.5
3981, 35.5275258, -16.700647, -9.5
3982, 34.627644, -16.2029279, -9.5
3983, 34.9352401, -16.0066793, -9.5
3984, 34.0528596, -16.3483545, -9.5
3985, 34.3735944, -16.3190935, -9.5
3986, 34.2401832, -16.5904579, -9.5
3987, 34.0421375, -16.837877, -9.5
3988, 34.4403204, -15.9608245, -9.5
3989, 35.4554867, -16.0124537, -9.5
3990, 35.7982484, -16.212947, -9.5
3991, 35.1746985, -15.8401457, -9.5
3992, 35.4540748, -15.6838996, -9.5
3993, 34.9338283, -15.6781252, -9.5
3994, 36.0086069, -15.9941235, -9.5
3995, 36.0719922, -16.3508629, -9.5
3996, 35.4400408, -15.3522447, -9.5
3997, 35.720829, -15.5245527, -9.5
3998, 35.9696078, -15.7463805, -9.5
3999, 34.6925307, -15.5446139, -9.5
4000, 34.931989, -15.3780803, -9.5
4001, 35.1624648, -15.2432081, -9.5
4002, 34.9211672, -15.1096967, -9.5
4003, 34.5799752, -14.8997307, -9.5
4004, 34.4245584, -15.1668502, -9.5
4005, 34.5195634, -15.3844123, -9.5
4006, 34.5214026, -15.6844573, -9.5
4007, 17.2581518, -19.0058761, -9.49692105
4008, 17.5072931, -18.7580457, -9.4999972
4009, 19.895622, -18.7442114, -9.19298619
4010, 17.1846001, -18.7916636, -9.49476292
4011, 19.8984365, -18.7412621, 9.19225231
4012, 17.2641546, -19.0061279, 9.49707202
4013, 17.1778525, -18.7936134, 9.49453638
4014, 13.8645074, -18.755, 8.77685556
4015, 16.2574907, -18.7809637, 9.41839533
4016, 16.5861756, -18.7841904, 9.45594654
4017, 16.8501554, -18.7861432, 9.47774773
4018, 22.166265, -18.7417953, 8.27502088
4019, 24.1143487, -18.7385778, 6.81911956
4020, 25.6457996, -18.7407223, 4.88834822
4021, 26.4032719, -18.7615055, 3.3138722
4022, 25.6399709, -18.7440848, -4.89804802
4023, 24.1139479, -18.7416361, -6.81950823
4024, 26.4069873, -18.7282612, -3.30387301
4025, 22.1689832, -18.7417117, -8.27348755
4026, 16.8527964, -18.7849041, -9.47792844
4027, 16.5818658, -18.7834277, -9.45552905
4028, 16.2637688, -18.7799373, -9.41922144
4029, 13.8489237, -18.7698621, -8.77038435
4030, 13.5697719, -18.7809645, -8.64889051
4031, 13.3204877, -18.7838836, -8.53121779
4032, 13.0046948, -18.7930615, -8.36912369
4033, 12.7490446, -18.7826044, -8.22668967
4034, 12.502926, -18.7948465, -8.07955761
4035, 12.1988804, -18.7816846, -7.88340858
4036, 11.9750855, -18.7812548, -7.72821579
4037, 11.7224864, -18.7771035, -7.54124236
4038, 9.96141445, -18.7601176, -5.78097984
4039, 9.77385834, -18.782249, -5.52781468
4040, 9.60517272, -18.7817318, -5.284099
4041, 9.42246419, -18.7937278, -5.00034152
4042, 9.27117405, -18.7818751, -4.74725432
4043, 9.12852286, -18.7937153, -4.4909209
4044, 8.96862155, -18.7802723, -4.17918435
4045, 8.85000809, -18.7808201, -3.92780344
4046, 8.72767494, -18.7763562, -3.64641098
4047, 8.07884264, -18.7740706, -1.22139018
4048, 8.04555046, -18.7796838, -0.929184517
4049, 8.02233356, -18.7780496, -0.651029084
4050, 8.00483841, -18.7947022, -0.303160744
4051, 8.00000372, -18.7807476, -0.00840790377
4052, 8.00440165, -18.7944805, 0.289157361
4053, 8.0218461, -18.7809614, 0.643893367
4054, 8.04553767, -18.7806596, 0.929054379
4055, 8.08307999, -18.767845, 1.25364171
4056, 8.72994307, -18.7781007, 3.65186273
4057, 8.85070651, -18.7818141, 3.92934118
4058, 8.96854197, -18.7799369, 4.17902187
4059, 9.12948533, -18.7944366, 4.49271456
4060, 9.27190691, -18.778275, 4.74852442
4061, 9.42312512, -18.7945475, 5.00140902
4062, 9.60847269, -18.7800995, 5.28902607
4063, 9.77251351, -18.7813327, 5.52593455
4064, 9.96334187, -18.7647003, 5.78349239
4065, 11.7167664, -18.755, 7.53685673
4066, 11.9664619, -18.755, 7.7220435
4067, 12.2220828, -18.755, 7.89896132
4068, 12.4833554, -18.755, 8.06742072
4069, 12.75, -18.755, 8.22724134
4070, 13.021731, -18.755, 8.37825201
4071, 13.2982574, -18.755, 8.52029104
4072, 13.5792832, -18.755, 8.65320634
4073, 26.9610916, -18.7698995, 0.858921789
4074, 26.9598319, -18.7480839, -0.872685304
4075, 16.8918601, -19.01, 9.47030786
4076, 16.8742938, -20.2688179, 9.45898905
4077, 16.5713332, -20.8799557, 9.43913196
4078, 16.577403, -19.6452858, 9.43952979
4079, 16.8864536, -19.6206612, 9.45978604
4080, 17.1835405, -19.6327011, 9.47925815
4081, 17.187717, -20.8918767, 9.47953189
4082, 15.6506101, -20.2702684, 9.29751077
4083, 15.3459146, -20.8851342, 9.23690306
4084, 15.3459146, -19.6401342, 9.23690306
4085, 15.6506101, -19.6401342, 9.29751077
4086, 15.9567542, -19.6607131, 9.35840661
4087, 15.9553056, -20.8851342, 9.35811847
4088, 14.4528632, -20.2702684, 8.97657545
4089, 14.1586853, -20.8851342, 8.87671551
4090, 14.1586853, -19.6401342, 8.87671551
4091, 14.4528632, -19.6401342, 8.97657545
4092, 14.7470412, -19.6401342, 9.0764354
4093, 14.7470412, -20.8851342, 9.0764354
4094, 13.3072537, -20.2702684, 8.50204845
4095, 13.0286268, -20.8851342, 8.36464489
4096, 13.0286268, -19.6401342, 8.36464489
4097, 13.3072537, -19.6401342, 8.50204845
4098, 13.5858805, -19.6401342, 8.639452
4099, 13.5858805, -20.8851342, 8.639452
4100, 12.2333832, -20.2702684, 7.88204903
4101, 11.9750748, -20.8851342, 7.70945288
4102, 11.9750748, -19.6401342, 7.70945288
4103, 12.2330961, -19.6419903, 7.88185719
4104, 12.4916916, -19.6401342, 8.05464519
4105, 12.4916916, -20.8851342, 8.05464519
4106, 11.249626, -20.2702684, 7.12718558
4107, 11.0160558, -20.8851342, 6.92235
4108, 11.0160558, -19.6401342, 6.92235
4109, 11.249626, -19.6401342, 7.12718558
4110, 11.4831962, -19.6401342, 7.33202115
4111, 11.4831962, -20.8851342, 7.33202115
4112, 10.3728144, -20.2702684, 6.250374
4113, 10.1679788, -20.8851342, 6.01680379
4114, 10.168318, -19.6479446, 6.01719047
4115, 10.3731121, -19.6323689, 6.25071342
4116, 10.57765, -19.6401342, 6.48394421
4117, 10.57765, -20.8851342, 6.48394421
4118, 9.61795097, -20.2702684, 5.26661679
4119, 9.44535481, -20.8851342, 5.00830839
4120, 9.44395536, -19.6460569, 5.00621397
4121, 9.61648571, -19.6384802, 5.26442387
4122, 9.79120286, -19.6414952, 5.52590658
4123, 9.79083384, -20.8903971, 5.5253543
4124, 8.99877769, -20.2671305, 4.19442155
4125, 8.86065669, -20.8877355, 3.91433986
4126, 8.86155321, -19.6458319, 3.91615784
4127, 8.9993004, -19.6354896, 4.1954815
4128, 9.13676416, -19.6470752, 4.47423043
4129, 9.13580819, -20.8866833, 4.4722919
4130, 8.52114228, -20.2748589, 3.04041342
4131, 8.42235905, -20.894457, 2.74940741
4132, 8.42264634, -19.6444039, 2.75025374
4133, 8.52431983, -19.6394424, 3.04977419
4134, 8.62444899, -19.6555229, 3.34474519
4135, 8.62279879, -20.8884326, 3.33988386
4136, 8.20231593, -20.2633362, 1.8485186
4137, 8.14286813, -20.8944036, 1.54965436
4138, 8.14365626, -19.6531155, 1.55361653
4139, 8.20342865, -19.6337617, 1.85411265
4140, 8.26311752, -19.6511818, 2.15418884
4141, 8.2625624, -20.8830951, 2.15139809
4142, 8.04065276, -20.2751265, 0.620241237
4143, 8.02057934, -20.8783114, 0.313980118
4144, 8.01935627, -19.647066, 0.295319568
4145, 8.04044762, -19.66494, 0.617111432
4146, 8.06200479, -19.6434735, 0.946010241
4147, 8.06092974, -20.8761029, 0.929608126
4148, 8.04087546, -20.2684841, -0.623638977
4149, 8.06120551, -20.8726753, -0.933815626
4150, 8.0612061, -19.6456483, -0.933824637
4151, 8.04096523, -19.6298349, -0.625008648
4152, 8.0208576, -19.6459878, -0.318225418
4153, 8.02021375, -20.8828519, -0.308402243
4154, 8.19961868, -20.2664036, -1.83495863
4155, 8.26256824, -20.8872978, -2.15142742
4156, 8.26586169, -19.6588689, -2.16798471
4157, 8.20070984, -19.6323215, -1.84044425
4158, 8.13920991, -19.6510565, -1.53126324
4159, 8.13957207, -20.8902699, -1.53308395
4160, 8.52297526, -20.2676733, -3.04581323
4161, 8.62367246, -20.8877532, -3.3424576
4162, 8.62564094, -19.6546362, -3.34825657
4163, 8.52601057, -19.6264164, -3.05475494
4164, 8.42582657, -19.6502502, -2.75962242
4165, 8.42271541, -20.8944607, -2.75045721
4166, 8.99795155, -20.2702684, -4.1927463
4167, 9.13535511, -20.8851342, -4.47137315
4168, 9.13638468, -19.6495193, -4.47346092
4169, 8.99959787, -19.6325178, -4.1960847
4170, 8.86178567, -19.6463699, -3.91662921
4171, 8.860548, -20.8851342, -3.91411946
4172, 9.61795097, -20.2702684, -5.26661679
4173, 9.79054712, -20.8851342, -5.52492518
4174, 9.79176626, -19.6400456, -5.52674976
4175, 9.61834058, -19.6363797, -5.26719989
4176, 9.44682063, -19.6432258, -5.01050214
4177, 9.44535481, -20.8851342, -5.00830839
4178, 10.3728144, -20.2702684, -6.250374
4179, 10.57765, -20.8851342, -6.48394421
4180, 10.5744954, -19.6422532, -6.48034713
4181, 10.3725304, -19.6251842, -6.25005019
4182, 10.1692022, -19.650093, -6.01819874
4183, 10.1679788, -20.8851342, -6.01680379
4184, 11.249626, -20.2702684, -7.12718558
4185, 11.4831962, -20.8851342, -7.33202115
4186, 11.4831962, -19.6401342, -7.33202115
4187, 11.248972, -19.633373, -7.12661199
4188, 11.0140913, -19.6436798, -6.9206272
4189, 11.0160558, -20.8851342, -6.92235
4190, 12.2333832, -20.2702684, -7.88204903
4191, 12.4916916, -20.8851342, -8.05464519
4192, 12.4916916, -19.6401342, -8.05464519
4193, 12.2333832, -19.6401342, -7.88204903
4194, 11.9750748, -19.6401342, -7.70945288
4195, 11.9750748, -20.8851342, -7.70945288
4196, 13.3072537, -20.2702684, -8.50204845
4197, 13.5858805, -20.8851342, -8.639452
4198, 13.5901131, -19.648255, -8.64153925
4199, 13.3101067, -19.633787, -8.50345537
4200, 13.0286268, -19.6401342, -8.36464489
4201, 13.0286268, -20.8851342, -8.36464489
4202, 14.4559908, -20.2667976, -8.97763713
4203, 14.7532511, -20.8815511, -9.07854339
4204, 14.7582523, -19.6529085, -9.08024107
4205, 14.4561897, -19.6388788, -8.97770463
4206, 14.149104, -19.663197, -8.87346308
4207, 14.159387, -20.8878004, -8.87695369
4208, 15.6506101, -20.2702684, -9.29751077
4209, 15.9553056, -20.8851342, -9.35811847
4210, 15.9473139, -19.6541473, -9.35652881
4211, 15.6511931, -19.6333692, -9.29762673
4212, 15.3540029, -19.6514228, -9.23851193
4213, 15.3459146, -20.8851342, -9.23690306
4214, 16.86544, -20.2721303, -9.45840874
4215, 17.1849818, -20.8970856, -9.47935262
4216, 17.1848462, -19.6324544, -9.47934373
4217, 16.5651122, -20.874066, -9.43872422
4218, 16.8767865, -19.6211464, -9.45915243
4219, 16.5667857, -19.6297516, -9.4388339
4220, 15.6485611, -19.01, 9.30759531
4221, 14.4495942, -19.01, 8.98620584
4222, 13.3027556, -19.01, 8.51116975
4223, 12.227733, -19.01, 7.89050518
4224, 11.2429204, -19.01, 7.13483187
4225, 10.3686952, -19.01, 6.26126708
4226, 9.60918743, -19.01, 5.27207774
4227, 8.98738706, -19.01, 4.19461614
4228, 8.51446654, -19.01, 3.05266872
4229, 8.19328565, -19.01, 1.8558498
4230, 8.03041285, -19.01, 0.621893972
4231, 8.03056137, -19.01, -0.625753564
4232, 8.19136612, -19.01, -1.84615599
4233, 8.51437793, -19.01, -3.05241276
4234, 8.98718225, -19.01, -4.19447466
4235, 9.60913887, -19.01, -5.27201023
4236, 10.3708948, -19.01, -6.26367546
4237, 11.2444377, -19.01, -7.13630716
4238, 12.2246147, -19.01, -7.8886826
4239, 13.3043691, -19.01, -8.51220865
4240, 14.4534919, -19.01, -8.98753653
4241, 15.6504352, -19.01, -9.30794153
4242, 16.8845445, -19.01, -9.4696826
4243, 17.4967593, -18.5, 8.7743426
4244, 19.8934181, -18.5, 8.28607987
4245, 15.0948636, -18.5, 8.29646542
4246, 22.2544251, -18.5, 7.36683769
4247, 12.773859, -18.5, 7.34968865
4248, 24.0523763, -18.5, 5.70111182
4249, 25.4562569, -18.5, 3.61007794
4250, 26.1842821, -18.5, 1.2859878
4251, 26.1650082, -18.5, -1.2562167
4252, 25.4653655, -18.5, -3.6223396
4253, 24.0556975, -18.5, -5.71053848
4254, 22.2556428, -18.5, -7.3678194
4255, 17.4938347, -18.5, -8.7792955
4256, 19.9019385, -18.5, -8.29082412
4257, 15.0842577, -18.5, -8.31248679
4258, 12.7265764, -18.5, -7.38803359
4259, 10.9258512, -18.5, -5.71531287
4260, 8.79974596, -18.5, -1.26224207
4261, 9.47851335, -18.5, -3.64742495
4262, 8.82502989, -18.5, 1.26269848
4263, 9.49693478, -18.5, 3.63683783
4264, 10.93555, -18.5, 5.70303764
4265, 20.5588943, -17.5189642, 7.39210158
4266, 15.027864, -17.525, 7.60845213
4267, 19.0669964, -18.0744584, 7.84503169
4268, 19.0638319, -17.0306836, 7.84566311
4269, 21.3909315, -18.0797399, 6.99003949
4270, 12.797718, -17.525, 6.47213595
4271, 21.3986713, -17.0149361, 6.98572561
4272, 23.9727742, -17.5204901, 4.70140341
4273, 22.211458, -17.5322691, 6.46545928
4274, 25.4999999, -17.5108641, -0.00104968696
4275, 25.1188261, -17.4951607, 2.43997738
4276, 25.1222915, -17.5358293, -2.42913001
4277, 23.9729826, -17.521627, -4.70111644
4278, 19.9715778, -17.5238153, -7.60863346
4279, 22.1908804, -17.5191845, -6.48040436
4280, 17.4986728, -17.5184408, -7.99999989
4281, 15.027864, -17.525, -7.60845213
4282, 9.87438508, -17.5472582, -2.41867673
4283, 11.0261715, -17.5155124, -4.69995155
4284, 12.797718, -17.525, -6.47213595
4285, 9.88016367, -17.5152211, 2.43682054
4286, 9.50000039, -17.5337865, -0.00249143831
4287, 11.0271628, -17.5214668, 4.70131666
4288, 34.7534682, -23.1490802, -5
4289, 34.2672569, -23.4469161, -5
4290, 35.4796885, -22.6594115, -5
4291, 34.4266167, -22.3908232, -5
4292, 33.6629986, -23.1976782, -5
4293, 21.8530804, -22.7811009, -5
4294, 36.5044218, -19.3738175, -5
4295, 36.5954744, -19.2690575, -5
4296, 36.8263824, -18.953715, -5
4297, 36.4837936, -20.9162067, -5
4298, 36.4914489, -19.5633762, -5
4299, 36.0580434, -22.0033814, -5
4300, 36.1730917, -21.8401874, -5
4301, 35.7964856, -22.5809733, -5
4302, 35.7358515, -22.0830866, -5
4303, 36.27134, -21.6661989, -5
4304, 36.359633, -21.4889008, -5
4305, 36.4201964, -21.3039739, -5
4306, 36.4487737, -21.1208199, -5
4307, 35.2128773, -21.9455146, -5
4308, 33.1753521, -21.9487959, -5
4309, 34.95351, -22.5357793, -5
4310, 20.7655418, -22.1180623, -5
4311, 20.7683015, -23.3287302, -5
4312, 22.8071286, -22.1214573, -5
4313, 22.9630472, -23.3144357, -5
4314, 33.3320582, -23.5932125, -5
4315, 33.5518752, -23.5811732, -5
4316, 32.4629641, -22.7476858, -5
4317, 30.2510047, -22.7409877, -5
4318, 32.7977451, -22.3532748, -5
4319, 33.7433849, -23.5505812, -5
4320, 34.0423936, -23.6772729, -5
4321, 34.2370746, -23.6227531, -5
4322, 33.9638345, -23.3234735, -5
4323, 34.4225273, -23.558253, -5
4324, 34.6623126, -23.4159068, -5
4325, 34.8387229, -23.3143716, -5
4326, 34.5128533, -23.2986167, -5
4327, 35.0124769, -23.2167856, -5
4328, 35.367896, -22.973155, -5
4329, 35.5253119, -22.8553734, -5
4330, 35.1111316, -22.9048726, -5
4331, 35.6705791, -22.7250191, -5
4332, 28.201647, -22.7045703, -5
4333, 34.0444052, -22.7980367, -5
4334, 26.0089291, -22.7145545, -5
4335, 23.9574224, -22.7440297, -5
4336, 34.2007112, -23.174163, -5
4337, 34.582893, -22.77705, -5
4338, 36.0920378, -18.6767032, -7.25027736
4339, 35.8281115, -18.967901, -7.25034745
4340, 36.4178817, -18.2599061, -7.25006006
4341, 36.826031, -17.6538032, -7.25006687
4342, 37.0276975, -17.3173429, -7.25003411
4343, 37.7293979, -17.6723502, -4.68408968
4344, 37.2505001, -17.513735, -4.96811656
4345, 37.2523444, -18.8708062, -4.96763749
4346, 37.6514364, -18.8553631, -4.75870327
4347, 37.2765123, -17.4736791, -4.96101038
4348, 37.5417952, -17.1090948, -4.84051056
4349, 37.9113423, -18.8152001, -4.41164937
4350, 37.8973754, -17.2155237, -4.44126787
4351, 37.9809879, -15.4863296, -4.19406888
4352, 37.9088316, -16.713816, -4.41716315
4353, 37.9126987, -16.3117991, -4.40863324
4354, 37.9306294, -15.9002945, -4.36596304
4355, 37.3913911, -20.2151876, -4.91533953
4356, 37.9031559, -20.2646848, -4.40058395
4357, 37.1786545, -20.1111517, -4.9827201
4358, 37.1784463, -20.2891528, -4.98107583
4359, 37.5289887, -20.329623, -4.83796118
4360, 37.5539977, -20.069938, -4.82986338
4361, 37.9619585, -20.3939123, -4.19231811
4362, 37.975123, -20.1597458, -4.183652
4363, 37.8219994, -20.0974825, -4.56220634
4364, 37.8199234, -20.3596338, -4.54599759
4365, 37.6938921, -20.2252958, -4.70889347
4366, 37.3265108, -20.599661, -4.92755199
4367, 37.8678119, -20.7071731, -4.3801819
4368, 37.1572124, -20.4650878, -4.98245835
4369, 37.1349009, -20.6679772, -4.98096548
4370, 37.4814007, -20.7529793, -4.83555683
4371, 37.5141417, -20.5293437, -4.8358378
4372, 37.9048826, -20.8401977, -4.19350159
4373, 37.942185, -20.5926367, -4.19056863
4374, 37.7967877, -20.5834709, -4.5479587
4375, 37.7616272, -20.816892, -4.5487669
4376, 37.6548087, -20.675, -4.70471222
4377, 37.2440052, -21.0369742, -4.92710386
4378, 37.773741, -21.1821826, -4.38251906
4379, 37.1143189, -20.8770696, -4.9776689
4380, 37.0386666, -21.0813825, -4.98247202
4381, 37.3865608, -21.2065789, -4.83231796
4382, 37.4237269, -20.9579845, -4.84803057
4383, 37.7974859, -21.321378, -4.19500308
4384, 37.8570982, -21.0833921, -4.19500308
4385, 37.7235093, -21.0368265, -4.54273712
4386, 37.656379, -21.2712348, -4.55516431
4387, 37.5619714, -21.1168126, -4.71154464
4388, 37.1347928, -21.435886, -4.92381144
4389, 37.6348799, -21.6443985, -4.38251906
4390, 36.9925095, -21.2764743, -4.98076792
4391, 36.9285896, -21.4621224, -4.98029539
4392, 37.2545562, -21.6155609, -4.83108802
4393, 37.3319047, -21.3979119, -4.83142019
4394, 37.644867, -21.7852511, -4.19500308
4395, 37.727519, -21.5542542, -4.19500308
4396, 37.5869619, -21.5039621, -4.55549627
4397, 37.5093544, -21.7215184, -4.55516431
4398, 37.431161, -21.5700799, -4.70711349
4399, 36.9741412, -21.8342524, -4.92381144
4400, 37.4513825, -22.090778, -4.38251906
4401, 36.8481681, -21.6616621, -4.98076792
4402, 36.7663594, -21.840151, -4.98029539
4403, 37.0757166, -22.024801, -4.83108802
4404, 37.1740261, -21.8157815, -4.83142019
4405, 37.4475155, -22.2319312, -4.19500308
4406, 37.5524111, -22.0101479, -4.19500308
4407, 37.4174604, -21.946321, -4.55549627
4408, 37.3189023, -22.1552229, -4.55516431
4409, 37.2490009, -21.9946468, -4.71424531
4410, 36.7752165, -22.2149539, -4.92381144
4411, 37.2250158, -22.5170221, -4.38251906
4412, 36.6667667, -22.0308472, -4.98076792
4413, 36.5526476, -22.2000306, -4.98287528
4414, 36.8576258, -22.4145411, -4.83108802
4415, 36.9759493, -22.2161641, -4.83142019
4416, 37.207332, -22.6571166, -4.19500308
4417, 37.3334611, -22.4466828, -4.19500308
4418, 37.2054163, -22.3699357, -4.55549627
4419, 37.0868568, -22.5681714, -4.55516431
4420, 37.0399361, -22.4047093, -4.70675428
4421, 36.5399343, -22.5743242, -4.92381144
4422, 36.9579599, -22.9190259, -4.38251906
4423, 36.4500524, -22.3804741, -4.98076792
4424, 36.3349942, -22.5395733, -4.98029539
4425, 36.6023838, -22.7810279, -4.83108802
4426, 36.7395819, -22.5952038, -4.83142019
4427, 36.9266295, -23.0567125, -4.19500308
4428, 37.0727774, -22.8596549, -4.19500308
4429, 36.9528717, -22.7707267, -4.55549627
4430, 36.8154527, -22.9563869, -4.55516431
4431, 36.7844823, -22.7884353, -4.70739705
4432, 36.2705607, -22.9089024, -4.92381144
4433, 36.6527867, -23.2929179, -4.38251906
4434, 36.2001122, -22.7071757, -4.98076792
4435, 36.0594683, -22.8566825, -4.98151799
4436, 36.3157091, -23.1204701, -4.82958478
4437, 36.4672004, -22.9492503, -4.83142019
4438, 36.6081115, -23.4268706, -4.19500308
4439, 36.7799134, -23.2400513, -4.1855263
4440, 36.6631431, -23.1462221, -4.55311279
4441, 36.5073037, -23.3161309, -4.55516431
4442, 36.495066, -23.1463781, -4.70553585
4443, 35.9696898, -23.2154662, -4.92381144
4444, 36.3124351, -23.6350973, -4.38251906
4445, 35.9360508, -23.0060185, -4.978748
4446, 35.775467, -23.1414012, -4.98029539
4447, 35.9906134, -23.4303814, -4.83108802
4448, 36.1614278, -23.2748939, -4.83142019
4449, 36.2560197, -23.7673259, -4.17796801
4450, 36.4366292, -23.5992668, -4.19500308
4451, 36.3363764, -23.488655, -4.55549627
4452, 36.1641342, -23.6395148, -4.56127708
4453, 36.1679275, -23.4738948, -4.70675428
4454, 35.5975483, -23.5159569, -4.92604077
4455, 35.9038882, -23.9706224, -4.37972188
4456, 35.5904797, -23.2885894, -4.98166983
4457, 35.4286749, -23.4134502, -4.98090419
4458, 35.6121655, -23.7139299, -4.83834219
4459, 35.8050867, -23.5880813, -4.82917785
4460, 35.8441034, -24.0847285, -4.19330954
4461, 36.0507914, -23.9327739, -4.18778247
4462, 35.9596755, -23.8096621, -4.55917649
4463, 35.7757273, -23.9588517, -4.54366697
4464, 35.802522, -23.7743759, -4.70712332
4465, 35.283571, -23.7279856, -4.92596361
4466, 35.5408695, -24.2141355, -4.37536935
4467, 35.2765612, -23.5117202, -4.98207089
4468, 35.1063196, -23.6216576, -4.9807462
4469, 35.2624467, -23.9416091, -4.83517541
4470, 35.4596545, -23.8248559, -4.83435585
4471, 35.4533203, -24.3309372, -4.18862002
4472, 35.6742163, -24.1986525, -4.18810462
4473, 35.5948467, -24.0749345, -4.5499032
4474, 35.3941975, -24.1958153, -4.54909937
4475, 35.4339568, -24.023064, -4.7061887
4476, 34.9021336, -23.9369221, -4.92571367
4477, 35.1212313, -24.4395522, -4.37685177
4478, 34.9358727, -23.7372517, -4.97723701
4479, 34.7263892, -23.8117056, -4.98180533
4480, 34.846469, -24.1308042, -4.84818961
4481, 35.0796197, -24.0503611, -4.83074194
4482, 35.0076165, -24.5513261, -4.20510762
4483, 35.2578264, -24.4372442, -4.1857917
4484, 35.1856978, -24.3007538, -4.56018977
4485, 34.9700106, -24.4248229, -4.52951056
4486, 35.008248, -24.24964, -4.70792416
4487, 34.5109627, -24.1022082, -4.9260257
4488, 34.6666542, -24.6298004, -4.37589393
4489, 34.5462611, -23.8898679, -4.98189531
4490, 34.3599329, -23.9637821, -4.98055473
4491, 34.4486293, -24.3059115, -4.83631016
4492, 34.6629716, -24.2291217, -4.83636996
4493, 34.5589057, -24.7266692, -4.1911053
4494, 34.7994132, -24.6407853, -4.19027606
4495, 34.7466043, -24.5051315, -4.54840049
4496, 34.5288839, -24.5842297, -4.54667872
4497, 34.5966805, -24.4223185, -4.70647707
4498, 34.0944956, -24.2309152, -4.92658582
4499, 34.2083512, -24.7700473, -4.37574493
4500, 34.1685098, -24.0432331, -4.97726751
4501, 33.9548133, -24.0762539, -4.98137201
4502, 34.0086481, -24.4358129, -4.83252907
4503, 34.2422558, -24.3537117, -4.84730749
4504, 34.0854244, -24.8543972, -4.20540842
4505, 34.3481867, -24.791722, -4.19030255
4506, 34.3073587, -24.6607596, -4.53513361
4507, 34.0636246, -24.7090946, -4.55412817
4508, 34.1680106, -24.5517375, -4.70905441
4509, 33.6718607, -24.3232473, -4.92455037
4510, 33.7239291, -24.8652222, -4.38043258
4511, 33.7516615, -24.1208496, -4.98128482
4512, 33.5577614, -24.1528423, -4.98065236
4513, 33.5695399, -24.5094032, -4.83504126
4514, 33.8029549, -24.4788653, -4.83236422
4515, 33.6076856, -24.9391021, -4.19485257
4516, 33.8527564, -24.9031522, -4.19283567
4517, 33.8314433, -24.7568089, -4.55275414
4518, 33.5953733, -24.7951963, -4.54769556
4519, 33.6986263, -24.6510247, -4.7049904
4520, 33.2400506, -24.3993477, -4.91125166
4521, 33.2381671, -24.9006561, -4.40916121
4522, 33.3402066, -24.1842289, -4.97940517
4523, 33.111205, -24.1953971, -4.97942203
4524, 33.1064254, -24.508864, -4.85738376
4525, 33.3664637, -24.5060075, -4.85135866
4526, 33.1165724, -24.9732159, -4.20401316
4527, 33.3696434, -24.9628343, -4.1939235
4528, 33.37331, -24.8320618, -4.52584311
4529, 33.1104967, -24.8491562, -4.51902388
4530, 33.2259462, -24.696337, -4.70642347
4531, 21.7142381, -24.7065157, -4.70769735
4532, 23.8770538, -24.6985273, -4.71558339
4533, 21.458492, -24.9386976, -4.34474174
4534, 30.8425163, -24.3536445, -4.93537992
4535, 30.727626, -24.6949781, -4.71903092
4536, 28.4004222, -24.7090275, -4.70518088
4537, 26.2132642, -24.7102468, -4.70395279
4538, 15.9391741, -24.3720785, -4.15061561
4539, 19.067735, -24.1625531, -4.15646887
4540, 16.1549225, -23.2821881, -3.98824295
4541, 19.325627, -22.7455321, -4.41145154
4542, 16.5661477, -24.0882724, -3.76744096
4543, 18.835366, -21.0469096, -3.98178354
4544, 16.3609402, -20.6494261, -3.86483193
4545, 19.5466724, -23.3904124, -4.70867039
4546, 19.5421896, -22.1311462, -4.70159258
4547, 19.9079281, -20.4995952, -5.75858251
4548, 19.5616559, -20.5049274, -4.73272937
4549, 19.3325002, -21.2787467, -4.4193852
4550, 19.1352298, -20.3010346, -4.21606512
4551, 19.7063547, -20.507992, -6.99418257
4552, 19.1029253, -21.8906518, -4.18698305
4553, 19.3060085, -24.4398811, -4.38918242
4554, 19.4482316, -24.0727407, -4.56445354
4555, 19.2029573, -23.4460477, -4.28059995
4556, 18.3318556, -24.5591861, -3.72746479
4557, 18.9915917, -24.6058195, -4.09433631
4558, 16.4970553, -24.5441362, -3.79761447
4559, 17.023761, -24.5441362, -3.62732294
4560, 18.3243422, -23.1816879, -3.72472859
4561, 17.024338, -23.1709814, -3.6272072
4562, 18.1918626, -20.3275095, -3.6810075
4563, 18.1941531, -21.6529623, -3.68169211
4564, 16.9645377, -21.4529967, -3.63998301
4565, 16.9481723, -20.1216359, -3.64375592
4566, 15.9404017, -20.1197123, -4.14958026
4567, 15.816673, -22.3910941, -4.26137695
4568, 15.816673, -23.6410941, -4.26137695
4569, 16.4072301, -21.8672104, -3.8407747
4570, 16.7995093, -22.7754378, -3.68359917
4571, 15.8937727, -21.0774327, -4.18990781
4572, 15.5697194, -20.5, -4.54040521
4573, 15.1275829, -20.5, -5.52246788
4574, 15.2067043, -20.5, -6.77278388
4575, 15.7222973, -24.1860393, -4.35799726
4576, 15.7419088, -24.35223, -4.3370161
4577, 16.0447819, -23.8271333, -4.06641779
4578, 15.800039, -24.4989711, -4.27763752
4579, 15.9632014, -24.6449437, -4.13060172
4580, 16.1743224, -24.6860393, -3.97540646
4581, 16.2380331, -24.2301755, -3.93509334
4582, 18.4810385, -22.5038129, -3.78776956
4583, 16.3551993, -23.6852303, -3.86790448
4584, 19.0622391, -20.4408382, -7.84819075
4585, 16.8652841, -20.4913004, -8.33528065
4586, 17.916506, -20.5289407, -8.38388815
4587, 15.7431448, -20.4871519, -7.66428955
4588, 35.0628028, -20.4877043, -5.23317762
4589, 34.1459874, -20.9209263, -6.24990842
4590, 35.8384569, -20.3318702, -5.00653472
4591, 35.5142784, -20.9354382, -5.0598777
4592, 35.3626885, -19.8173532, -5.10425897
4593, 34.8135614, -21.0040411, -5.38991818
4594, 35.0768054, -20.0863181, -5.22582085
4595, 34.7041546, -20.3227767, -5.47658785
4596, 34.2773025, -20.5586461, -5.98397176
4597, 34.0372992, -20.6713021, -6.61554485
4598, 34.5197207, -20.818991, -5.65509356
4599, 34.3389813, -21.2032439, -5.88599066
4600, 34.0365455, -21.2133309, -6.61941298
4601, 35.3685004, -19.418203, -7.3655987
4602, 37.2229846, -16.9167828, -7.25037386
4603, 37.9807629, -13.8915801, -8.19344361
4604, 37.9807542, -13.8917578, -6.81906862
4605, 37.980684, -13.8931861, -5.51559205
4606, 37.90388, -14.6724298, -8.19372064
4607, 37.9036751, -14.673811, -5.71389651
4608, 37.750799, -15.4419129, -7.1281868
4609, 37.5232356, -16.1919952, -7.21116477
4610, 37.9879867, -20.2445368, -1.99780171
4611, 37.9879664, -20.244949, -0.000356568467
4612, 37.9879946, -20.2443751, 1.99793818
4613, 37.9398883, -20.7330164, -1.99374954
4614, 37.9398683, -20.7331509, 0.000257808462
4615, 37.94005, -20.731926, 1.99572345
4616, 37.8442135, -21.2138388, -1.99945666
4617, 37.8442203, -21.2138116, 0.000112035554
4618, 37.844263, -21.2136413, 1.99942708
4619, 37.7020223, -21.6824967, -1.99939204
4620, 37.7020692, -21.6823656, 0.000174814171
4621, 37.7020467, -21.6824285, 1.99978188
4622, 37.514502, -22.1352004, -2
4623, 37.5142608, -22.1357104, 0.000383723247
4624, 37.5140086, -22.1362436, 1.99876309
4625, 37.2834772, -22.5674174, -2
4626, 37.2834772, -22.5674174, -1.33226763e-14
4627, 37.2834772, -22.5674174, 2
4628, 37.0111349, -22.9749967, -1.99764008
4629, 37.0111884, -22.9749247, -0.000311211409
4630, 37.0109149, -22.9752934, 1.99972267
4631, 36.7005778, -23.353436, -1.99859659
4632, 36.7002945, -23.3537486, -3.33213835e-05
4633, 36.6999335, -23.3541469, 1.99916376
4634, 36.3536876, -23.7003498, -1.99747901
4635, 36.3537891, -23.7002578, 0.000131136875
4636, 36.3534281, -23.700585, 1.99912736
4637, 35.9757435, -24.0105811, -1.99648759
4638, 35.9750347, -24.0111068, -0.000207630055
4639, 35.9747249, -24.0113365, 1.99795617
4640, 35.5661876, -24.2842143, -1.99669787
4641, 35.5670174, -24.283717, 9.70328722e-05
4642, 35.5661928, -24.2842112, 1.99633752
4643, 35.1320747, -24.5159804, -1.9968887
4644, 35.1364292, -24.5139208, -3.61097381e-05
4645, 35.1335533, -24.515281, 1.99694
4646, 34.6850745, -24.7011, -1.9963319
4647, 34.681578, -24.702351, 0.000171327967
4648, 34.6794228, -24.7031222, 1.99574515
4649, 34.2149516, -24.8439348, -1.99644075
4650, 34.2128298, -24.8444663, -0.000326448724
4651, 34.2124978, -24.8445494, 1.99872328
4652, 33.7334748, -24.9398203, -1.99730415
4653, 33.7328964, -24.9399061, 0.0001122032
4654, 33.7306769, -24.9402353, 1.99746529
4655, 33.2443533, -24.9879957, -1.99815855
4656, 33.2449243, -24.9879676, -0.000316918593
4657, 33.2448124, -24.9879731, 1.99849479
4658, 15.3758019, -25, 2.49617937
4659, 14.3815682, -25, -1.10520757
4660, 15.8832829, -25, -3.02466493
4661, 14.4404157, -25, 1.05842625
4662, 17.6044581, -25, 2.38712254
4663, 14.9205894, -25, -2.09854183
4664, 16.3943116, -25, 2.98485906
4665, 18.5601172, -25, -2.50386035
4666, 17.1171008, -25, -2.21295552
4667, 17.9953994, -25, -1.18465373
4668, 16.7104863, -25, -0.977494752
4669, 17.4607638, -25, -0.0117742195
4670, 16.2170999, -25, 0.0280878161
4671, 16.1464904, -25, 2.04412191
4672, 19.8067773, -25, 0.546321177
4673, 15.6355112, -25, -0.748196812
4674, 15.1876072, -25, 1.65444328
4675, 27.7743944, -25, 0.475721694
4676, 15.0607082, -25, 0.203729058
4677, 15.9803241, -25, -1.81043553
4678, 20.6214041, -25, -2.48093678
4679, 19.4684724, -25, -1.04585728
4680, 16.7789437, -25, -3.0048198
4681, 16.8763673, -25, 1.0447703
4682, 18.4431695, -25, 1.07771632
4683, 20.0072215, -25, 2.29630145
4684, 30.3334811, -25, 1.4327602
4685, 29.6311983, -25, -1.2349947
4686, 14.7216477, -25, 2.1698971
4687, 15.5146549, -25, -2.58787366
4688, 18.6374604, -25, -0.126954594
4689, 16.3091954, -25, -3.25320345
4690, 14.4556004, -25, -1.67295292
4691, 15.0432098, -25, -1.32279617
4692, 14.855703, -25, -0.514814141
4693, 14.3505694, -25, -0.0582118445
4694, 14.4668872, -25, 1.72725633
4695, 26.707033, -25, -2.26114914
4696, 16.2780952, -25, -2.59217928
4697, 15.6314293, -25, 0.824700163
4698, 15.833221, -25, 2.9136117
4699, 31.3129227, -25, -2.60717341
4700, 28.9899526, -25, -2.58758861
4701, 31.3199, -25, -0.618551462
4702, 18.7359632, -25, -3.21556081
4703, 18.0165668, -25, -3.0086576
4704, 22.0590041, -25, -3.16930933
4705, 19.7409844, -25, -3.204963
4706, 19.5929055, -25, -2.47296246
4707, 17.1415979, -25, -3.27366315
4708, 16.5968296, -25, -3.4044687
4709, 17.8343714, -25, -2.34478957
4710, 17.3130772, -25, -2.89083251
4711, 16.9509333, -25, -2.61154526
4712, 16.3654135, -25, -3.53928554
4713, 16.1401566, -25, -3.47212566
4714, 16.5399855, -25, -3.1235685
4715, 31.6761428, -25, 2.70118133
4716, 31.6777628, -25, 0.724908199
4717, 29.3327947, -25, 2.72264973
4718, 15.9272004, -25, -3.3578564
4719, 15.5818451, -25, -3.17326012
4720, 16.0962392, -25, -3.13893419
4721, 15.3975311, -25, -2.95486449
4722, 15.0948246, -25, -2.7064397
4723, 15.6989689, -25, -2.8062693
4724, 14.7977918, -25, -2.46177378
4725, 14.549367, -25, -2.1590673
4726, 15.2176221, -25, -2.34320775
4727, 14.3168725, -25, -1.94627284
4728, 14.1322763, -25, -1.6009175
4729, 14.6880949, -25, -1.88574737
4730, 14.0952602, -25, -1.31704483
4731, 14.0258213, -25, -1.08813556
4732, 14.4185843, -25, -1.38908024
4733, 14.0103219, -25, -0.564637698
4734, 14.0103219, -25, 0.506425853
4735, 14.3660688, -25, -0.581709708
4736, 14.055575, -25, 1.06536665
4737, 14.1242989, -25, 1.29389372
4738, 14.3969369, -25, 0.49942051
4739, 14.1381521, -25, 1.62842864
4740, 14.3225073, -25, 1.97362551
4741, 14.4529351, -25, 1.39255775
4742, 14.45015, -25, 2.19516305
4743, 14.6983324, -25, 2.49759509
4744, 14.594063, -25, 1.94849797
4745, 15.0266046, -25, 2.6625589
4746, 15.32863, -25, 2.90963925
4747, 15.0489258, -25, 2.33364428
4748, 15.5586584, -25, 3.12107278
4749, 15.902227, -25, 3.30135197
4750, 15.6043633, -25, 2.70527166
4751, 16.1857941, -25, 3.34669923
4752, 16.4084977, -25, 3.40098001
4753, 16.1142865, -25, 2.95604938
4754, 16.987117, -25, 3.02383769
4755, 18.3029638, -25, 3.09434374
4756, 16.9782968, -25, 2.65552919
4757, 19.4184405, -25, 3.11445116
4758, 21.686551, -25, 3.11680898
4759, 18.8256865, -25, 2.31314278
4760, 24.5886678, -25, 2.83346082
4761, 23.5359593, -25, 3.20667782
4762, 22.5062483, -25, 2.86158162
4763, 27.4892495, -25, -3.06606633
4764, 25.2093738, -25, -3.1167722
4765, 23.0053641, -25, -3.09644928
4766, 24.0593723, -25, -3.0670851
4767, 25.6750198, -25, -2.27565471
4768, 21.5199771, -25, -2.33699894
4769, 28.172426, -25, -1.73395937
4770, 29.9932798, -25, 0.10334343
4771, 26.8446029, -25, 2.73015847
4772, 20.8047181, -25, 1.88612775
4773, 26.6598175, -25, 1.04425517
4774, 28.0514224, -25, 2.24187226
4775, 29.0571851, -25, 0.967361397
4776, 26.8464093, -25, -0.0424532751
4777, 26.3443352, -25, -1.3885272
4778, 27.2592733, -25, -0.883621854
4779, 20.7872096, -25, -1.51898615
4780, 20.6253498, -25, 1.0739378
4781, 20.4157939, -25, -0.0184031789
4782, 19.6332449, -25, -0.259818527
4783, 20.29931, -25, -0.79602491
4784, 20.0152096, -25, -1.7534379
4785, 19.8818992, -25, 1.42914711
4786, 15.7603469, -25, 2.27281699
4787, 15.280095, -25, 2.07445651
4788, 15.6675373, -25, 1.85389573
4789, 15.9911745, -25, 2.47884447
4790, 14.954124, -25, 1.91270883
4791, 14.7494051, -25, -1.49787454
4792, 14.712389, -25, -1.21400187
4793, 14.9494564, -25, -0.918805156
4794, 14.6186356, -25, -0.810010856
4795, 14.6031362, -25, -0.286512993
4796, 16.0801711, -25, -2.80909913
4797, 15.8962094, -25, -2.59203787
4798, 16.2909652, -25, -2.92055772
4799, 14.8139981, -25, 1.35739891
4800, 14.827305, -25, 1.69284875
4801, 15.0358027, -25, 0.943571483
4802, 15.4084863, -25, 1.2388453
4803, 14.7497762, -25, 0.630856238
4804, 14.7055254, -25, 0.0736460856
4805, 15.345863, -25, 0.514877481
4806, 16.2682395, -25, 2.51405579
4807, 16.8627589, -25, 2.21382877
4808, 16.5091568, -25, 1.5367063
4809, 17.2311613, -25, 1.72777822
4810, 17.6611377, -25, 1.05326801
4811, 18.0333551, -25, 1.74704795
4812, 19.2113148, -25, 1.67077552
4813, 15.4509224, -25, -1.9549624
4814, 15.7463997, -25, -2.19893748
4815, 15.5101535, -25, -1.56898834
4816, 14.9818996, -25, -1.710669
4817, 18.2723423, -25, -1.84617573
4818, 17.554998, -25, -1.69401431
4819, 19.005652, -25, -1.78011046
4820, 18.7326964, -25, -1.11820998
4821, 17.3521992, -25, -1.08126104
4822, 16.9131373, -25, -1.59627029
4823, 16.3449728, -25, -1.39288268
4824, 16.5478893, -25, -2.01341814
4825, 16.1286802, -25, -2.20186339
4826, 16.6985452, -25, -2.40246966
4827, 16.5267113, -25, -2.80098003
4828, 17.7273065, -25, -0.59824193
4829, 17.0845956, -25, -0.493353773
4830, 18.3162627, -25, -0.657216778
4831, 18.0503331, -25, -0.0704356914
4832, 19.0485595, -25, -0.587678647
4833, 16.8379037, -25, 0.00679874224
4834, 16.4638862, -25, -0.475499115
4835, 15.9256561, -25, -0.35893629
4836, 16.1719453, -25, -0.864151852
4837, 15.8075652, -25, -1.28020977
4838, 17.1688934, -25, 0.516732378
4839, 16.5443593, -25, 0.539209395
4840, 17.9495194, -25, 0.530500208
4841, 18.5429426, -25, 0.477527784
4842, 15.638268, -25, 0.115933346
4843, 15.3489577, -25, -0.272316758
4844, 15.9240648, -25, 0.42526839
4845, 16.2511545, -25, 0.933545812
4846, 15.8867995, -25, 1.43642157
4847, 19.2307601, -25, 0.20224429
4848, 19.1299901, -25, 0.8090195
4849, 14.957392, -25, -0.155255289
4850, 15.2453251, -25, -0.631905362
4851, 15.3394593, -25, -1.03562051
4852, 28.716775, -25, -0.373970162
4853, 15.9780797, -24.9792367, -3.90500183
4854, 15.2816843, -24.4643356, -4.3267765
4855, 15.3939954, -24.8507781, -3.9784562
4856, 15.3939419, -24.2391032, -4.48353956
4857, 14.9886399, -24.2391032, -4.26690115
4858, 15.4230995, -24.3993942, -4.43765107
4859, 15.67766, -24.9619714, -3.843913
4860, 15.5280677, -24.7491986, -4.2052582
4861, 15.4746037, -24.547657, -4.37438295
4862, 15.325594, -24.6817662, -4.1755268
4863, 15.3323047, -24.9619714, -3.65931672
4864, 15.1381205, -24.7845899, -3.94882917
4865, 15.0795415, -24.5929718, -4.12752333
4866, 15.1274508, -22.75, -4.37398647
4867, 16.5539839, -19.5, -4.64557734
4868, 17.5, -19.5, -4.19
4869, 18.0407005, -19.5, -4.3537651
4870, 18.9046033, -19.5, -4.86853247
4871, 16.0683589, -19.5, -4.88830716
4872, 19.2644165, -19.5, -6.400419
4873, 19.1134046, -19.5, -5.38412663
4874, 18.2911982, -19.5, -7.6254472
4875, 18.9991418, -19.5, -6.87535
4876, 16.7041687, -19.5, -7.63319621
4877, 17.7550264, -19.5, -7.72499961
4878, 15.7353805, -19.5, -6.40276289
4879, 16.3115107, -19.5, -7.28789786
4880, 15.8512383, -19.5, -5.89515645
4881, 14.3433075, -22.75, -3.84644098
4882, 13.653559, -22.75, -3.15669254
4883, 13.1278061, -22.7445397, -2.37590291
4884, 13.9139125, -24.1719961, -0.171541048
4885, 13.454551, -24.2946382, -1.42693042
4886, 13.6123749, -22.7014915, 1.1807931
4887, 13.7990475, -23.1820582, -0.7555001
4888, 13.4171186, -24.0502688, 1.47683991
4889, 13.8476265, -21.391906, -0.587409519
4890, 13.7959115, -20.9812494, 0.764977462
4891, 12.2496256, -20.5034016, 2.30096969
4892, 13.7970876, -23.6111596, 0.761438445
4893, 13.916797, -22.3964638, 0.124468005
4894, 10.4334673, -20.5389911, 2.17230477
4895, 9.11057578, -20.6351724, 0.383473477
4896, 13.8747106, -24.5859981, 0.465992963
4897, 13.8357053, -24.5859981, -0.633151487
4898, 13.5699744, -24.6473191, -1.25363713
4899, 13.4223019, -24.6062236, -1.47008692
4900, 13.7726348, -24.2333172, -0.831583439
4901, 13.4031929, -24.4840389, 1.49474302
4902, 13.5536432, -24.5251344, 1.2802147
4903, 13.7389397, -24.3055798, 0.918449226
4904, 13.9012483, -23.8915778, 0.300677152
4905, 13.637249, -23.8307142, 1.13515048
4906, 13.4139288, -23.5911122, -1.48097152
4907, 13.4182128, -22.3186305, -1.47541843
4908, 13.2237997, -24.3135099, -1.6985036
4909, 13.2035214, -24.1473191, -1.71884109
4910, 13.6531326, -23.7383482, -1.10472631
4911, 12.7688571, -20.4919469, -2.06067991
4912, 13.4962307, -20.5242203, -1.3680143
4913, 13.4725868, -21.4437858, -1.40189206
4914, 13.8543142, -20.446295, -0.560004297
4915, 11.6531374, -20.4732179, -2.41514988
4916, 13.8250223, -22.2836933, -0.671320737
4917, 11.8362386, -20.0097174, 2.39652741
4918, 11.842479, -20.9859787, 2.39564357
4919, 10.9587135, -21.001926, 2.35868796
4920, 10.947374, -20.081656, 2.35605698
4921, 12.5989729, -20.9854178, 2.15607479
4922, 9.91404294, -20.9879386, 1.82787861
4923, 12.8750571, -20.0253691, 1.99138593
4924, 9.98621101, -20.0368163, 1.88807916
4925, 13.2799565, -22.087348, 1.63955937
4926, 13.3042473, -23.3507457, 1.61279003
4927, 13.1710645, -20.505883, 1.75041236
4928, 13.6205129, -20.2662034, 1.16611535
4929, 13.4119054, -21.2434076, 1.48358279
4930, 13.714536, -21.8449877, 0.975822841
4931, 13.1812243, -24.0251344, 1.74065648
4932, 13.201763, -24.1913252, 1.72058206
4933, 13.5201771, -23.3758801, 1.33239805
4934, 13.259831, -24.3380663, 1.66114266
4935, 13.2810967, -24.460251, -1.63832065
4936, 13.9168039, -20.2309292, 0.124334267
4937, 13.9179098, -21.1828565, 0.100558317
4938, 10.6000403, -20.48815, -2.2464355
4939, 9.16292105, -20.4957378, -0.628062087
4940, 9.68004265, -20.4623878, -1.59504083
4941, 9.2897143, -20.0934502, 0.985412166
4942, 9.08189403, -20.0822043, -0.0957261454
4943, 9.08959785, -21.0672805, -0.215317196
4944, 9.59212145, -20.4951902, 1.48875768
4945, 9.27647558, -21.0391676, 0.955164457
4946, 13.8745, -23.6770272, -0.467065106
4947, 13.919998, -23.3966089, 0.00312671028
4948, 13.7146793, -23.1563255, 0.975497586
4949, 13.8758199, -21.6960461, 0.460304043
4950, 13.8227372, -22.5524301, 0.679184646
4951, 13.8753137, -22.9953951, 0.462909166
4952, 13.8993348, -22.7816273, -0.315583145
4953, 13.9087393, -21.9014908, -0.233184212
4954, 13.1260135, -22.75, 2.37254921
4955, 13.6531626, -22.7483342, 3.15620955
4956, 14.3433075, -22.75, 3.84644098
4957, 15.1274508, -22.75, 4.37398647
4958, 17.6963424, -24.0663696, 3.5879781
4959, 16.137254, -24.2484697, 4.00016917
4960, 18.073376, -21.5360301, 3.64890665
4961, 16.7943412, -22.9755018, 3.68516833
4962, 19.0247996, -23.8110407, 4.12080169
4963, 18.2158675, -22.7876096, 3.68830502
4964, 16.6345238, -21.5368044, 3.74005511
4965, 16.6007508, -20.5013601, 8.24672003
4966, 18.6592084, -20.6832161, 8.12429659
4967, 17.3436317, -20.4785178, 3.58505715
4968, 18.3298235, -24.5246856, 3.72672199
4969, 17.0462171, -24.5331848, 3.62292594
4970, 16.2801218, -24.6242348, 3.90995286
4971, 16.0613039, -24.5831393, 4.05409315
4972, 16.8814536, -24.1574196, 3.66038458
4973, 19.285657, -24.2615208, 4.36665095
4974, 18.9728109, -24.450442, 4.07978436
4975, 18.4206874, -23.92865, 3.76197975
4976, 16.0889474, -23.4877509, 4.03395564
4977, 16.0820352, -22.2491637, 4.03893503
4978, 15.8296958, -24.2904256, 4.24886214
4979, 15.8090319, -24.1242348, 4.26880771
4980, 16.4538733, -23.6119857, 3.81779492
4981, 15.2933252, -20.5, 5.00652813
4982, 15.9280771, -20.5099811, 4.16003844
4983, 15.9940291, -21.5141729, 4.10567912
4984, 16.5435672, -20.5111195, 3.77702086
4985, 15.0840163, -20.5, 5.86063489
4986, 16.7289911, -22.2375714, 3.70610695
4987, 17.0383447, -20.9925615, 8.3755577
4988, 17.0509267, -20.0148027, 8.37796828
4989, 18.0646969, -20.0754046, 8.35319301
4990, 18.0473001, -21.1281142, 8.35729986
4991, 19.1581523, -21.0713826, 7.76264882
4992, 16.223213, -21.0006801, 8.05577599
4993, 19.061334, -20.0986863, 7.84895546
4994, 16.0564184, -20.0006801, 7.94228533
4995, 19.4400968, -22.6513484, 4.55347856
4996, 19.4217709, -23.9054702, 4.52921902
4997, 19.2274779, -20.4775974, 4.30523742
4998, 19.7901333, -20.4957486, 5.2178941
4999, 19.8825682, -20.4974063, 6.42399127
5000, 18.3180812, -20.5204483, 3.72246994
5001, 19.037798, -21.5090894, 4.13142373
5002, 18.1416534, -22.1650247, 3.66661599
5003, 19.0911012, -22.1476918, 4.17659745
5004, 18.6414489, -23.2938329, 3.86610814
5005, 15.8908007, -24.4371667, 4.19254944
5006, 19.4619356, -20.5010984, 7.41675986
5007, 16.8808293, -20.0434044, 3.66054972
5008, 17.9562309, -20.0519762, 3.62339457
5009, 17.7024107, -21.0300044, 3.58847975
5010, 16.977635, -21.0025498, 3.63704954
5011, 15.2628056, -20.5, 6.92269243
5012, 15.7402183, -20.5, 7.66119482
5013, 17.2407467, -23.5209357, 3.59392691
5014, 17.9548811, -23.428137, 3.62313585
5015, 17.4419717, -22.8855885, 3.58069582
5016, 17.3991718, -22.2771087, 3.58210139
5017, 17.3413397, -21.5228378, 3.58520665
5018, 34.7534412, -23.1493246, 5
5019, 34.2671007, -23.4470689, 5
5020, 35.4827924, -22.6578067, 5
5021, 34.4252734, -22.3923917, 5
5022, 33.6632689, -23.1977229, 5
5023, 21.8446292, -22.7726467, 5
5024, 20.7608268, -23.3183715, 5
5025, 20.7579473, -22.1231035, 5
5026, 22.8076629, -22.1265379, 5
5027, 22.9749449, -23.3239479, 5
5028, 36.5949361, -19.2700283, 5
5029, 36.5023811, -19.3722287, 5
5030, 36.8260468, -18.9544187, 5
5031, 36.4886349, -19.5619535, 5
5032, 36.4825995, -20.9133529, 5
5033, 36.166993, -21.8514694, 5
5034, 36.0480853, -21.9993704, 5
5035, 35.7298357, -22.0839812, 5
5036, 35.8000147, -22.5740734, 5
5037, 36.2661496, -21.6613262, 5
5038, 36.355842, -21.485018, 5
5039, 36.4198203, -21.3005633, 5
5040, 36.450375, -21.1162263, 5
5041, 33.1740401, -21.9460414, 5
5042, 35.2202854, -21.9435747, 5
5043, 34.9539209, -22.5336778, 5
5044, 33.5519961, -23.5814231, 5
5045, 33.3327713, -23.5924823, 5
5046, 32.4642464, -22.746737, 5
5047, 30.2478223, -22.7478833, 5
5048, 32.7964281, -22.3505627, 5
5049, 33.7433051, -23.5508537, 5
5050, 34.2370587, -23.6225228, 5
5051, 34.0420919, -23.6773073, 5
5052, 33.9635241, -23.323597, 5
5053, 34.4226129, -23.5583328, 5
5054, 34.838667, -23.3141574, 5
5055, 34.6627432, -23.4164914, 5
5056, 34.5128761, -23.2990531, 5
5057, 35.0125416, -23.2171606, 5
5058, 35.5255481, -22.8605859, 5
5059, 35.3679173, -22.9723133, 5
5060, 35.1100976, -22.9045151, 5
5061, 35.6631041, -22.7204946, 5
5062, 25.9971148, -22.7456464, 5
5063, 23.9587838, -22.7440519, 5
5064, 28.2102744, -22.7438216, 5
5065, 34.0426258, -22.7988121, 5
5066, 34.2006783, -23.1745514, 5
5067, 34.5836448, -22.7773101, 5
5068, 34, -20.9591085, -8.25
5069, 34, -20.6886628, -8.875
5070, 34, -21.2295543, -8.875
5071, 34, -20.6886628, -7.625
5072, 34, -21.2297643, -7.62434198
5073, 34.7690257, -19.9111182, -7.62995034
5074, 34.2222809, -20.284987, -8.25
5075, 37.7305655, -17.6740231, 4.68284264
5076, 37.9116079, -18.815764, 4.41106092
5077, 37.6515593, -18.8555194, 4.75859769
5078, 37.8974027, -17.2176285, 4.44121241
5079, 37.2520869, -18.8707795, 4.9677046
5080, 37.2501585, -17.5133529, 4.9682049
5081, 37.2765568, -17.4733974, 4.96099758
5082, 37.9809141, -15.4883806, 4.19444168
5083, 37.9267353, -15.85608, 4.375715
5084, 37.8549758, -16.3001403, 4.51866788
5085, 37.9117616, -16.7223979, 4.41071995
5086, 37.5414557, -17.1096479, 4.84072929
5087, 37.3902451, -20.2249475, 4.91563209
5088, 37.9031207, -20.2687214, 4.40021122
5089, 37.9751317, -20.1620317, 4.18300371
5090, 37.9620369, -20.3959935, 4.191395
5091, 37.8200127, -20.3611514, 4.54574638
5092, 37.822037, -20.099012, 4.56204055
5093, 37.1774033, -20.2932271, 4.98124158
5094, 37.1793214, -20.115385, 4.98255511
5095, 37.528157, -20.3345367, 4.83834485
5096, 37.5531362, -20.0736183, 4.83032013
5097, 37.6932378, -20.2246611, 4.70957405
5098, 37.3251967, -20.6082091, 4.92757037
5099, 37.8681725, -20.7110398, 4.37792596
5100, 37.9422443, -20.5942016, 4.18907766
5101, 37.9048954, -20.8423162, 4.19185393
5102, 37.7975938, -20.5855359, 4.54627524
5103, 37.7623306, -20.818918, 4.54725102
5104, 37.134212, -20.6718197, 4.98098876
5105, 37.1570178, -20.4695621, 4.98237016
5106, 37.4804279, -20.7572685, 4.83577567
5107, 37.5127855, -20.5331006, 4.83635628
5108, 37.6545295, -20.6746617, 4.70504018
5109, 37.2431626, -21.0435271, 4.92679021
5110, 37.7730894, -21.1858887, 4.38186988
5111, 37.8567086, -21.0852292, 4.19465855
5112, 37.7970963, -21.3232151, 4.19465855
5113, 37.7247384, -21.0390201, 4.54005784
5114, 37.656112, -21.2731026, 4.55487227
5115, 37.0394132, -21.0820056, 4.98230549
5116, 37.1099058, -20.8798008, 4.97843944
5117, 37.3881621, -21.2114555, 4.83048781
5118, 37.4211216, -20.9611335, 4.84912915
5119, 37.5624688, -21.1153472, 4.71141977
5120, 37.1260102, -21.4538958, 4.9247209
5121, 37.6338683, -21.6480229, 4.38186988
5122, 37.7289531, -21.5535371, 4.18934147
5123, 37.6442992, -21.7870411, 4.19465855
5124, 37.5854305, -21.504436, 4.55741079
5125, 37.5089056, -21.723351, 4.55487227
5126, 36.9253149, -21.4775224, 4.9798689
5127, 36.9876943, -21.2867557, 4.98098026
5128, 37.2483004, -21.6239687, 4.83312592
5129, 37.329185, -21.4048619, 4.83156674
5130, 37.4297735, -21.5714883, 4.70794441
5131, 36.970208, -21.8427223, 4.92378419
5132, 37.4500205, -22.0942857, 4.38186988
5133, 37.5516706, -22.0118737, 4.19465855
5134, 37.446775, -22.2336569, 4.19465855
5135, 37.4168343, -21.9481008, 4.55520416
5136, 37.3182761, -22.1570027, 4.55487227
5137, 36.7643945, -21.8443869, 4.98028836
5138, 36.8522318, -21.66102, 4.98008536
5139, 37.073747, -22.0290345, 4.83106824
5140, 37.1720565, -21.820015, 4.83140042
5141, 37.2561854, -21.997147, 4.70675428
5142, 36.770472, -22.2229975, 4.92378419
5143, 37.2233165, -22.5203795, 4.38186988
5144, 37.332555, -22.4483277, 4.19465855
5145, 37.2064259, -22.6587614, 4.19465855
5146, 37.2046188, -22.3716457, 4.55520416
5147, 37.0860592, -22.5698812, 4.55487227
5148, 36.5599064, -22.203305, 4.98135942
5149, 36.6709985, -22.0263174, 4.98050813
5150, 36.8552507, -22.4185612, 4.83106824
5151, 36.9735742, -22.2201842, 4.83140042
5152, 37.0399361, -22.4047093, 4.70675428
5153, 36.5269843, -22.5721447, 4.92857377
5154, 36.9559397, -22.9222005, 4.38186988
5155, 37.0717145, -22.861203, 4.19465855
5156, 36.9255666, -23.0582606, 4.19465855
5157, 36.9519105, -22.7723503, 4.55520416
5158, 36.8144913, -22.9580104, 4.55487227
5159, 36.3328108, -22.565426, 4.97744635
5160, 36.4410804, -22.3624944, 4.98416394
5161, 36.5839243, -22.782988, 4.84006759
5162, 36.7463012, -22.5838795, 4.83232009
5163, 36.7847799, -22.7891129, 4.70675428
5164, 36.2643381, -22.9158658, 4.92378419
5165, 36.650465, -23.2958792, 4.38186988
5166, 36.7716611, -23.2465233, 4.19465855
5167, 36.6069019, -23.428307, 4.19465855
5168, 36.6611431, -23.1463556, 4.55520416
5169, 36.5061877, -23.3176522, 4.55487227
5170, 36.0586149, -22.8612876, 4.9810351
5171, 36.1970024, -22.7106588, 4.98076098
5172, 36.3093352, -23.1242113, 4.83106824
5173, 36.4640866, -22.9527298, 4.83140042
5174, 36.4931743, -23.1466559, 4.70675428
5175, 35.9628146, -23.2217862, 4.92378419
5176, 36.3098344, -23.6378168, 4.38186988
5177, 36.4352846, -23.6005778, 4.19465855
5178, 36.2535009, -23.765337, 4.19465855
5179, 36.3351169, -23.4900598, 4.55520416
5180, 36.1641177, -23.6453433, 4.55487227
5181, 35.7638203, -23.1238402, 4.98426406
5182, 35.9453474, -23.0211272, 4.97493161
5183, 35.9871736, -23.433539, 4.83106824
5184, 36.157988, -23.2780515, 4.83140042
5185, 36.1679275, -23.4738948, 4.70675428
5186, 35.5926384, -23.5234903, 4.92476053
5187, 35.9010692, -23.9739496, 4.37729326
5188, 36.0512843, -23.9322251, 4.18855055
5189, 35.8425823, -24.0857793, 4.19362432
5190, 35.9542998, -23.8126845, 4.56032338
5191, 35.7734547, -23.9594599, 4.54500045
5192, 35.4258865, -23.4170117, 4.98066558
5193, 35.5843504, -23.2930592, 4.98168168
5194, 35.609017, -23.716188, 4.83838244
5195, 35.8045326, -23.587736, 4.82958701
5196, 35.8013926, -23.7725179, 4.70928166
5197, 35.2766203, -23.7321402, 4.92596762
5198, 35.5378719, -24.216103, 4.37500742
5199, 35.6726717, -24.1995773, 4.1881088
5200, 35.4518271, -24.3318482, 4.1885484
5201, 35.5937531, -24.0759028, 4.54949535
5202, 35.3926968, -24.1967467, 4.54905775
5203, 35.1029476, -23.623692, 4.98074391
5204, 35.273349, -23.5133674, 4.98211665
5205, 35.2590864, -23.9440519, 4.8349331
5206, 35.4561184, -23.8270236, 4.83432851
5207, 35.4345808, -24.0230736, 4.70585864
5208, 34.8890766, -23.9426481, 4.92587958
5209, 35.1159936, -24.4427926, 4.37515147
5210, 35.2557332, -24.4383392, 4.18528913
5211, 35.0048992, -24.5530243, 4.20331768
5212, 35.1834683, -24.3021852, 4.55968551
5213, 34.9678313, -24.4262279, 4.52896829
5214, 34.7208855, -23.8134187, 4.98196058
5215, 34.9312887, -23.7410126, 4.97692331
5216, 34.8416571, -24.1345014, 4.84738588
5217, 35.0737346, -24.0522648, 4.83127427
5218, 35.0088277, -24.2496638, 4.7076553
5219, 34.5033661, -24.1049514, 4.92601607
5220, 34.6642689, -24.6312294, 4.37455524
5221, 34.7989723, -24.6412546, 4.18875642
5222, 34.5580801, -24.7272365, 4.18978578
5223, 34.7457829, -24.5061191, 4.54740319
5224, 34.5273459, -24.5850074, 4.54635068
5225, 34.3562835, -23.9653259, 4.98050985
5226, 34.5426823, -23.8910075, 4.98192089
5227, 34.4449237, -24.3075605, 4.83611062
5228, 34.6590131, -24.2302208, 4.83656566
5229, 34.597267, -24.4222672, 4.70632752
5230, 34.0805734, -24.2341427, 4.92668806
5231, 34.2028799, -24.7715713, 4.37537757
5232, 34.3457041, -24.7923282, 4.19038088
5233, 34.083187, -24.8550909, 4.20479167
5234, 34.3053031, -24.66194, 4.53411309
5235, 34.0612836, -24.7097123, 4.55408256
5236, 33.948664, -24.0773631, 4.98145379
5237, 34.1632083, -24.0457601, 4.97701447
5238, 34.0026603, -24.4379398, 4.83212398
5239, 34.2361237, -24.3539199, 4.84811348
5240, 34.1685703, -24.5514658, 4.70918128
5241, 33.6630028, -24.3244584, 4.92459231
5242, 33.7202789, -24.865906, 4.38009009
5243, 33.8510182, -24.903421, 4.19278042
5244, 33.6061082, -24.9393315, 4.19487542
5245, 33.8295394, -24.7572365, 4.55253757
5246, 33.593659, -24.7954508, 4.54769536
5247, 33.553341, -24.1534333, 4.98066513
5248, 33.7473347, -24.1213185, 4.98131836
5249, 33.5651963, -24.5100675, 4.83502823
5250, 33.7987698, -24.4795878, 4.83229719
5251, 33.6988747, -24.6507922, 4.70518503
5252, 33.2369361, -24.398544, 4.91168297
5253, 33.2387453, -24.9010679, 4.40817932
5254, 33.3695307, -24.9628574, 4.19383505
5255, 33.1159925, -24.9734196, 4.20317163
5256, 33.3734693, -24.832207, 4.52559582
5257, 33.1113768, -24.8488554, 4.51944729
5258, 33.1104503, -24.195146, 4.9794813
5259, 33.3383276, -24.1828264, 4.97971178
5260, 33.1031245, -24.5070979, 4.85853693
5261, 33.3649719, -24.5055316, 4.85169638
5262, 33.2253995, -24.6963636, 4.70642374
5263, 28.4188951, -24.5918249, 4.80606654
5264, 30.7486778, -24.7044676, 4.70973619
5265, 30.8372719, -24.3617051, 4.93229255
5266, 21.4626539, -24.9363926, 4.35095428
5267, 21.7125332, -24.7032188, 4.7109735
5268, 23.8342016, -24.7056094, 4.70860099
5269, 26.176086, -24.5654943, 4.82475224
5270, 15.9780797, -24.9792367, 3.90500183
5271, 15.2824317, -24.4483531, 4.33647064
5272, 15.3934786, -24.8488847, 3.98164166
5273, 15.6773069, -24.9614792, 3.84568298
5274, 15.3319515, -24.9614792, 3.66108671
5275, 15.1363545, -24.7977605, 3.92856304
5276, 15.527895, -24.7480077, 4.20669057
5277, 14.9899518, -24.230373, 4.26999287
5278, 15.3952538, -24.230373, 4.48663128
5279, 15.0793521, -24.5857162, 4.13342377
5280, 15.4237318, -24.3911445, 4.44201431
5281, 15.4746067, -24.5401205, 4.37992335
5282, 15.3249173, -24.6738424, 4.18344816
5283, 14.4173491, -24.4750149, 3.7519394
5284, 14.7078793, -24.90884, 3.39163056
5285, 14.9910206, -24.9769442, 3.36054792
5286, 14.6883141, -24.9769442, 3.11212313
5287, 14.4348784, -24.8212223, 3.36611159
5288, 14.7913553, -24.8212223, 3.65866469
5289, 14.1721668, -24.2449717, 3.66657243
5290, 14.5510081, -24.2449717, 3.9774795
5291, 14.2898688, -24.5978312, 3.5459546
5292, 14.6463458, -24.5978312, 3.83850769
5293, 14.5402124, -24.7296007, 3.5990816
5294, 13.7480606, -24.4750149, 3.08265091
5295, 14.1083694, -24.90884, 2.79212067
5296, 14.3878769, -24.9769442, 2.81168587
5297, 14.1394521, -24.9769442, 2.50897939
5298, 13.8413353, -24.8212223, 2.70864466
5299, 14.1338884, -24.8212223, 3.06512164
5300, 13.5225205, -24.2449717, 2.94899188
5301, 13.8334276, -24.2449717, 3.32783325
5302, 13.6614923, -24.5978312, 2.85365422
5303, 13.9540454, -24.5978312, 3.21013119
5304, 13.9009184, -24.7296007, 2.95978755
5305, 13.1732235, -24.4643356, 2.21831567
5306, 13.5215438, -24.8507781, 2.10600456
5307, 13.8406833, -24.9619714, 2.1676953
5308, 13.656087, -24.9619714, 1.82233996
5309, 13.2947418, -24.7491986, 1.97193226
5310, 13.5511708, -24.7845899, 2.36187947
5311, 13.0164604, -24.2391032, 2.10605812
5312, 13.2330989, -24.2391032, 2.51136007
5313, 13.0623489, -24.3993942, 2.07690047
5314, 13.1256171, -24.547657, 2.02539634
5315, 13.3244732, -24.6817662, 2.17440601
5316, 13.3724767, -24.5929718, 2.4204585
5317, 13.5949982, -24.9792367, 1.5219203
5318, 13.5949982, -24.9792367, -1.52192031
5319, 13.1635294, -24.4483531, -2.21756834
5320, 13.5183583, -24.8488847, -2.10652143
5321, 13.654317, -24.9614792, -1.82269314
5322, 13.8389133, -24.9614792, -2.16804848
5323, 13.5496823, -24.783475, -2.36208219
5324, 13.2933094, -24.7480077, -1.97210498
5325, 13.2300071, -24.230373, -2.51004815
5326, 13.0133687, -24.230373, -2.1047462
5327, 13.3665762, -24.5857162, -2.42064788
5328, 13.0579857, -24.3911445, -2.07626819
5329, 13.1200766, -24.5401205, -2.02539327
5330, 13.3165518, -24.6738424, -2.17508268
5331, 13.7468442, -24.4750149, -3.08116876
5332, 14.0998548, -24.90884, -2.78174561
5333, 14.1351948, -24.9769442, -2.50379185
5334, 14.3836196, -24.9769442, -2.80649834
5335, 14.1296311, -24.8212223, -3.05993411
5336, 13.837078, -24.8212223, -2.70345713
5337, 13.8328194, -24.2449717, -3.32709217
5338, 13.5219123, -24.2449717, -2.9482508
5339, 13.9534372, -24.5978312, -3.20939012
5340, 13.6608841, -24.5978312, -2.85291314
5341, 13.8960529, -24.7296007, -2.95385894
5342, 14.4173491, -24.4750149, -3.7519394
5343, 14.7078793, -24.90884, -3.39163056
5344, 14.6883141, -24.9769442, -3.11212313
5345, 14.9910206, -24.9769442, -3.36054792
5346, 14.7913553, -24.8212223, -3.65866469
5347, 14.4348784, -24.8212223, -3.36611159
5348, 14.5510081, -24.2449717, -3.9774795
5349, 14.1721668, -24.2449717, -3.66657243
5350, 14.6463458, -24.5978312, -3.83850769
5351, 14.2898688, -24.5978312, -3.5459546
5352, 14.5402124, -24.7296007, -3.5990816
5353, 23.5185352, -23.1944704, -2.41992902
5354, 21.098842, -21.3193946, 0.301396848
5355, 25.8771056, -23.0787326, 0.45361777
5356, 25.3978301, -21.2940084, -1.50154612
5357, 25.3796746, -23.4128136, -1.52421244
5358, 23.2426825, -21.056289, -2.40628089
5359, 21.6099991, -22.2253194, -1.51138898
5360, 21.0860183, -23.3478706, 0.170565176
5361, 25.8859972, -21.110168, 0.404249134
5362, 21.6089162, -23.8132444, -1.51003373
5363, 25.014681, -23.31674, 1.88736366
5364, 21.9793714, -21.1492237, 1.88257503
5365, 25.1852262, -21.4813848, 1.73678229
5366, 21.7376138, -22.9740079, 1.65843146
5367, 21.5859037, -20.6421507, -1.48075494
5368, 24.2815157, -24.1671523, 2.29033475
5369, 25.2197761, -24.1545097, 1.70257752
5370, 21.6671146, -23.9753327, 1.58016802
5371, 22.5973207, -24.0052332, 2.24534411
5372, 24.2614832, -22.7876954, 2.29707277
5373, 22.5757086, -22.6180891, 2.23653426
5374, 22.7353467, -21.7122935, 2.29601944
5375, 22.7250353, -20.3248868, 2.29255965
5376, 24.3892397, -20.4884789, 2.25070049
5377, 24.3644648, -21.8727257, 2.26033196
5378, 25.2932788, -20.491865, 1.62497731
5379, 21.788371, -20.3225511, 1.7107677
5380, 25.6902889, -24.0191975, 1.02909412
5381, 25.919301, -24.035398, -0.0581617943
5382, 25.6075713, -23.2122572, 1.18934571
5383, 25.6819194, -24.2200905, -1.04672234
5384, 24.9790959, -24.2241958, -1.91537866
5385, 25.8651968, -23.2769941, -0.512097815
5386, 24.0623122, -24.0862458, -2.35376401
5387, 22.9687831, -24.0771316, -2.3609762
5388, 24.468943, -23.3098384, -2.21755486
5389, 22.0072841, -24.3970314, -1.90478325
5390, 21.3131123, -24.3993748, -1.03630207
5391, 22.4678763, -23.496322, -2.18886289
5392, 21.0876728, -24.1759192, -0.192554576
5393, 21.2514778, -24.1689046, 0.894733376
5394, 21.1829293, -23.5820443, -0.698271763
5395, 21.2853487, -23.1701295, 0.975561191
5396, 25.1064569, -22.4061515, 1.80988844
5397, 21.8610634, -22.0646793, 1.78052994
5398, 25.9186515, -20.2711567, -0.0807778858
5399, 25.7082615, -20.3132725, 0.989940001
5400, 25.6492726, -21.280693, 1.11221736
5401, 24.9979885, -20.3788314, -1.90063946
5402, 25.6915265, -20.4320548, -1.02645579
5403, 25.8513689, -21.1529748, -0.572244889
5404, 22.8172501, -20.2924827, -2.32169175
5405, 23.9032845, -20.3109162, -2.38616043
5406, 24.386054, -21.1868745, -2.25195655
5407, 21.3190146, -20.1055658, -1.04866712
5408, 21.9911372, -20.1022622, -1.89201823
5409, 22.3270793, -20.874867, -2.11675628
5410, 21.2689095, -20.4168855, 0.937355432
5411, 21.0827506, -20.402013, -0.115349666
5412, 21.1676024, -20.9806851, -0.645229734
5413, 21.3963839, -21.2349062, 1.19632744
5414, 24.5132609, -22.2652977, -2.19765838
5415, 25.3814037, -22.3571134, -1.52207755
5416, 23.3696332, -22.1333653, -2.41648598
5417, 22.3503894, -21.6418134, -2.12950589
5418, 22.4708227, -22.71518, -2.19024977
5419, 21.6125328, -23.0185118, -1.51455188
5420, 21.1680008, -21.7737775, -0.646668306
5421, 21.0922783, -22.3344554, 0.24346752
5422, 21.1838054, -22.7886184, -0.701172384
5423, 21.6040058, -21.4395222, -1.50386371
5424, 21.3123522, -22.1482015, 1.0346967
5425, 25.8672613, -22.2257688, -0.502467919
5426, 25.8834658, -22.0904688, 0.418916289
5427, 25.6350653, -22.2966557, 1.13925247
5428, 18.4379395, -18.5919468, -6.74851152
5429, 18.022788, -18.0147234, -4.9198645
5430, 16.5618553, -18.630005, -6.74825431
5431, 17.5052495, -17.4197062, -7.19998852
5432, 16.3300865, -17.4439461, -5.73297488
5433, 18.6241663, -17.4740128, -5.58017856
5434, 17.5061137, -18.6089311, -7.19998443
5435, 16.3300865, -18.6060539, -5.73297488
5436, 18.6453529, -18.5602451, -5.64199611
5437, 16.5617491, -17.419995, -6.74812121
5438, 18.3609429, -17.4075639, -6.83592898
5439, 18.2492385, -18.9042837, -5.06264114
5440, 18.2512914, -17.141724, -5.06428573
5441, 18.6534078, -18.0034018, -6.33113525
5442, 16.9793395, -18.0372821, -7.08116264
5443, 16.3519849, -18.0178626, -6.34937267
5444, 16.6676301, -18.025, -5.1356156
5445, 18.0295045, -18.0524764, -7.07685884
5446, 17.7623362, -17.3004364, -4.82902617
5447, 17.7639714, -18.7617987, -4.8293937
5448, 17.051258, -18.7625, -4.88706216
5449, 17.051258, -17.2875, -4.88706216
5450, 17.871558, -19.2091747, -4.85897212
5451, 18.3608692, -19.1974638, -5.16399508
5452, 16.6082652, -18.7488683, -5.19699995
5453, 18.1356483, -18.4487709, -4.98218312
5454, 18.3669237, -16.8427615, -5.17027521
5455, 17.9030259, -16.8586821, -4.86970352
5456, 16.6128118, -17.2875, -5.1919795
5457, 18.1404114, -17.5830552, -4.98517327
5458, 18.5678511, -19.027163, -5.45255674
5459, 18.6991481, -19.0252841, -5.95479024
5460, 18.4861418, -18.7511165, -5.31624253
5461, 18.5794346, -19.0504013, -6.52423369
5462, 18.2537907, -19.0463547, -6.9337021
5463, 18.6805428, -18.5991908, -6.21521765
5464, 17.7559758, -19.0724187, -7.17238065
5465, 17.2469354, -19.0680609, -7.1730125
5466, 17.9802805, -18.6458886, -7.09969572
5467, 16.752704, -19.0601485, -6.93890821
5468, 16.4188558, -19.0650025, -6.52069883
5469, 17.0169512, -18.6354808, -7.09848253
5470, 16.3, -19.0530269, -6
5471, 16.4188374, -19.0530269, -5.47933951
5472, 16.330096, -18.6180294, -6.26706662
5473, 16.455254, -18.3155269, -5.4096562
5474, 18.6984756, -16.9458959, -5.9395339
5475, 18.5564992, -17.0169133, -5.43095747
5476, 18.4892717, -17.2854761, -5.32077877
5477, 18.2588913, -16.9786971, -6.92956116
5478, 18.56417, -16.9351201, -6.55456488
5479, 18.6817457, -17.4061394, -6.20851154
5480, 17.2122828, -17.0206607, -7.16499735
5481, 17.8123888, -17.0200004, -7.15862558
5482, 17.940431, -17.3521492, -7.11625291
5483, 16.4188189, -16.9849975, -6.52062214
5484, 16.751779, -16.9849975, -6.93817124
5485, 17.0707813, -17.3766117, -7.12061202
5486, 16.4188374, -16.9969731, -5.47933951
5487, 16.3, -16.9969731, -6
5488, 16.330077, -17.4319706, -6.26698363
5489, 16.455254, -17.7344731, -5.4096562
5490, 18.2568025, -18.3176302, -6.93126255
5491, 17.7781493, -18.3597414, -7.16731872
5492, 18.699715, -18.3135471, -5.97384616
5493, 18.5702309, -18.2836147, -6.54277608
5494, 18.4580902, -18.0137254, -6.72253934
5495, 18.4390526, -17.7400393, -5.25288542
5496, 18.644576, -18.0251521, -5.63952021
5497, 18.4432797, -18.3230218, -5.25822955
5498, 17.2071642, -18.3500368, -7.16372127
5499, 16.7294955, -18.3194263, -6.91995809
5500, 16.4380243, -18.3239338, -6.55875544
5501, 16.3007566, -18.3119582, -6.04260474
5502, 16.5503419, -18.0269578, -6.73358671
5503, 16.751779, -17.7286386, -6.93817124
5504, 17.244775, -17.7381483, -7.17254433
5505, 17.7584986, -17.7258581, -7.17182698
5506, 18.2635179, -17.7472558, -6.92576476
5507, 17.5020817, -18.0774763, -7.19999819
5508, 16.3300865, -18.025, -5.73297488
5509, 16.3000984, -17.7354458, -6.01536373
5510, 16.4379847, -17.7189288, -6.55868011
5511, 18.6981006, -17.8247594, -5.93250916
5512, 18.5588415, -17.6927897, -6.56467215
5513, 10.504476, -19.5, 1.44589274
5514, 11.4744171, -19.5, 1.81992765
5515, 12.0252975, -19.5, 1.6436777
5516, 12.903763, -19.5, 1.13172754
5517, 10.070914, -19.5, 1.14064863
5518, 13.1120586, -19.5, 0.616931222
5519, 13.2715554, -19.5, -0.394300148
5520, 12.2977345, -19.5, -1.62090385
5521, 12.9913695, -19.5, -0.875449152
5522, 11.7423001, -19.5, -1.70814064
5523, 10.72834, -19.5, -1.62983621
5524, 10.3110223, -19.5, -1.26017592
5525, 9.73446139, -19.5, -0.403407411
5526, 9.76767915, -19.5, 0.137326269
5527, 16.5125255, -19.5, 7.44818579
5528, 17.483379, -19.5, 7.8053263
5529, 18.0291043, -19.5, 7.63065272
5530, 18.9164866, -19.5, 7.1215625
5531, 16.064972, -19.5, 7.12480841
5532, 19.2987989, -19.5, 5.5829603
5533, 19.121486, -19.5, 6.62362307
5534, 18.2909267, -19.5, 4.38084539
5535, 18.9934459, -19.5, 5.12144218
5536, 16.7287141, -19.5, 4.36879381
5537, 17.7462727, -19.5, 4.28810821
5538, 15.7353805, -19.5, 5.59723711
5539, 16.3093088, -19.5, 4.73345238
5540, 15.8512383, -19.5, 6.10484355
5541, 36.0921363, -18.6765945, 7.24987416
5542, 35.8281597, -18.9678478, 7.25117239
5543, 36.417765, -18.2600635, 7.25005775
5544, 36.8259261, -17.6539781, 7.25003167
5545, 37.0276814, -17.3173697, 7.25013478
5546, 35.0735419, -20.4935517, 5.22752283
5547, 34.1488805, -20.9084763, 6.24279697
5548, 35.8395109, -20.3533917, 5.00644959
5549, 35.4050854, -19.7842211, 5.09052976
5550, 35.6904433, -20.9404351, 5.02410155
5551, 34.828726, -20.997227, 5.3788531
5552, 35.098385, -20.0854943, 5.21475763
5553, 34.0357086, -21.2024705, 6.62375632
5554, 34.0354895, -20.6752818, 6.62490182
5555, 34.3382567, -21.2059535, 5.88707173
5556, 34.2825969, -20.5659624, 5.97504793
5557, 34.7056703, -20.318246, 5.47529979
5558, 34.5224294, -20.8222441, 5.65211831
5559, 34, -20.9591085, 8.25
5560, 34, -20.6886628, 7.625
5561, 34, -21.2296964, 7.62437088
5562, 34, -21.2291775, 8.87504887
5563, 34, -20.6886628, 8.875
5564, 37.9807103, -13.8926513, 5.51351628
5565, 37.9807389, -13.8920686, 6.81872064
5566, 37.9807389, -13.8920686, 8.19372064
5567, 37.9035025, -14.6749752, 5.70953369
5568, 37.90388, -14.6724298, 8.19372064
5569, 37.751122, -15.4406234, 7.12829315
5570, 37.5230629, -16.1924776, 7.21272181
5571, 37.2230246, -16.9166983, 7.25051033
5572, 22.524813, -19.5, 1.4397975
5573, 23.5033673, -19.5, 1.82224107
5574, 24.047444, -19.5, 1.64276918
5575, 24.9273246, -19.5, 1.12382555
5576, 22.0925781, -19.5, 1.12047699
5577, 25.109894, -19.5, 0.617749863
5578, 25.2711677, -19.5, -0.413712204
5579, 24.3022831, -19.5, -1.61422336
5580, 25.0332298, -19.5, -0.850135784
5581, 22.7234929, -19.5, -1.62020366
5582, 23.7509226, -19.5, -1.70918448
5583, 21.7391126, -19.5, -0.41219521
5584, 22.3180705, -19.5, -1.26107074
5585, 21.7608074, -19.5, 0.13635519
5586, 12.0752438, -16.55, 1.9682901
5587, 22.7747107, -16.55, 2.03492114
5588, 13.9365754, -16.55, -2.97356593
5589, 21.0627472, -16.55, -2.96797908
5590, 19.2145114, -16.55, 4.95671993
5591, 15.776944, -16.55, 4.95162827
5592, 11.3999139, -16.55, -2.05576289
5593, 23.6088646, -16.55, -2.06277029
5594, 13.3450009, -16.55, 0.58909583
5595, 21.5950099, -16.55, 0.452494409
5596, 12.9833856, -16.55, -1.31775129
5597, 22.0391236, -16.55, -1.35435245
5598, 19.8150558, -16.55, -4.5677216
5599, 15.1788808, -16.55, -4.56404524
5600, 15.1176714, -16.55, 5.79050399
5601, 14.2678736, -16.55, 4.34955849
5602, 19.8666022, -16.55, 5.80433608
5603, 20.6538347, -16.55, 4.25820544
5604, 18.0861126, -16.55, -4.12707128
5605, 16.5374353, -16.55, -4.25603533
5606, 23.7001658, -16.55, 2.04262945
5607, 22.6507368, -16.55, 3.48109497
5608, 18.6804407, -16.55, 3.87763183
5609, 16.5955865, -16.55, 4.00854635
5610, 13.3577514, -16.55, 2.54391683
5611, 12.346989, -16.55, 3.66317728
5612, 21.3154413, -16.55, -4.75624473
5613, 20.4210217, -16.55, -6.0917126
5614, 13.689397, -16.55, -4.75583002
5615, 14.5942655, -16.55, -6.0463708
5616, 21.6053474, -16.55, 2.1337548
5617, 12.3406435, -16.55, -3.42877408
5618, 22.676647, -16.55, -3.44994255
5619, 19.3776389, -16.55, -5.56966654
5620, 15.6193752, -16.55, -5.55474967
5621, 17.4979299, -16.55, 7.63175109
5622, 18.0567768, -16.55, 7.42242868
5623, 16.9630449, -16.55, 7.42474922
5624, 20.3580336, -16.55, 6.87469852
5625, 14.6271924, -16.55, 6.91346127
5626, 17.7866796, -16.55, -4.45394529
5627, 18.3244907, -16.55, -4.64337258
5628, 16.5053989, -16.55, -4.73964003
5629, 17.0216748, -16.55, -4.51180181
5630, 17.3009819, -16.55, -4.21107188
5631, 10.5757941, -16.55, 1.82970493
5632, 10.1105766, -16.55, 1.51911327
5633, 10.9485674, -16.55, 2.22475402
5634, 11.7809699, -16.55, 1.59319439
5635, 12.2973497, -16.55, 1.38109161
5636, 18.0791663, -16.55, 3.45009329
5637, 19.3876567, -16.55, 3.01415681
5638, 15.738323, -16.55, 3.10955165
5639, 17.0574751, -16.55, 3.51803315
5640, 17.6510317, -16.55, 3.90790874
5641, 23.6172666, -16.55, 1.6249248
5642, 24.1375165, -16.55, 1.44191715
5643, 22.6418655, -16.55, 1.43011397
5644, 23.1469376, -16.55, 1.64957202
5645, 23.2414316, -16.55, 2.05306724
5646, 23.9429037, -16.55, 3.03290712
5647, 22.5593725, -16.55, 5.03483067
5648, 21.0326943, -16.55, 6.25015535
5649, 19.2150332, -16.55, 6.34805304
5650, 21.4555362, -16.55, 5.42255015
5651, 20.2776535, -16.55, 5.02814718
5652, 21.6541217, -16.55, 3.86370168
5653, 24.9777572, -16.55, -1.25296244
5654, 25.0671464, -16.55, 1.00313866
5655, 24.8698738, -16.55, 1.52414748
5656, 24.4446055, -16.55, 2.23618574
5657, 23.203735, -16.55, 2.78451748
5658, 22.5567638, -16.55, -5.02532984
5659, 23.9638456, -16.55, -3.01524816
5660, 24.6433664, -16.55, -1.74883298
5661, 24.3858308, -16.55, -2.25938404
5662, 23.8570045, -16.55, -1.6122842
5663, 23.1616726, -16.55, -2.78901747
5664, 17.7914493, -16.55, -7.55436215
5665, 20.1684235, -16.55, -7.03974951
5666, 19.2843837, -16.55, -6.69619648
5667, 21.2613204, -16.55, -6.33483979
5668, 20.8560083, -16.55, -5.4044943
5669, 21.7658435, -16.55, -5.65126094
5670, 22.0312928, -16.55, -4.11722375
5671, 14.8262432, -16.55, -7.0333012
5672, 17.2163676, -16.55, -7.55608411
5673, 11.0429821, -16.55, -3.01342056
5674, 12.4468134, -16.55, -5.01874752
5675, 13.7462786, -16.55, -6.36414164
5676, 15.7435175, -16.55, -6.65480316
5677, 14.1501585, -16.55, -5.3880921
5678, 13.2276552, -16.55, -5.65665764
5679, 12.97365, -16.55, -4.11463125
5680, 10.0124021, -16.55, -1.26069142
5681, 9.92209371, -16.55, 1.01227132
5682, 10.3419428, -16.55, -1.75340726
5683, 11.1457378, -16.55, -1.60103291
5684, 10.6032106, -16.55, -2.27335602
5685, 11.8407645, -16.55, -2.78348442
5686, 12.4502507, -16.55, 5.1157926
5687, 11.0419189, -16.55, 3.14285275
5688, 12.1979604, -16.55, 2.82879844
5689, 15.7940211, -16.55, 6.31385846
5690, 13.9533261, -16.55, 6.25221649
5691, 14.6935176, -16.55, 5.0677717
5692, 13.5131956, -16.55, 5.47404987
5693, 13.3026351, -16.55, 4.00183449
5694, 18.9410326, -16.55, -5.37974915
5695, 19.0809935, -16.55, -5.9733705
5696, 18.9860438, -16.55, -4.32774538
5697, 19.1512899, -16.55, -4.90707968
5698, 19.6100094, -16.55, -5.0775972
5699, 19.5568712, -16.55, -6.25896479
5700, 19.9023046, -16.55, -5.84588606
5701, 15.453318, -16.55, -6.23370034
5702, 15.9360131, -16.55, -5.92498598
5703, 16.0644298, -16.55, -5.38261808
5704, 15.1052227, -16.55, -5.82458784
5705, 15.8430712, -16.55, -4.41469461
5706, 15.8311171, -16.55, -4.92654994
5707, 15.3964063, -16.55, -5.06710552
5708, 12.9006453, -16.55, 0.692365189
5709, 13.0493137, -16.55, 0.144423265
5710, 12.7512827, -16.55, 1.30690122
5711, 12.8448741, -16.55, -0.799199134
5712, 12.4927257, -16.55, -1.22312265
5713, 13.216002, -16.55, -0.394735857
5714, 11.7193257, -16.55, -1.60468466
5715, 12.2018924, -16.55, -1.76191741
5716, 20.8521704, -16.55, 1.26023233
5717, 21.0532533, -16.55, -0.153444433
5718, 20.7306797, -16.55, 2.0556819
5719, 21.6139697, -16.55, 1.33916675
5720, 19.6950323, -16.55, 4.07960555
5721, 20.2998777, -16.55, 3.0733082
5722, 21.1427649, -16.55, 3.1823274
5723, 20.8250321, -16.55, -1.85573642
5724, 19.965191, -16.55, -2.91394349
5725, 21.2206241, -16.55, -1.04376758
5726, 21.5863834, -16.55, -2.18088894
5727, 21.756924, -16.55, -0.490748366
5728, 18.5067719, -16.55, -3.47234733
5729, 17.0638718, -16.55, -3.5418225
5730, 20.4509747, -16.55, -3.789115
5731, 19.3500115, -16.55, -3.62837743
5732, 15.0283479, -16.55, -2.91402567
5733, 14.1751873, -16.55, -1.85661949
5734, 15.6603808, -16.55, -3.62908775
5735, 14.5512311, -16.55, -3.78660677
5736, 16.3091203, -16.55, -3.51479684
5737, 13.9115793, -16.55, -0.0769378624
5738, 14.1228601, -16.55, 1.32936672
5739, 13.4260128, -16.55, -2.16253248
5740, 13.7988425, -16.55, -1.01290921
5741, 13.3323976, -16.55, 1.61725665
5742, 14.2567522, -16.55, 2.23215048
5743, 15.3937404, -16.55, 4.21228198
5744, 14.6602632, -16.55, 3.129948
5745, 13.7943032, -16.55, 3.44255746
5746, 19.2914171, -16.55, 5.78976578
5747, 18.9898888, -16.55, 5.3508347
5748, 18.6552679, -16.55, 4.88843712
5749, 19.5578345, -16.55, 5.37009701
5750, 17.3325493, -16.55, 4.38168278
5751, 16.7743036, -16.55, 4.45837181
5752, 18.9656934, -16.55, 4.40419715
5753, 18.3579802, -16.55, 4.40205878
5754, 16.3595506, -16.55, 4.8979676
5755, 16.0109249, -16.55, 5.35331121
5756, 16.1815236, -16.55, 4.46560792
5757, 15.7130494, -16.55, 5.79345931
5758, 15.4446969, -16.55, 5.37437854
5759, 23.2825259, -16.55, -1.61693331
5760, 22.5159447, -16.55, -1.24501321
5761, 22.1443479, -16.55, -0.831738214
5762, 22.8149652, -16.55, -1.77675344
5763, 21.9443278, -16.55, 0.0786935032
5764, 22.0375174, -16.55, 0.649082804
5765, 22.1009051, -16.55, 1.46568232
5766, 22.1910247, -16.55, 2.09665263
5767, 12.7011853, -16.55, 2.27762433
5768, 12.8455085, -16.55, 3.10242114
5769, 22.7197253, -16.55, 2.76274097
5770, 22.1309122, -16.55, 2.80593481
5771, 13.1369152, -16.55, -3.20490568
5772, 12.6482246, -16.55, -2.4002225
5773, 14.4399872, -16.55, -4.67673036
5774, 13.8012176, -16.55, -3.87135065
5775, 22.3703414, -16.55, -2.4232757
5776, 21.8693959, -16.55, -3.20582212
5777, 21.1980825, -16.55, -3.87596207
5778, 20.5618332, -16.55, -4.67658495
5779, 19.9331037, -16.55, 4.62032251
5780, 15.0244942, -16.55, 4.67633632
5781, 20.1162267, -16.55, -5.32563938
5782, 14.8767152, -16.55, -5.30217675
5783, 12.4271428, -18.6472953, -0.761843937
5784, 12.0189678, -18.6013112, 1.08197614
5785, 10.5488629, -18.6027846, -0.731668138
5786, 11.6122415, -17.4432563, -1.19473924
5787, 12.6690291, -17.435344, 0.270870736
5788, 10.3205359, -17.4420054, 0.221052953
5789, 11.5570475, -18.6358018, -1.19864323
5790, 10.3204738, -18.5848932, 0.220721489
5791, 12.6659637, -18.6521144, 0.283775554
5792, 12.4403057, -17.4307996, -0.745536842
5793, 10.5237841, -17.4387736, -0.697855586
5794, 12.2345581, -17.4290722, 0.948906938
5795, 12.0893196, -18.0391083, -1.04532406
5796, 10.8934568, -18.0173804, -1.03542522
5797, 12.5504341, -18.01845, 0.580162296
5798, 12.6684018, -18.0184868, -0.273563741
5799, 10.3304512, -18.0051049, -0.268618064
5800, 10.6393849, -18.0226909, 0.836266533
5801, 11.7492901, -17.5895711, 1.17382045
5802, 11.7540312, -19.0560473, 1.17280354
5803, 11.0631157, -18.7824428, 1.11764581
5804, 11.0397532, -17.3106827, 1.10822961
5805, 12.2491534, -19.0383803, 0.937426898
5806, 10.5944571, -18.740815, 0.78739577
5807, 12.3547212, -16.9946347, 0.842289528
5808, 11.88061, -17.0049665, 1.13804044
5809, 10.569531, -17.2985327, 0.757777914
5810, 12.1267577, -18.0215318, 1.02331556
5811, 12.5775818, -19.0646369, 0.528031744
5812, 12.6999899, -19.0705564, 0.00492416349
5813, 12.424736, -18.6441468, 0.764763581
5814, 12.5791929, -19.0714551, -0.524731144
5815, 12.250305, -19.0602324, -0.9365054
5816, 12.6668623, -18.6622005, -0.280057949
5817, 11.7698041, -19.0769067, -1.16927575
5818, 11.2308532, -19.0469103, -1.16942722
5819, 12.0284675, -18.6682917, -1.07736814
5820, 10.7440622, -19.0599008, -0.931964614
5821, 10.4204215, -19.0602251, -0.523937236
5822, 10.953638, -18.6732758, -1.0684047
5823, 10.3000058, -19.0487602, 0.00371860118
5824, 10.4306301, -19.0395489, 0.544470406
5825, 10.3376031, -18.6038965, -0.298049597
5826, 10.4493966, -18.3057963, 0.579855578
5827, 12.6998593, -16.9846603, -0.0183762832
5828, 12.5797449, -17.0168958, 0.523594248
5829, 12.5228598, -17.4145619, 0.627501244
5830, 12.232323, -17.0193903, -0.950632966
5831, 12.591543, -17.0394864, -0.498531748
5832, 12.6472531, -17.3819739, -0.351867032
5833, 11.2084766, -17.0470199, -1.16405073
5834, 11.7831731, -16.9989935, -1.1661102
5835, 12.1112446, -17.3862255, -1.03265679
5836, 10.3849436, -17.0734984, -0.443451584
5837, 10.7447814, -16.9675178, -0.932547503
5838, 10.9864764, -17.3845456, -1.08457065
5839, 10.4018819, -16.9502432, 0.483876574
5840, 10.300008, -16.9834827, -0.0043856473
5841, 10.3465061, -17.4666941, -0.330835036
5842, 10.4459664, -17.7312857, 0.573596773
5843, 12.2609843, -18.350527, -0.927848525
5844, 11.7674341, -18.3168679, -1.16982007
5845, 12.6999676, -18.3304116, -0.00881871022
5846, 12.5784838, -18.3289733, -0.526186998
5847, 12.4403152, -18.0298864, -0.745524803
5848, 12.3115743, -18.3099245, 0.883938463
5849, 12.6173854, -18.3347263, 0.437549824
5850, 12.3974506, -17.7325211, 0.796606799
5851, 11.1745391, -18.3909253, -1.15502173
5852, 10.7386192, -18.3137264, -0.927523158
5853, 10.4111944, -18.359656, -0.504482229
5854, 10.3011126, -18.2307023, -0.0516630038
5855, 10.549708, -18.0311831, -0.732765421
5856, 11.7744675, -17.7290816, -1.16818987
5857, 12.2671112, -17.7422491, -0.922789449
5858, 10.7031742, -17.7149509, -0.897256164
5859, 11.1833666, -17.7009468, -1.1574728
5860, 11.4285584, -18.0620798, -1.19787148
5861, 12.5740125, -17.7217872, -0.535254228
5862, 12.6999071, -17.7342436, 0.0149330932
5863, 12.6176429, -17.7342999, 0.436891605
5864, 12.6867048, -18.0201093, 0.178134165
5865, 10.3149746, -18.0169261, 0.188983615
5866, 10.3010881, -17.768761, -0.0510909599
5867, 10.3925977, -17.6879676, -0.462233785
5868, 18.3918562, -18.6356134, 5.19713482
5869, 18.0283058, -18.0340119, 7.07744743
5870, 16.5618553, -18.630005, 5.25174569
5871, 17.5, -17.4439461, 4.8
5872, 16.3300865, -17.4439461, 6.26702512
5873, 18.6528786, -17.469393, 6.33297283
5874, 17.5042141, -18.636859, 4.8000074
5875, 16.3300865, -18.6060539, 6.26702512
5876, 18.6181302, -18.570019, 6.43564307
5877, 16.5617491, -17.419995, 5.25187879
5878, 18.4366186, -17.3967219, 5.24983629
5879, 18.2504049, -18.8861417, 6.9364254
5880, 18.2570933, -17.139425, 6.93102616
5881, 18.6528052, -18.0275484, 5.66677296
5882, 16.980685, -18.0348545, 4.91819045
5883, 16.3519849, -18.0178626, 5.65062733
5884, 16.6676301, -18.025, 6.8643844
5885, 18.0223581, -18.027581, 4.91965654
5886, 17.7484246, -17.2729292, 7.17400392
5887, 17.7597372, -18.7736184, 7.17155307
5888, 17.0807422, -18.798041, 7.12437666
5889, 17.1042398, -17.2757239, 7.13286091
5890, 17.8683459, -19.1971282, 7.14206885
5891, 18.3685683, -19.1776821, 6.8280031
5892, 16.5867632, -18.7067025, 6.77845904
5893, 18.1330089, -18.4710945, 7.01946051
5894, 18.357205, -16.8553915, 6.83976159
5895, 17.8600201, -16.8261992, 7.14472071
5896, 16.6128118, -17.2875, 6.8080205
5897, 18.1418394, -17.5781816, 7.01392415
5898, 18.5474058, -19.0173821, 6.58561176
5899, 18.6967701, -19.1096221, 6.08798419
5900, 18.4779694, -18.7447596, 6.69539623
5901, 18.586712, -19.0787793, 5.49102348
5902, 18.256236, -19.0608745, 5.06827731
5903, 18.6910257, -18.6338829, 5.85351562
5904, 17.7690389, -19.0687238, 4.83054797
5905, 17.2378896, -19.0600406, 4.8289756
5906, 17.9997208, -18.6737633, 4.90900085
5907, 16.7435131, -19.0617141, 5.06848107
5908, 16.4188558, -19.0650025, 5.47930117
5909, 16.9748633, -18.6710901, 4.92100444
5910, 16.3, -19.0530269, 6
5911, 16.4188374, -19.0530269, 6.52066049
5912, 16.330096, -18.6180294, 5.73293338
5913, 16.455254, -18.3155269, 6.5903438
5914, 18.6995395, -17.003945, 6.03324159
5915, 18.5638019, -17.0182945, 6.55527073
5916, 18.502202, -17.3077842, 6.65999332
5917, 18.2420724, -16.9772565, 5.05695782
5918, 18.5857097, -16.9638402, 5.48888894
5919, 18.6807028, -17.3891984, 5.78566179
5920, 17.2329749, -16.9969731, 4.83008651
5921, 17.7670251, -16.9969731, 4.83008651
5922, 18.0290133, -17.3844132, 4.92289978
5923, 16.4188189, -16.9849975, 5.47937786
5924, 16.751779, -16.9849975, 5.06182876
5925, 16.9793012, -17.4319706, 4.91885583
5926, 16.4188374, -16.9969731, 6.52066049
5927, 16.3, -16.9969731, 6
5928, 16.330077, -17.4319706, 5.73301637
5929, 16.455254, -17.7344731, 6.5903438
5930, 18.2425067, -18.3245008, 5.05729972
5931, 17.7575926, -18.3379826, 4.82797352
5932, 18.6951894, -18.2345979, 6.10734176
5933, 18.5790356, -18.3508581, 5.47494564
5934, 18.4449532, -18.0248173, 5.26036268
5935, 18.4334402, -17.7428495, 6.75411498
5936, 18.6453085, -18.0301938, 6.35814593
5937, 18.4135448, -18.3037763, 6.77809762
5938, 17.2449684, -18.3413294, 4.82741359
5939, 16.7463103, -18.336741, 5.06621635
5940, 16.4380243, -18.3239338, 5.44124456
5941, 16.3007566, -18.3119582, 5.95739526
5942, 16.5745065, -18.0307872, 5.23615332
5943, 16.7460336, -17.7372578, 5.06643979
5944, 17.2347502, -17.749635, 4.82968271
5945, 17.7682688, -17.7390875, 4.83037106
5946, 18.2505819, -17.7108639, 5.06371646
5947, 17.5025828, -18.0536441, 4.80000278
5948, 16.3300865, -18.025, 6.26702512
5949, 16.3007566, -17.7309044, 5.95739526
5950, 16.4379847, -17.7189288, 5.44131989
5951, 18.6989698, -17.7513985, 6.04971243
5952, 18.5788144, -17.6996037, 5.4744913
5953, 35.3681689, -19.4185034, 7.36456107
5954, 34.7714333, -19.9093325, 7.63001904
5955, 34.2222809, -20.284987, 8.25
5956, 24.4385489, -18.6093934, -0.747747297
5957, 24.0361793, -17.4451915, 1.07355098
5958, 24.5559491, -18.0740648, 0.570062646
5959, 22.5666157, -17.4212402, -0.754184119
5960, 22.3321582, -18.6180426, 0.275944708
5961, 24.4795653, -17.4388124, -0.693146345
5962, 24.671832, -18.7111793, 0.258475875
5963, 24.683021, -17.3906629, 0.201150036
5964, 22.3261331, -17.4306299, 0.249071325
5965, 23.467388, -18.5956954, -1.19955678
5966, 23.35784, -17.4259428, -1.19154964
5967, 22.5720478, -18.6226229, -0.760857828
5968, 24.3602486, -18.6432206, 0.836643532
5969, 22.9154546, -18.0227631, -1.0480013
5970, 22.3443894, -18.0135458, -0.323363622
5971, 22.6735011, -18.0222361, 0.86999978
5972, 24.0909408, -18.0304827, -1.04440841
5973, 24.676506, -17.972343, -0.236291447
5974, 23.7691733, -17.0004357, 1.16942111
5975, 23.76789, -18.4680945, 1.16971576
5976, 23.0786742, -18.7621123, 1.12360339
5977, 23.0880695, -17.2940737, 1.12708175
5978, 23.916989, -19.0822116, 1.12522005
5979, 24.4155913, -19.0628783, 0.775688501
5980, 22.6283291, -18.7579809, 0.824736175
5981, 24.2139953, -18.0383218, 0.964474295
5982, 24.2786577, -17.0104969, 0.913067464
5983, 22.6002069, -17.3037487, 0.793959881
5984, 24.5980387, -19.0986225, 0.484056793
5985, 24.6999723, -19.0902081, -0.00815307087
5986, 24.5561996, -18.69233, 0.569598445
5987, 24.5823757, -19.0332656, -0.51813394
5988, 24.2749213, -19.0634543, -0.916240651
5989, 24.669043, -18.67841, -0.270810934
5990, 23.7728478, -19.0345589, -1.16856926
5991, 23.2425482, -19.0482181, -1.17205741
5992, 24.0390484, -18.6617332, -1.07211324
5993, 22.7469951, -19.0505121, -0.934335955
5994, 22.427815, -19.0458614, -0.538905654
5995, 22.9635247, -18.6368221, -1.0734031
5996, 22.3000321, -19.0614433, -0.00878184291
5997, 22.4267716, -19.0544562, 0.536824656
5998, 22.3325604, -18.6335051, -0.277641601
5999, 22.4579816, -18.3181777, 0.595144986
6000, 24.6998812, -16.9629259, -0.0168848488
6001, 24.6097025, -16.9174561, 0.456684074
6002, 24.4408393, -17.4276247, 0.744863319
6003, 24.2687319, -16.9950137, -0.921439747
6004, 24.6162574, -17.0573522, -0.440419598
6005, 24.6500503, -17.4160735, -0.342613854
6006, 23.218159, -16.9909106, -1.16643288
6007, 23.7754235, -17.0006651, -1.16796486
6008, 24.0423099, -17.4149529, -1.07046717
6009, 22.4095292, -16.9785007, -0.500872615
6010, 22.7657273, -17.0007764, -0.949127812
6011, 22.8978667, -17.3719484, -1.03799592
6012, 22.4213089, -16.9884888, 0.525761851
6013, 22.3002769, -17.0299465, -0.0257784017
6014, 22.3165206, -17.3772407, -0.198435357
6015, 22.4550551, -17.7139838, 0.5899917
6016, 24.6999119, -18.3268168, -0.0145390744
6017, 24.6107028, -18.3215965, -0.454245774
6018, 24.2734394, -18.3356367, -0.917491929
6019, 23.8213824, -18.3703189, -1.1561632
6020, 24.4495323, -18.0472687, -0.733749548
6021, 24.3343249, -17.7481392, 0.862497499
6022, 24.6424513, -17.7452574, 0.367157935
6023, 24.4747306, -18.369374, 0.699928708
6024, 24.6471612, -18.357536, 0.352166532
6025, 24.6734674, -18.0592913, 0.250946955
6026, 24.6999964, -17.7039274, 0.00292512404
6027, 22.3002819, -17.7322214, -0.0260083583
6028, 22.4398052, -17.7079606, -0.562127222
6029, 22.7416723, -17.7333179, -0.930021046
6030, 23.2188786, -17.7118265, -1.16660651
6031, 22.5717632, -18.0205303, -0.760510629
6032, 22.3330731, -18.0165242, 0.279788474
6033, 22.3002896, -18.3039754, -0.0263633797
6034, 22.4345727, -18.3183848, -0.552145534
6035, 24.6118222, -17.6818817, -0.451499001
6036, 23.7995845, -17.7022402, -1.16200222
6037, 24.2904473, -17.732202, -0.90288047
6038, 23.2393759, -18.2903712, -1.17135608
6039, 22.7352042, -18.3250512, -0.924709319
6040, 23.5633589, -18.0502358, -1.19832619
6041, 16.2042072, -17.5517352, 2.70572004
6042, 15.1493, -17.5090089, -1.86392313
6043, 14.5743075, -17.5048773, 0.663568473
6044, 18.8017945, -17.5312124, 2.70283758
6045, 20.4255242, -17.5024414, 0.664310351
6046, 19.8505639, -17.5353827, -1.86409484
6047, 17.5006703, -17.525, -2.99999993
6048, 16.8394448, -17.9701104, 2.92637434
6049, 16.827231, -17.0566909, 2.92359057
6050, 18.1763467, -17.0581081, 2.92276499
6051, 18.1700929, -17.9668575, 2.9242051
6052, 19.3834297, -17.0485759, 2.3351001
6053, 15.6053027, -17.0479089, 2.32596694
6054, 19.3725136, -17.9671544, 2.34386282
6055, 15.6107441, -17.9855152, 2.33038885
6056, 20.4999852, -17.0415787, -0.00941445103
6057, 20.1971635, -17.0281603, 1.3135103
6058, 19.8454515, -17.5237611, 1.87052324
6059, 20.2048993, -17.938787, 1.29750523
6060, 19.3675127, -17.0598357, -2.3478493
6061, 20.2059146, -17.0559246, -1.29538647
6062, 20.4282502, -17.5262114, -0.652189202
6063, 20.4999695, -17.9753871, 0.0135236337
6064, 20.1986824, -17.9938837, -1.31038668
6065, 16.8121061, -17.0417489, -2.92006883
6066, 18.1794343, -17.0440192, -2.92204877
6067, 18.7906057, -17.51562, -2.70819808
6068, 19.3752607, -17.9798767, -2.34166552
6069, 18.1673969, -17.9598812, -2.9248216
6070, 14.7938575, -17.037166, -1.29491023
6071, 15.6435805, -17.0314052, -2.35663039
6072, 16.1958231, -17.5213587, -2.70168884
6073, 15.6409682, -17.9919981, -2.35457019
6074, 16.8218741, -17.9513402, -2.9223527
6075, 14.804016, -17.0252736, 1.31592948
6076, 14.5000068, -17.0447522, -0.00638920744
6077, 14.5746522, -17.5267521, -0.665086508
6078, 14.7992444, -18.0053384, -1.30610831
6079, 14.5000255, -17.9767304, 0.0123799701
6080, 15.1633866, -17.5215445, 1.88155192
6081, 14.7985955, -17.9382735, 1.30476575
6082, 17.4973117, -18.5, 0.00244293118
6083, 18.6894958, -18.5, 0.945936727
6084, 17.500126, -18.5, 1.51239625
6085, 16.3128714, -18.5, 0.946080597
6086, 18.9696314, -18.5, -0.336223828
6087, 18.1578814, -18.5, -1.36835359
6088, 16.8429649, -18.5, -1.36282341
6089, 16.0305862, -18.5, -0.337826907
6090, 13.7135236, -21.5, -4.45290459
6091, 11.7602989, -21.5, 6.2800882
6092, 13.0602307, -21.5, 3.73091702
6093, 11.1973563, -21.5, -5.75883648
6094, 12.7884087, -21.5, -7.12115533
6095, 10.6837816, -21.5, 4.67354651
6096, 13.7579638, -21.5, 4.45697369
6097, 12.7972409, -21.5, 4.67573088
6098, 13.0585057, -21.5, -3.76631753
6099, 12.7760858, -21.5, -4.70807133
6100, 13.4071932, -21.5, -5.45972657
6101, 12.0523142, -21.5, 4.00530236
6102, 13.4486942, -21.5, 5.28890411
6103, 12.0869054, -21.5, -4.07295623
6104, 14.2866593, -21.5, -5.33781423
6105, 9.92132077, -21.5, 2.8744105
6106, 13.7387855, -21.5, 7.54082425
6107, 12.3607688, -21.5, -5.63494069
6108, 11.8038516, -21.5, 5.0993665
6109, 12.368064, -21.5, -3.10958684
6110, 10.6125742, -21.5, -3.77732965
6111, 14.4655362, -21.5, 5.22321231
6112, 11.0284077, -21.5, 3.49015443
6113, 13.6678978, -21.5, -7.67499381
6114, 13.7524862, -21.5, -6.53044545
6115, 12.6770715, -21.5, 6.94043987
6116, 32.084752, -21.5, -7.99487715
6117, 12.3810164, -21.5, 2.9830384
6118, 14.6668045, -21.5, -8.21076491
6119, 11.9789669, -21.5, -6.49867321
6120, 14.7197675, -21.5, 8.11593877
6121, 11.0005286, -21.5, 5.69988344
6122, 11.5760523, -21.5, -4.81355563
6123, 21.746377, -21.5, -7.01328345
6124, 21.745097, -21.5, 6.96754571
6125, 15.6167779, -21.5, -8.5375934
6126, 9.13962758, -21.5, -1.90665767
6127, 9.51128278, -21.5, -2.81815029
6128, 9.92368273, -21.5, 3.88762624
6129, 12.6729494, -21.5, 5.79531838
6130, 13.6744569, -21.5, 6.17739932
6131, 10.5318723, -21.5, -4.96876465
6132, 23.9403308, -21.5, 7.53356182
6133, 29.6684124, -21.5, 7.00853697
6134, 31.9112379, -21.5, 7.0851956
6135, 29.907997, -21.5, -6.91523184
6136, 12.9448924, -21.5, -6.23331629
6137, 24.0331908, -21.5, -7.43392725
6138, 32.6077473, -21.5, 8.26815167
6139, 32.439002, -21.5, -6.55336175
6140, 33.0421358, -21.5, -7.50537529
6141, 33.0467836, -21.5, -8.74615258
6142, 30.9803317, -21.5, -8.74572753
6143, 17.3998456, -21.5, -8.96181867
6144, 16.783555, -21.5, -8.95085979
6145, 20.5761084, -21.5, -8.43403116
6146, 18.6405893, -21.5, -8.63913519
6147, 16.8895436, -21.5, 8.95733315
6148, 17.5278213, -21.5, 8.96912171
6149, 16.0276062, -21.5, 8.64705256
6150, 15.4496643, -21.5, 8.49133929
6151, 18.6817327, -21.5, 8.5889597
6152, 20.6127805, -21.5, 8.3860444
6153, 14.2895989, -21.5, 8.4419228
6154, 14.8799849, -21.5, 8.64305169
6155, 15.2916426, -21.5, 7.97201038
6156, 13.2454613, -21.5, 7.88292987
6157, 13.8004914, -21.5, 8.1611453
6158, 14.2205431, -21.5, 7.82834705
6159, 12.1967188, -21.5, 7.23872514
6160, 12.7100475, -21.5, 7.58366074
6161, 13.2106411, -21.5, 7.23710477
6162, 11.2722101, -21.5, 6.49973012
6163, 11.7359436, -21.5, 6.90848473
6164, 12.2183433, -21.5, 6.61008147
6165, 10.4818359, -21.5, 5.74155851
6166, 10.8915071, -21.5, 6.20869893
6167, 11.3801973, -21.5, 5.99003143
6168, 9.97827015, -21.5, 4.71177325
6169, 10.3205832, -21.5, 5.23060806
6170, 10.8421551, -21.5, 5.18671497
6171, 9.32225819, -21.5, 3.76160189
6172, 9.5982207, -21.5, 4.31881312
6173, 10.3037322, -21.5, 4.28058637
6174, 9.11355946, -21.5, 2.67470203
6175, 9.32052337, -21.5, 3.25591202
6176, 9.92308216, -21.5, 3.38096822
6177, 8.81238028, -21.5, 1.33622948
6178, 8.93249747, -21.5, 1.93865057
6179, 9.69409612, -21.5, 2.19023193
6180, 8.70766758, -21.5, 0.747234436
6181, 8.63806057, -21.5, -0.986858443
6182, 8.56821074, -21.5, -0.377124621
6183, 8.73724029, -21.5, -2.17140408
6184, 8.60401667, -21.5, -1.5696066
6185, 9.12054431, -21.5, -1.33112243
6186, 9.11680698, -21.5, -3.22444044
6187, 8.91251614, -21.5, -2.63743971
6188, 9.32976248, -21.5, -2.37394856
6189, 9.94266641, -21.5, -4.26366482
6190, 9.6678593, -21.5, -3.70641113
6191, 10.067285, -21.5, -3.29438426
6192, 10.2475078, -21.5, -5.37599911
6193, 9.90231548, -21.5, -4.85938232
6194, 10.572748, -21.5, -4.37409271
6195, 10.9871483, -21.5, -6.2372012
6196, 10.5806807, -21.5, -5.76944992
6197, 10.862964, -21.5, -5.36816714
6198, 11.8460485, -21.5, -7.01776556
6199, 11.3811415, -21.5, -6.60815192
6200, 11.5875456, -21.5, -6.12893358
6201, 12.7673596, -21.5, -7.67392343
6202, 12.2529778, -21.5, -7.3290415
6203, 12.3824009, -21.5, -6.80995575
6204, 13.7611925, -21.5, -8.22401054
6205, 13.208755, -21.5, -7.95146315
6206, 13.2288664, -21.5, -7.39804975
6207, 14.8455933, -21.5, -8.70469411
6208, 14.2662341, -21.5, -8.49138262
6209, 14.1699472, -21.5, -7.94123981
6210, 15.9557208, -21.5, -8.98246092
6211, 15.325156, -21.5, -8.84217309
6212, 15.1217287, -21.5, -8.38561499
6213, 16.4388552, -21.5, -8.57763316
6214, 33.262959, -21.5, -5.30505864
6215, 20.8546084, -21.5, -5.98635302
6216, 22.7735066, -21.5, -6.00050657
6217, 20.6373561, -21.5, -7.22470429
6218, 14.4980675, -21.5, -4.7261794
6219, 14.8587432, -21.5, -4.9330832
6220, 14.6564595, -21.5, -6.19899109
6221, 33.4444379, -21.5, -6.04130024
6222, 33.2071553, -21.5, -6.78928445
6223, 32.2660737, -21.5, -7.27475816
6224, 13.8469453, -21.5, -3.99320383
6225, 14.2062828, -21.5, -4.29063788
6226, 14.0023728, -21.5, -4.89500734
6227, 13.2065633, -21.5, -3.28378366
6228, 13.5159516, -21.5, -3.65312212
6229, 13.3908122, -21.5, -4.1056426
6230, 12.6726245, -21.5, -2.57510609
6231, 12.8642994, -21.5, -2.96724717
6232, 12.7095424, -21.5, -3.43857236
6233, 11.5272545, -21.5, -2.82705733
6234, 12.6752732, -21.5, 2.49664131
6235, 11.9266291, -21.5, 2.72752202
6236, 10.6963064, -21.5, 2.72150758
6237, 11.259593, -21.5, 2.9591384
6238, 10.468293, -21.5, 3.19996215
6239, 11.7002253, -21.5, 3.24690657
6240, 12.8685154, -21.5, 2.88973389
6241, 13.5117299, -21.5, 3.63248862
6242, 13.1979552, -21.5, 3.2555134
6243, 12.7218267, -21.5, 3.35847055
6244, 14.2323108, -21.5, 4.29830805
6245, 13.8587824, -21.5, 3.99234103
6246, 13.4115926, -21.5, 4.09425405
6247, 14.9628261, -21.5, 4.8823262
6248, 14.5767462, -21.5, 4.6707195
6249, 14.1190483, -21.5, 4.83767175
6250, 14.7320103, -21.5, 5.75448312
6251, 20.8519745, -21.5, 5.96138153
6252, 20.678521, -21.5, 7.16724308
6253, 22.7747019, -21.5, 5.97432002
6254, 33.2593142, -21.5, 5.30889066
6255, 33.3057581, -21.5, 8.88281962
6256, 33.3036603, -21.5, 7.63714985
6257, 32.9124775, -21.5, 6.02027864
6258, 32.9531634, -21.5, 7.05111661
6259, 31.9093314, -21.5, 6.04302456
6260, 32.262827, -21.5, 7.67531217
6261, 31.2401343, -21.5, 8.88422428
6262, 29.8903957, -21.5, -8.20985673
6263, 27.834636, -21.5, -8.20843511
6264, 30.9943731, -21.5, -7.45242479
6265, 24.8975111, -21.5, -8.47281343
6266, 22.8503784, -21.5, -8.47103193
6267, 28.8808615, -21.5, -5.95634941
6268, 26.8133771, -21.5, -7.25110761
6269, 25.9446923, -21.5, -6.21747422
6270, 21.7110453, -21.5, -8.26729765
6271, 22.8964839, -21.5, -7.22169797
6272, 30.9093062, -21.5, -5.95623458
6273, 32.1642686, -21.5, -5.76782295
6274, 31.1775684, -21.5, -6.72864476
6275, 23.9223757, -21.5, -6.22215789
6276, 15.3475636, -21.5, -7.81884707
6277, 14.0028832, -21.5, -5.94763641
6278, 14.4866954, -21.5, -6.7859431
6279, 13.7201689, -21.5, -7.10272064
6280, 14.4476351, -21.5, -7.3347668
6281, 14.9335766, -21.5, -7.5918677
6282, 9.89406986, -21.5, -2.1909698
6283, 10.670861, -21.5, -3.03399031
6284, 11.4726595, -21.5, -3.49200581
6285, 10.1326799, -21.5, -2.58421994
6286, 21.7009838, -21.5, 8.23464149
6287, 14.8220525, -21.5, 7.20991359
6288, 14.3801859, -21.5, 6.89727469
6289, 13.7066344, -21.5, 6.85390078
6290, 14.370222, -21.5, 6.22824718
6291, 14.0598252, -21.5, 5.70497186
6292, 25.8988704, -21.5, 6.26751879
6293, 23.8746806, -21.5, 6.27246387
6294, 22.853385, -21.5, 7.24758019
6295, 30.7882209, -21.5, 6.00320655
6296, 28.762911, -21.5, 5.99996802
6297, 24.8503479, -21.5, 8.52176953
6298, 26.811898, -21.5, 7.25082158
6299, 27.7139479, -21.5, 8.25468108
6300, 30.7906603, -21.5, 7.04283139
6301, 22.7990657, -21.5, 8.52142471
6302, 29.7708673, -21.5, 8.25601723
6303, 30.8984859, -21.5, 8.28819861
6304, 12.9178509, -21.5, -4.23670588
6305, 13.244627, -21.5, -4.58033652
6306, 13.0944944, -21.5, -5.08015922
6307, 13.55514, -21.5, -4.95330644
6308, 13.8481915, -21.5, -5.40364855
6309, 11.4010753, -21.5, 5.3989476
6310, 11.7810716, -21.5, 5.68932042
6311, 12.2388123, -21.5, 5.44694292
6312, 12.2165153, -21.5, 6.03764054
6313, 12.673046, -21.5, 6.36788623
6314, 13.2770989, -21.5, 4.56610333
6315, 12.9284468, -21.5, 4.20164739
6316, 12.4224017, -21.5, 4.34568036
6317, 12.5532917, -21.5, 3.8659776
6318, 12.21856, -21.5, 3.49663262
6319, 12.1669718, -21.5, -6.06730195
6320, 11.7801912, -21.5, -5.69968853
6321, 11.966086, -21.5, -5.22677831
6322, 11.3836752, -21.5, -5.28412552
6323, 11.0533625, -21.5, -4.89695768
6324, 13.2750529, -21.5, -6.82594381
6325, 13.3489087, -21.5, -6.37986278
6326, 12.8651439, -21.5, -6.67879672
6327, 12.4640024, -21.5, -6.36689246
6328, 11.9274596, -21.5, 4.55248969
6329, 11.2448694, -21.5, 4.88649525
6330, 11.3700093, -21.5, 4.3401772
6331, 10.8547093, -21.5, 4.08121494
6332, 11.5396371, -21.5, 3.75422581
6333, 10.4764642, -21.5, 3.69289098
6334, 13.5999876, -21.5, 4.87198799
6335, 13.1232623, -21.5, 4.98144397
6336, 13.9626143, -21.5, 5.2601917
6337, 12.3009748, -21.5, 4.8870846
6338, 13.0609235, -21.5, 5.54221653
6339, 12.7333959, -21.5, 5.23540635
6340, 12.5743532, -21.5, -3.92545626
6341, 12.4350616, -21.5, -4.38924448
6342, 12.2224011, -21.5, -3.5895711
6343, 12.5646124, -21.5, -5.17134377
6344, 12.886885, -21.5, -5.54951264
6345, 11.8353641, -21.5, -4.44665942
6346, 12.1773657, -21.5, -4.75952715
6347, 13.5654822, -21.5, -5.99387979
6348, 12.6523657, -21.5, -5.93252157
6349, 13.1714078, -21.5, -5.84834102
6350, 13.5589941, -21.5, 5.73403977
6351, 13.173218, -21.5, 5.98574575
6352, 11.3516269, -21.5, -3.95792188
6353, 11.0906734, -21.5, -4.31346844
6354, 13.1741796, -21.5, 6.55743801
6355, 38, -15.1821631, -1.40233955
6356, 38, -15.4807567, 1.66578369
6357, 38, -12.2841173, 1.82324207
6358, 38, -11.7418864, -2.26877286
6359, 38, -11.5997838, 5.18778079
6360, 38, -11.662183, -5.18836592
6361, 38, -17.3718565, 0.0706949389
6362, 38, -18.0130257, -1.95580209
6363, 38, -11.2202155, 7.58168825
6364, 38, -11.2272468, -7.58277631
6365, 38, -18.0572777, 2.0374229
6366, 38, -4.69344217, 8.88458243
6367, 38, -4.69342294, -8.88399231
6368, 38, -10.1402701, -8.54776502
6369, 38, -12.3556385, -8.54320995
6370, 38, -12.3636073, -7.167522
6371, 38, -17.3971377, -2.94039217
6372, 38, -19.004425, -2.94246207
6373, 38, -19.0088522, -0.976089263
6374, 38, -14.3548632, -2.70572356
6375, 38, -15.9652479, -2.69020267
6376, 38, -12.5773345, -5.97073583
6377, 38, -12.5877844, -4.59775283
6378, 38, -12.6252089, -3.13508015
6379, 38, -13.4552268, -1.83715789
6380, 38, -11.7187704, -3.74669601
6381, 38, -19.0302722, 1.0161118
6382, 38, -19.0258984, 2.9833337
6383, 38, -17.4132146, 2.97968747
6384, 38, -16.1119444, 2.81769077
6385, 38, -14.5057972, 2.84255196
6386, 38, -12.5606148, 4.60328452
6387, 38, -12.5471974, 5.97195819
6388, 38, -13.8799789, 1.75595064
6389, 38, -12.9010984, 2.9126644
6390, 38, -11.9731133, 3.53455525
6391, 38, -12.3598937, 7.16910645
6392, 38, -12.3522945, 8.54284856
6393, 38, -10.1371908, 8.54735268
6394, 38, -8.75015106, 7.16126353
6395, 38, -6.91545481, 8.88762778
6396, 38, -10.3911706, 3.37195313
6397, 38, -10.9276646, 0.901954245
6398, 38, -9.76754494, 6.16201135
6399, 38, -9.93735673, 4.98516386
6400, 38, -11.4086808, 6.38149498
6401, 38, -10.6673803, -1.11375906
6402, 38, -10.1013836, -3.58806948
6403, 38, -12.0015978, -0.213049483
6404, 38, -8.75195139, -7.16201717
6405, 38, -6.9153092, -8.88845577
6406, 38, -9.77095746, -6.16238618
6407, 38, -9.97100302, -4.98869612
6408, 38, -11.4428144, -6.38267821
6409, 38, -16.5955606, -1.67777601
6410, 38, -17.6936153, -0.941019685
6411, 38, -18.68547, 0.035487544
6412, 38, -17.7150055, 1.052337
6413, 38, -16.7676242, 1.85074068
6414, 38, -13.7335549, 0.219322637
6415, 38, -15.3393819, 0.131433603
6416, 38, -16.4295365, 0.871266244
6417, 38, -16.2794204, -0.667915318
6418, 31.151465, -18.5538135, 9.5
6419, 32.5553145, -17.5313134, 9.5
6420, 34.0288787, -15.6273958, 9.5
6421, 33.3554993, -16.6500901, 9.5
6422, 33.9837863, -19.8604295, 9.5
6423, 33.515185, -20.0587757, 9.5
6424, 37.1001823, -14.4395523, 9.5
6425, 33.5021807, -19.6006885, 9.5
6426, 33.0112634, -19.9146948, 9.5
6427, 36.2721329, -17.2274851, 9.5
6428, 34.9094062, -18.9166951, 9.5
6429, 33.0072108, -19.3315059, 9.5
6430, 36.8379662, -15.8835301, 9.5
6431, 33.5075813, -19.0506324, 9.5
6432, 33.001669, -18.754727, 9.5
6433, 33.5214421, -18.45264, 9.5
6434, 32.5054464, -19.0507198, 9.5
6435, 32.4788272, -18.4482756, 9.5
6436, 33.3225567, -20.4755588, 9.5
6437, 32.0264228, -18.7709343, 9.5
6438, 31.9575962, -19.4968457, 9.5
6439, 35.9588679, -13.5106018, 9.5
6440, 35.8103397, -14.559526, 9.5
6441, 36.4597878, -15.1180926, 9.5
6442, 30.0367809, -19.3277335, 9.5
6443, 34.1440989, -18.8263623, 9.5
6444, 34.0759049, -18.1443035, 9.5
6445, 33.5496216, -17.8491036, 9.5
6446, 34.0738464, -17.5215076, 9.5
6447, 34.6237567, -17.8244188, 9.5
6448, 34.6444135, -17.2107347, 9.5
6449, 35.1902222, -17.5092332, 9.5
6450, 35.1934178, -16.8316076, 9.5
6451, 34.5627039, -16.5722964, 9.5
6452, 35.1708235, -16.1724951, 9.5
6453, 35.8608785, -16.5702287, 9.5
6454, 35.733856, -15.8569305, 9.5
6455, 35.1088249, -15.4595553, 9.5
6456, 28.9001469, -19.413522, 9.5
6457, 32.9719263, -17.1006679, 9.5
6458, 27.9628524, -20.2673345, 9.5
6459, 35.1201695, -18.1819306, 9.5
6460, 34.1775364, -15.0283515, 9.5
6461, 34.3117466, -14.5983537, 9.5
6462, 33.6737473, -16.1519131, 9.5
6463, 33.9255024, -16.63501, 9.5
6464, 34.7490461, -14.9408494, 9.5
6465, 34.858764, -14.2871005, 9.5
6466, 33.03621, -18.1883078, 9.5
6467, 32.1583287, -17.965061, 9.5
6468, 19.0242939, -20.0021491, 9.5
6469, 35.8155843, -17.8841411, 9.5
6470, 34.602008, -15.8983078, 9.5
6471, 34.4598247, -19.4153879, 9.5
6472, 31.6770146, -18.3260488, 9.5
6473, 33.5899905, -17.2097328, 9.5
6474, 37.1614259, -15.2921953, 9.5
6475, 36.6326853, -16.6214728, 9.5
6476, 35.7716755, -15.2407055, 9.5
6477, 36.4055643, -1.79471619, 9.5
6478, 32.516944, -19.6279184, 9.5
6479, 32.1706989, -20.419697, 9.5
6480, 30.9185854, -19.8944572, 9.5
6481, 30.7513781, -18.9663715, 9.5
6482, 33.9305483, -19.3619617, 9.5
6483, 34.5878068, -18.4187237, 9.5
6484, 31.4137437, -19.0014118, 9.5
6485, 36.2823507, -16.1320393, 9.5
6486, 35.6664472, -17.2045391, 9.5
6487, 33.0485511, -17.644512, 9.5
6488, 34.1716585, -16.1790956, 9.5
6489, 35.25973, -14.8975473, 9.5
6490, 34.5341656, -15.3859889, 9.5
6491, 29.5925612, -20.1427328, 9.5
6492, 32.6127344, -17.9761199, 9.5
6493, 35.5717083, -18.5623052, 9.5
6494, 36, -6.75, 9.5
6495, 35.9931446, -10.876767, 9.5
6496, 36.2171273, -15.6462596, 9.5
6497, 32.0864254, -18.3705586, 9.5
6498, 34.1717107, -17.0629505, 9.5
6499, 28.4495306, -19.2069396, 9.5
6500, 28.728315, -19.1937776, 9.5
6501, 29.0045751, -19.1549478, 9.5
6502, 26.2358513, -19.6399228, 9.5
6503, 27.9790268, -19.6349185, 9.5
6504, 28.4314997, -19.8404283, 9.5
6505, 29.2758387, -19.0908184, 9.5
6506, 29.8441546, -19.0479238, 9.5
6507, 30.1083857, -18.9588462, 9.5
6508, 29.4684639, -19.3706277, 9.5
6509, 30.4656843, -18.7781652, 9.5
6510, 30.7204264, -18.6649168, 9.5
6511, 30.3940795, -19.1470525, 9.5
6512, 30.9204698, -18.4586378, 9.5
6513, 31.1635995, -18.3222315, 9.5
6514, 30.9514216, -18.7600925, 9.5
6515, 31.4263743, -18.2083492, 9.5
6516, 31.6557921, -18.049963, 9.5
6517, 31.4142398, -18.4399311, 9.5
6518, 31.8964492, -17.8694691, 9.5
6519, 32.110174, -17.6904707, 9.5
6520, 31.9176717, -18.1455549, 9.5
6521, 32.3086669, -17.4735969, 9.5
6522, 32.504853, -17.2755321, 9.5
6523, 32.3568216, -17.7481872, 9.5
6524, 32.713159, -17.0602093, 9.5
6525, 32.8901124, -16.8447883, 9.5
6526, 32.7636204, -17.3159906, 9.5
6527, 33.0818989, -16.6194994, 9.5
6528, 33.2380915, -16.3885826, 9.5
6529, 33.1637128, -16.875379, 9.5
6530, 33.3972102, -16.1395133, 9.5
6531, 33.5312985, -15.8950755, 9.5
6532, 33.5146233, -16.4010016, 9.5
6533, 33.7088642, -15.6328168, 9.5
6534, 33.8195849, -15.377003, 9.5
6535, 33.851313, -15.8896545, 9.5
6536, 33.8940086, -15.0774849, 9.5
6537, 33.9805997, -14.8124931, 9.5
6538, 34.1031552, -15.3279156, 9.5
6539, 34.0477048, -14.5974941, 9.5
6540, 34.1093238, -14.3256085, 9.5
6541, 34.2446415, -14.8133526, 9.5
6542, 33.9534505, -13.7764316, 9.5
6543, 34.3828325, -14.1699819, 9.5
6544, 34.429382, -13.8935503, 9.5
6545, 34.5852553, -14.4427271, 9.5
6546, 34.995901, -12.1887158, 9.5
6547, 34.9965167, -9.93854503, 9.5
6548, 35.408816, -13.8988512, 9.5
6549, 34.9794339, -13.5053009, 9.5
6550, 35.9760063, -12.1936844, 9.5
6551, 35.1877757, -0.886089605, 9.5
6552, 37.1713416, -0.904769673, 9.5
6553, 35.2004117, -3.16111602, 9.5
6554, 37.1719168, -0.910223219, 9.5
6555, 37.1795812, -3.15189685, 9.5
6556, 18.2493402, -19.5504307, 9.5
6557, 18.2488254, -19.544782, 9.5
6558, 20.0227669, -19.5400889, 9.5
6559, 18.2707323, -20.7480284, 9.5
6560, 20.3261519, -20.7500063, 9.5
6561, 35.877896, -18.5687257, 9.5
6562, 35.6142813, -18.8595797, 9.5
6563, 35.2831302, -19.0367747, 9.5
6564, 34.9922763, -19.3003893, 9.5
6565, 35.2405573, -18.7395001, 9.5
6566, 36.2336706, -17.9143515, 9.5
6567, 35.999834, -18.2296437, 9.5
6568, 35.6936463, -18.2232231, 9.5
6569, 36.6637515, -17.2493295, 9.5
6570, 36.4619449, -17.5860235, 9.5
6571, 36.0438586, -17.5558131, 9.5
6572, 37.0118608, -16.5914701, 9.5
6573, 36.8440277, -16.9463233, 9.5
6574, 36.4524091, -16.9244789, 9.5
6575, 33.6612784, -20.4468879, 9.5
6576, 33.6612784, -20.9877794, 9.5
6577, 33.0853494, -20.9598485, 9.5
6578, 31.0232807, -20.9596767, 9.5
6579, 32.7466278, -20.4476279, 9.5
6580, 34.2141741, -20.0060932, 9.5
6581, 33.9918931, -20.1393232, 9.5
6582, 33.7494856, -19.9596026, 9.5
6583, 33.7575925, -20.2384964, 9.5
6584, 33.4188709, -20.2671672, 9.5
6585, 37.5500911, -13.9697761, 9.5
6586, 37.53083, -14.3618447, 9.5
6587, 37.4732323, -14.7501374, 9.5
6588, 36.9965723, -9.93838348, 9.5
6589, 36.9965723, -12.1883835, 9.5
6590, 36.9794339, -13.5053009, 9.5
6591, 36.5295251, -13.975077, 9.5
6592, 37.5038541, -15.1764589, 9.5
6593, 37.4084515, -15.557309, 9.5
6594, 37.1308041, -14.8658738, 9.5
6595, 37.2467987, -15.8530169, 9.5
6596, 37.1145012, -16.2224988, 9.5
6597, 36.9996961, -15.5878627, 9.5
6598, 36.7353258, -16.2525014, 9.5
6599, 34.7674855, -19.5497357, 9.5
6600, 34.4521933, -19.7835724, 9.5
6601, 34.6846154, -19.1660415, 9.5
6602, 34.2218055, -19.6379087, 9.5
6603, 34.9996739, -7.87470624, 9.5
6604, 34.9998375, -5.6269349, 9.5
6605, 35.999689, -4.49777403, 9.5
6606, 36.997376, -5.62758595, 9.5
6607, 35.9965723, -8.81338348, 9.5
6608, 23.0611726, -20.2550056, 9.5
6609, 25.1261217, -20.2563934, 9.5
6610, 21.3138112, -20.2656287, 9.5
6611, 28.9189262, -20.8836673, 9.5
6612, 26.8573221, -20.8828404, 9.5
6613, 29.7337806, -20.8213664, 9.5
6614, 28.7777068, -20.2050337, 9.5
6615, 31.5446421, -20.1570771, 9.5
6616, 30.3975809, -20.6973216, 9.5
6617, 30.2555733, -20.018595, 9.5
6618, 37, -7.875, 9.5
6619, 31.2826043, -18.7776126, 9.5
6620, 31.5453792, -18.6637303, 9.5
6621, 31.0825609, -18.9838917, 9.5
6622, 32.8019328, -17.5879127, 9.5
6623, 33.0102387, -17.37259, 9.5
6624, 32.3855315, -17.9705905, 9.5
6625, 32.5840244, -17.7537166, 9.5
6626, 32.8306427, -17.810316, 9.5
6627, 34.2815221, -15.5066924, 9.5
6628, 34.355851, -15.2071702, 9.5
6629, 33.9227029, -16.1655044, 9.5
6630, 34.1002686, -15.9032457, 9.5
6631, 34.3868333, -16.0387017, 9.5
6632, 34.3154434, -15.7628518, 9.5
6633, 34.5680868, -15.6421483, 9.5
6634, 33.2809584, -17.1552004, 9.5
6635, 33.4727449, -16.9299115, 9.5
6636, 33.6405008, -16.6425501, 9.5
6637, 33.7996248, -16.3934616, 9.5
6638, 33.7577464, -16.9223714, 9.5
6639, 33.7429835, -19.730559, 9.5
6640, 33.5086829, -19.8297321, 9.5
6641, 33.9571673, -19.6111956, 9.5
6642, 33.7163645, -19.4813251, 9.5
6643, 34.1951865, -19.3886748, 9.5
6644, 33.2567221, -19.7576917, 9.5
6645, 33.2632242, -19.9867352, 9.5
6646, 33.1669101, -20.1951268, 9.5
6647, 35.8846038, -14.0350639, 9.5
6648, 36.455261, -14.4995391, 9.5
6649, 36.1350638, -14.8388093, 9.5
6650, 36.7799851, -14.7788224, 9.5
6651, 36.8106069, -15.205144, 9.5
6652, 33.2546958, -19.4660972, 9.5
6653, 33.0092371, -19.6231003, 9.5
6654, 33.504881, -19.3256605, 9.5
6655, 33.2573961, -19.1910692, 9.5
6656, 33.7190648, -19.206297, 9.5
6657, 32.7620774, -19.4797121, 9.5
6658, 32.7641037, -19.7713066, 9.5
6659, 32.5909811, -20.1671959, 9.5
6660, 32.3438214, -20.0238077, 9.5
6661, 36.2467819, -16.5958507, 9.5
6662, 36.0665057, -16.8988569, 9.5
6663, 35.7636628, -16.8873839, 9.5
6664, 35.96929, -17.2160121, 9.5
6665, 35.7410157, -17.5443401, 9.5
6666, 34.3019618, -19.1208751, 9.5
6667, 34.5267525, -18.8715287, 9.5
6668, 34.7486065, -18.6677094, 9.5
6669, 34.3659528, -18.622543, 9.5
6670, 34.8539882, -18.3003272, 9.5
6671, 35.0147879, -18.5493128, 9.5
6672, 35.3459389, -18.3721179, 9.5
6673, 33.2546252, -18.9026797, 9.5
6674, 33.0044399, -19.0431164, 9.5
6675, 32.7535577, -18.9027234, 9.5
6676, 32.7563286, -19.1911128, 9.5
6677, 32.5111952, -19.3393191, 9.5
6678, 36.648877, -15.5008113, 9.5
6679, 36.3384576, -15.3821761, 9.5
6680, 36.5275467, -15.7648948, 9.5
6681, 36.5601585, -16.0077847, 9.5
6682, 36.457518, -16.376756, 9.5
6683, 36.249739, -15.8891495, 9.5
6684, 33.5145117, -18.7516362, 9.5
6685, 33.2615556, -18.6036835, 9.5
6686, 33.8258401, -18.9384973, 9.5
6687, 33.8327705, -18.6395011, 9.5
6688, 34.0373236, -19.094162, 9.5
6689, 33.2788261, -18.3204739, 9.5
6690, 33.0189395, -18.4715174, 9.5
6691, 32.7402481, -18.6015013, 9.5
6692, 32.4921368, -18.7494977, 9.5
6693, 32.7575186, -18.3182917, 9.5
6694, 34.1100019, -18.4853329, 9.5
6695, 33.7986735, -18.2984718, 9.5
6696, 33.8127632, -17.9967036, 9.5
6697, 33.5355318, -18.1508718, 9.5
6698, 33.2929158, -18.0187057, 9.5
6699, 32.252625, -18.6096049, 9.5
6700, 32.2659346, -18.910827, 9.5
6701, 31.9920095, -19.13389, 9.5
6702, 32.2315213, -19.2737827, 9.5
6703, 32.2372701, -19.562382, 9.5
6704, 32.2826263, -18.4094171, 9.5
6705, 32.0564241, -18.5707464, 9.5
6706, 32.8244722, -18.0822138, 9.5
6707, 32.5457808, -18.2121977, 9.5
6708, 32.3185779, -18.2066683, 9.5
6709, 32.1223771, -18.1678098, 9.5
6710, 31.7200832, -18.8861731, 9.5
6711, 31.6856699, -19.2491287, 9.5
6712, 31.8517187, -18.5484916, 9.5
6713, 31.88172, -18.3483037, 9.5
6714, 32.0641475, -19.9582714, 9.5
6715, 31.4380908, -19.6956514, 9.5
6716, 31.1661107, -19.4478761, 9.5
6717, 35.3345519, -14.4233132, 9.5
6718, 35.7910076, -14.9001157, 9.5
6719, 36.1157317, -15.179399, 9.5
6720, 35.059247, -14.5923239, 9.5
6721, 35.5350349, -14.7285367, 9.5
6722, 35.5157028, -15.0691264, 9.5
6723, 35.9944014, -15.4434825, 9.5
6724, 29.246354, -19.7781274, 9.5
6725, 29.8146711, -19.7352331, 9.5
6726, 30.8349921, -19.4302923, 9.5
6727, 30.4776832, -19.6110953, 9.5
6728, 34.3318559, -18.2815136, 9.5
6729, 34.0748757, -17.8329056, 9.5
6730, 33.811734, -17.6853056, 9.5
6731, 34.3498308, -17.9843612, 9.5
6732, 34.3488016, -17.6729632, 9.5
6733, 34.6057818, -18.1215713, 9.5
6734, 33.8319185, -17.3656202, 9.5
6735, 33.569806, -17.5294182, 9.5
6736, 33.2990863, -17.7468078, 9.5
6737, 33.0423805, -17.9164099, 9.5
6738, 33.3192708, -17.4271224, 9.5
6739, 34.6340851, -17.5175768, 9.5
6740, 34.3591299, -17.3661212, 9.5
6741, 34.4080621, -17.1368426, 9.5
6742, 34.1227786, -17.2922291, 9.5
6743, 33.8808506, -17.1363417, 9.5
6744, 34.9069895, -17.666826, 9.5
6745, 34.9173178, -17.3599839, 9.5
6746, 34.8719631, -18.0031747, 9.5
6747, 35.1551959, -17.8455819, 9.5
6748, 35.19182, -17.1704204, 9.5
6749, 34.9189156, -17.0211711, 9.5
6750, 34.8780609, -16.701952, 9.5
6751, 34.6035587, -16.8915156, 9.5
6752, 34.3672073, -16.8176235, 9.5
6753, 35.4283347, -17.3568861, 9.5
6754, 35.4299325, -17.0180733, 9.5
6755, 35.4678769, -18.0330358, 9.5
6756, 35.5029033, -17.6966871, 9.5
6757, 35.1821207, -16.5020513, 9.5
6758, 34.8667637, -16.3723958, 9.5
6759, 35.5271482, -16.7009181, 9.5
6760, 35.515851, -16.3713619, 9.5
6761, 34.8864157, -16.0354014, 9.5
6762, 34.582356, -16.2353021, 9.5
6763, 34.3671812, -16.375696, 9.5
6764, 34.0485804, -16.4070528, 9.5
6765, 34.2441031, -16.6036532, 9.5
6766, 34.0486065, -16.8489803, 9.5
6767, 35.7973673, -16.2135796, 9.5
6768, 35.4523398, -16.0147128, 9.5
6769, 35.4213404, -15.6582429, 9.5
6770, 35.1398242, -15.8160252, 9.5
6771, 34.8554164, -15.6789316, 9.5
6772, 36.0716146, -16.351134, 9.5
6773, 36.0081034, -15.9944849, 9.5
6774, 35.7527658, -15.548818, 9.5
6775, 35.4402502, -15.3501304, 9.5
6776, 35.9754916, -15.751595, 9.5
6777, 35.1842774, -15.1785513, 9.5
6778, 35.0043881, -14.9191984, 9.5
6779, 34.9289355, -15.2002024, 9.5
6780, 34.6416058, -15.1634191, 9.5
6781, 34.8214952, -15.4227721, 9.5
6782, 34.4632913, -14.9846005, 9.5
6783, 34.5303963, -14.7696015, 9.5
6784, 34.8039051, -14.613975, 9.5
6785, 26.1766896, -19, -7.54765071
6786, 26.1748464, -19, 7.54807276
6787, 27.0951348, -19, 6.14869262
6788, 27.0820396, -19, 8.52042746
6789, 25.3747995, -19, 8.55533988
6790, 27.0839718, -19, -8.52148023
6791, 27.0939502, -19, -6.14661505
6792, 25.3701641, -19, -8.55735243
6793, 21.5933068, -19, -8.93386359
6794, 21.6587165, -19, 8.94557992
6795, 26.8017629, -19, 4.91061691
6796, 27.4369271, -19, 3.25200713
6797, 25.9250509, -19, 6.27393405
6798, 24.2315326, -19, 8.02951854
6799, 26.8021687, -19, -4.91055594
6800, 27.4424916, -19, -3.25191528
6801, 25.9243842, -19, -6.27424705
6802, 24.2327861, -19, -8.03001251
6803, 27.4425694, -19, -0.899683369
6804, 27.4503099, -19, 0.904075401
6805, 23.3191169, -19, -8.91372518
6806, 23.3216949, -19, 8.91395052
6807, 32.7349985, -18.2656116, 7.02070229
6808, 34.2576157, -17.839368, -6.92223876
6809, 35.4981825, -15.5436518, 6.76799246
6810, 16.8618011, -22.0575428, -0.270830293
6811, 36.0458465, -15.9218425, -7.00612727
6812, 32.4137192, -18.7828434, -6.65718535
6813, 34.9930456, -17.8357474, 7.2152453
6814, 34.1097746, -15.6932538, -7.14846567
6815, 15.1134193, -23.7614709, 2.88120111
6816, 15.1247802, -23.7598748, -2.89693152
6817, 34.0917117, -19.2851511, -8.21323106
6818, 34.1891589, -16.5065797, 7.0460769
6819, 33.7526578, -19.302308, 8.16502161
6820, 12.9883212, -19.1463279, 4.12056839
6821, 36.7619266, -21.4445769, 4.04112705
6822, 36.7615019, -21.440547, -4.04582686
6823, 33.5052594, -24.0007179, 4.04918684
6824, 33.5108906, -24.0009618, -4.04964171
6825, 32.4834591, -19.9027887, -7.89868806
6826, 13.1240445, -19.3075539, -4.35512518
6827, 33.1917641, -18.4822504, 8.24499631
6828, 31.2979812, -18.874811, 7.35187387
6829, 15.1706557, -17.9954169, 4.47605114
6830, 38.9996517, 2.37867656, 4.60644887
6831, 35.4875062, -18.0388563, -7.55008813
6832, 36.2320557, -16.7982807, 7.83116311
6833, 14.2644483, -24.0544565, -2.38876808
6834, 15.3629264, -23.5008485, -0.277335404
6835, 33.598059, -17.0512118, -8.08234928
6836, 19.8694867, -17.989602, 4.56473892
6837, 39.0304528, -2.26185376, 4.5259069
6838, 14.2465626, -24.0619297, 2.3848643
6839, 34.2604346, -17.8350891, 8.29951844
6840, 11.2588681, -19.4012665, -4.27389181
6841, 11.841741, -20.1375011, 5.63490205
6842, 34.3972251, -18.4005517, -8.55734269
6843, 35.1255846, -14.728873, 7.3161858
6844, 13.3934646, -18.0048581, -2.06988872
6845, 32.3964902, -18.575454, -8.46899853
6846, 18.9395155, -20.7593843, -1.33473456
6847, 18.4328014, -20.6075759, 1.22147786
6848, 34.5696993, -17.1594303, -8.4119576
6849, 33.8598116, -20.7652599, -0.142392583
6850, 12.5141224, -20.1047821, -6.11499116
6851, 18.7134011, -22.9568556, -0.873068985
6852, 21.6487444, -17.9928617, -1.9808703
6853, 33.158043, -17.5710227, 8.34923051
6854, 32.0523171, -19.8955303, 7.58204625
6855, 36.2703161, 4.80217388, -4.5887457
6856, 16.548693, -23.4197659, -2.03296496
6857, 36.325631, 4.55164486, 4.90997791
6858, 29.9235435, -19.9659273, -7.21979584
6859, 15.6933353, -21.8705652, 1.67494531
6860, 39.1931079, -4.06888676, -1.95500419
6861, 35.2183543, -18.5802075, 7.79974085
6862, 34.8094132, -16.8683043, 8.44579519
6863, 36.5106177, -4.49477836, 4.39401552
6864, 35.9124349, 4.24258847, -6.87240867
6865, 19.1721814, -22.8083123, 1.37575154
6866, 39.0640466, 4.19705462, -1.78180942
6867, 36.31997, -1.54947854, -1.51789813
6868, 10.4563128, -20.0473492, 3.68197159
6869, 35.1918014, -23.6655028, 4.27367902
6870, 37.2222673, -20.6354024, 4.31115075
6871, 36.1635702, -22.8508681, 4.26957248
6872, 36.7246936, -22.1802115, 4.48915083
6873, 34.4425708, -24.0159045, 4.27813612
6874, 35.3568644, -15.8439141, -8.1850927
6875, 36.6594456, -16.2346234, -8.19866707
6876, 31.4704978, -19.1234113, -8.35442153
6877, 35.1902615, -23.6688095, -4.27752691
6878, 37.2249742, -20.6353132, -4.28296751
6879, 36.1628775, -22.8504989, -4.26982533
6880, 36.7253093, -22.1784342, -4.4925248
6881, 34.4416819, -24.0138275, -4.27883008
6882, 13.5819428, -20.0559758, 6.74233748
6883, 15.5981096, -21.4276975, -1.92959486
6884, 15.851423, -23.5534563, 1.48051686
6885, 36.1340167, -15.2962745, 8.07605658
6886, 36.1751985, 1.77556445, 1.99765597
6887, 28.8267338, -22.1051128, 1.50066492
6888, 36.2207937, -1.52106899, 1.6710102
6889, 36.3441011, -4.45648607, -4.26323979
6890, 21.9451405, -19.2563718, -4.23288126
6891, 34.3812584, -15.8368415, -8.51743261
6892, 33.226712, -17.9055558, -8.58374511
6893, 36.4769131, 1.36643874, -0.457778412
6894, 38.364953, 3.72126377, -3.76654293
6895, 33.179569, -19.0321878, -8.60264696
6896, 16.8511925, -23.6381108, -0.281520067
6897, 15.0376476, -18.0142105, -5.04680339
6898, 35.5785863, 6.89572966, -3.93014213
6899, 20.3696798, -18.0207979, -5.6399552
6900, 35.6292389, -13.5256775, -7.47269961
6901, 38.4358458, -3.90374587, -3.93667074
6902, 37.4130993, -6.00733642, -4.36725647
6903, 19.9918321, -21.2116695, 2.63734047
6904, 15.8083742, -20.1971984, 0.213193131
6905, 34.9840347, -18.481516, -9.02870354
6906, 34.6531161, -18.6586489, -9.02861169
6907, 34.7584548, -18.2912843, -9.02885518
6908, 39.4354683, -2.05118496, -5.99572376
6909, 39.975631, -2.0518362, -5.93942197
6910, 39.7458454, -2.03883861, -6.33275335
6911, 20.8146692, -19.4641336, 3.53289187
6912, 20.9954033, -20.300456, 3.71117356
6913, 20.0461254, -20.3667139, 4.0054335
6914, 20.9932223, -21.1745989, 2.28931346
6915, 20.8033958, -20.3394687, 2.11042301
6916, 39.0513949, 1.02653906, -6.76770315
6917, 40.0177918, 2.04798005, -5.93630369
6918, 39.6986409, 2.00881398, -6.25227484
6919, 39.4796951, 2.0234065, -5.93610167
6920, 11.4067618, -17.5801567, -1.66039529
6921, 11.6859529, -17.3146828, -1.58451131
6922, 11.8737129, -17.5917043, -2.35023951
6923, 12.143201, -17.3010407, -2.24841054
6924, 23.5916913, -17.570784, -1.66205569
6925, 23.3128888, -17.3135611, -1.58947884
6926, 22.853109, -17.2973452, -2.25886218
6927, 23.1254335, -17.5811151, -2.35059203
6928, 27.3531301, -22.5823612, 0.974716931
6929, 27.2487195, -21.7215654, -0.071313551
6930, 27.2531812, -22.7583695, -0.0510805796
6931, 35.6209756, -15.3783133, 8.78807898
6932, 35.6520376, -15.7343274, 8.78783693
6933, 35.9337743, -15.5767042, 8.78797021
6934, 39.4786363, 3.89188187, 0.524426814
6935, 39.6131049, 4.10701639, 0.835478659
6936, 38.6213081, 4.71214987, 1.29244813
6937, 38.5679201, 3.61010399, 1.1261723
6938, 38.4695034, 4.48270143, 0.976820871
6939, 13.6154708, -17.7492056, 0.196450066
6940, 13.5575703, -18.0622786, 0.487124787
6941, 13.5593169, -17.7590348, 0.648506614
6942, 20.4809037, -22.4875388, -2.97237589
6943, 20.4834971, -23.2876351, -2.9925885
6944, 20.1416522, -23.3847116, -1.22564514
6945, 19.0919989, -22.8557676, -2.59582336
6946, 20.1309924, -22.5855331, -1.23007952
6947, 39.5091426, -3.90273195, 0.487038294
6948, 39.4211622, -4.19063612, 0.941172236
6949, 38.9916945, -3.93553478, 0.510159301
6950, 38.8746957, 2.79070601, 7.01262462
6951, 38.8522754, 0.417621254, 7.48140869
6952, 38.4587049, 0.464516013, 7.44859763
6953, 38.4679491, 2.79241147, 6.93215076
6954, 16.3663411, -24.2729109, 1.26673812
6955, 17.5198971, -23.175938, 1.41083455
6956, 18.0334793, -23.89979, 1.21351644
6957, 16.8660317, -24.3182221, 0.389362207
6958, 18.0131602, -23.2217486, 0.538060727
6959, 16.3551645, -23.593497, 0.598024679
6960, 16.58554, -18.7742329, -9.44652132
6961, 16.5896554, -18.7727828, 9.44680738
6962, 13.5816661, -18.7553131, 8.64745409
6963, 13.5798601, -18.7684421, -8.6434063
6964, 9.78012737, -18.7673018, 5.52154957
6965, 9.78091203, -18.7684825, -5.5232176
6966, 8.05469785, -18.7699823, 0.932281929
6967, 8.05482055, -18.7730328, -0.925549916
6968, 37.8958187, -1.60026044, -5.15668093
6969, 38.9779481, -2.43230102, -5.33507492
6970, 38.4728531, -1.58662443, -5.13729689
6971, 13.5936587, -17.4812619, 0.486097485
6972, 15.5201247, -24.278546, 1.56833609
6973, 15.1561545, -24.2812791, 1.60635541
6974, 15.1492229, -24.2785013, 1.2723373
6975, 21.7670551, -19.4607157, 4.04067951
6976, 20.2412681, -20.8377537, -2.76445821
6977, 20.5303186, -20.0659279, -3.05594087
6978, 18.9263948, -20.8958137, -2.6410141
6979, 19.2239241, -20.1181262, -2.88145571
6980, 20.2486381, -20.6836227, -1.46085274
6981, 33.4847061, -21.0093427, 5.12506314
6982, 35.9133161, -20.9548692, 4.56965937
6983, 34.3414807, -21.4737818, 4.51023336
6984, 32.8941331, -21.1393052, 2.43065008
6985, 35.309278, -21.1038756, 1.94938044
6986, 34.4633041, -20.625918, 2.55526539
6987, 39.4200994, 6.06473416, -1.70424843
6988, 39.8537399, 5.78283696, -1.61653519
6989, 39.3891481, 5.61969419, -2.36122423
6990, 39.8536549, 5.3407693, -2.2654539
6991, 14.3537489, -24.5241687, -2.03516212
6992, 14.6516594, -24.522048, -1.85701359
6993, 14.3186952, -24.521453, -1.74946715
6994, 20.4579107, -18.556509, 6.59533177
6995, 20.3111672, -18.7240146, 6.92371622
6996, 19.4524613, -18.2651169, 7.37775041
6997, 19.6327689, -18.1123552, 7.06323245
6998, 31.4022207, -19.4312381, 8.5399224
6999, 31.045223, -19.6120532, 8.53978676
7000, 31.4858529, -19.8950592, 8.54035627
7001, 35.6006745, -21.9225984, 4.52796691
7002, 34.1451461, -21.5853657, 2.43627065
7003, 33.4871368, -20.6088652, 5.08596552
7004, 34.4713296, -20.229566, 2.5499336
7005, 29.2911078, -20.4558401, 8.2561112
7006, 29.6339689, -20.8208522, 8.25565112
7007, 29.8570974, -20.4129473, 8.25535642
7008, 36.3944633, -21.4756506, 4.51485065
7009, 15.9396712, -24.7083502, -3.93119425
7010, 15.9034087, -24.6953588, -3.59376296
7011, 15.6036954, -24.7100909, -3.75080389
7012, 19.2763767, -17.0122683, -5.13752582
7013, 19.061237, -16.8501264, -4.82882432
7014, 18.935505, -17.2735856, -4.75519186
7015, 34.2780495, 6.42316114, 3.5454603
7016, 34.2925577, 6.8976728, 3.07437597
7017, 35.0627032, 7.73416116, 2.54642647
7018, 35.2772983, 6.86815432, 2.35211412
7019, 35.0542059, 7.283252, 3.18522667
7020, 22.7122974, -18.7811314, -1.66045481
7021, 22.9952826, -19.0862823, -1.69817364
7022, 22.6142194, -18.0088961, -2.84138552
7023, 40.0768116, 1.95474056, -6.43554003
7024, 13.9402153, -17.050131, 1.61912882
7025, 13.8765255, -18.4816263, 1.1407814
7026, 13.3336458, -18.0052759, 2.04235203
7027, 12.9263628, -17.300493, 1.58501267
7028, 12.9432524, -18.7827904, 1.07552624
7029, 34.7056209, -16.3835231, 8.97307823
7030, 34.9900632, -16.520745, 8.97312006
7031, 34.9590141, -16.1644221, 8.97325037
7032, 35.0573987, -3.39154392, 6.78055899
7033, 35.0398625, -3.05381205, 7.43046882
7034, 35.3011963, -2.25375136, 7.10442791
7035, 35.2772202, -1.84430341, 7.69412579
7036, 34.2847155, -3.27476275, 7.38145045
7037, 13.7772404, -20.323394, 4.65764196
7038, 13.2503222, -20.3276932, 4.68315895
7039, 13.3950919, -20.3271661, 4.28006704
7040, 14.2801369, -20.4933604, 5.36885871
7041, 14.7875559, -20.4928744, 5.34318379
7042, 14.3802736, -20.4874536, 5.81582871
7043, 38.9565952, 3.93104382, 0.490939536
7044, 39.2538979, 3.87626009, 0.148743555
7045, 18.6850776, -22.7969742, 2.52825189
7046, 18.4339074, -23.4241325, 2.48981444
7047, 16.77015, -23.8114027, 2.49707401
7048, 17.0326499, -23.1714009, 2.54137001
7049, 15.55558, -16.97418, -6.47959441
7050, 12.7392016, -16.9918354, -1.06979233
7051, 12.2915554, -16.963009, -1.34032509
7052, 12.527431, -17.3022763, -1.25002595
7053, 33.6273494, -19.451156, 8.8327859
7054, 33.6300556, -19.1762409, 8.83276654
7055, 33.3799284, -19.3163974, 8.83298304
7056, 37.9006406, -5.48077565, -1.74308999
7057, 38.2348317, -5.21208461, -1.66472081
7058, 39.4001296, -5.62584735, -2.33936765
7059, 39.6995748, -5.33787296, -2.27259134
7060, 38.9989785, -5.11481622, -2.85618697
7061, 40.1027829, -1.97877811, -6.40111315
7062, 16.3253552, -23.2596802, 2.5718793
7063, 38.9625772, -6.1366597, 1.6293436
7064, 39.5224982, -6.38937187, 1.55853003
7065, 38.9633465, -6.16181698, 2.24289805
7066, 37.9976814, -6.29373483, 1.73764963
7067, 20.2387262, -21.6334098, -2.75996945
7068, 20.2415846, -21.4808056, -1.46432856
7069, 36.8138858, 3.05161218, 3.02084084
7070, 36.0764483, 3.14212638, 3.14724116
7071, 36.1053363, 3.05297302, 1.92358575
7072, 36.1222054, 1.90267034, 3.21056615
7073, 36.8461101, 2.91996567, 1.79048047
7074, 18.0152832, -22.4278488, 0.54486027
7075, 17.4445454, -22.333223, 1.5042206
7076, 16.2839416, -21.9620368, 0.70185741
7077, 16.3626336, -22.8059994, 0.603328085
7078, 15.7740936, -22.7129598, 1.57777781
7079, 19.4169095, -16.9674562, -6.51323072
7080, 21.445402, -18.0381768, 0.47854457
7081, 21.4042414, -17.7499386, 0.176101779
7082, 21.4007776, -17.4800844, 0.482911112
7083, 27.3749961, -21.6311216, 0.92737012
7084, 39.8935707, -5.85303823, 1.58549546
7085, 21.7717994, -18.6993641, 3.60620838
7086, 19.8784091, -18.7403173, 5.03057223
7087, 20.819472, -18.7155529, 3.07686511
7088, 39.0527288, -2.56682753, -6.52610115
7089, 38.2570821, -1.74618469, -6.55431867
7090, 37.911472, -1.82595519, -6.1973906
7091, 33.099675, -18.9065399, 8.8726854
7092, 33.0968303, -18.6182452, 8.87258805
7093, 32.8487224, -18.7660135, 8.87269464
7094, 12.8673979, -17.3045253, -0.819995871
7095, 12.902163, -16.9742793, -0.558374028
7096, 17.0540624, -21.2227014, 1.43457655
7097, 16.5100188, -21.1757602, 2.61441523
7098, 17.8911979, -20.5284178, 2.3891144
7099, 17.1153724, -20.3851398, 0.723074258
7100, 16.5552126, -20.3225278, 1.90322217
7101, 15.7476523, -21.0331102, 0.959432884
7102, 35.7577092, 6.41254912, 3.44633624
7103, 36.0104126, 5.99788237, 2.50874472
7104, 34.3674849, -16.7515185, 8.97289738
7105, 34.1998961, -17.0387127, 8.9727612
7106, 34.4906431, -16.9655086, 8.97286127
7107, 18.3981347, -23.9022663, 1.92349229
7108, 17.6559818, -24.517144, 2.96203784
7109, 16.7214523, -24.2768537, 1.96283094
7110, 40.0051038, 1.79143848, -5.1748949
7111, 39.4629081, 1.77359016, -5.15621634
7112, 16.8569481, -22.8482661, -0.275913007
7113, 34.9999027, -17.1887632, 8.97283174
7114, 35.3126627, -17.3761237, 8.97280413
7115, 35.2380204, -17.0365222, 8.97297728
7116, 12.3123105, -21.0010191, 2.66594422
7117, 12.6495476, -20.9944596, 3.03403801
7118, 12.1421393, -20.9909563, 3.16186565
7119, 14.615877, -16.986405, -6.91629657
7120, 16.9919735, -16.9910613, -7.41329976
7121, 14.6282369, -17.9497542, -6.89534572
7122, 37.9157501, 4.48370998, 0.877279934
7123, 37.7408916, -10.2089954, 1.71334374
7124, 37.0107776, -10.3348535, 1.19202085
7125, 37.0059834, -10.0264707, 1.84739239
7126, 33.9481721, -19.0643054, 8.83238894
7127, 33.8414507, -19.3319185, 8.83258601
7128, 37.987227, 4.77314519, 1.37470361
7129, 35.0374255, 3.60767509, 6.82069724
7130, 35.0408894, 3.03195651, 6.988013
7131, 35.0364793, 3.31848445, 6.2190337
7132, 37.9927089, -4.44906293, -3.08318515
7133, 37.9704819, -3.73843685, -2.33829428
7134, 37.2253632, -3.99350024, -2.78368046
7135, 37.8630775, 5.48409208, -1.7181756
7136, 38.3871243, 5.24241391, -1.66887483
7137, 38.9847006, 5.10673726, -2.86708505
7138, 35.1591551, 4.36058217, 5.41462259
7139, 36.1886605, 3.48392783, 5.73079464
7140, 35.1566052, 4.67222504, 5.9973237
7141, 22.2323994, -19.3704754, -3.21129294
7142, 21.7812175, -19.9446263, -2.9363487
7143, 22.6091181, -20.1543137, -3.35063121
7144, 16.882709, -21.7041675, 2.60133698
7145, 18.2489144, -21.0694903, 2.43225347
7146, 18.6126961, -22.1706474, 2.50414556
7147, 18.7940735, -21.7056844, 1.29734197
7148, 18.8110951, -23.899136, 1.23581837
7149, 17.6446234, -24.3174435, 0.400076904
7150, 35.1551035, 5.49937962, 5.22608415
7151, 35.1538236, 5.70473598, 4.66045858
7152, 35.1592771, 5.05155487, 4.72318221
7153, 35.9276644, -19.0648404, -0.034486244
7154, 35.9278846, -19.4093438, 0.94679168
7155, 35.9269896, -20.3821528, -0.0704815555
7156, 37.9450352, 1.55626229, -5.11887858
7157, 37.809627, 1.34890116, -4.78643211
7158, 38.3907972, 1.24534784, -4.7177252
7159, 25.0035471, -16.9244299, 1.20271283
7160, 21.6750989, -22.4977473, -3.34819175
7161, 22.5576598, -21.9243658, -3.73579193
7162, 21.6806646, -21.6926517, -3.3331283
7163, 16.0698861, -20.6697993, 2.74145891
7164, 16.1087223, -19.8440828, 2.05424697
7165, 37.791611, -4.68600207, 1.26903992
7166, 38.3757102, -4.86681174, 1.34246663
7167, 37.952245, -4.52944539, 0.905668714
7168, 39.9069524, 1.44382006, -4.73394216
7169, 17.1569157, -24.3180499, -0.144305568
7170, 17.7463648, -24.3186001, -0.204025075
7171, 40.0872973, 4.72041128, 1.77259926
7172, 39.9544202, 3.56302205, 1.6293419
7173, 38.9815986, 4.15364715, 2.04828278
7174, 35.7806533, -15.7407979, -8.84274963
7175, 35.5317205, -15.5191117, -8.84278145
7176, 35.9083546, -15.4818356, -8.84285796
7177, 34.1058473, -19.35869, 8.83214274
7178, 36.1746798, -2.81698364, -1.53613409
7179, 36.9383131, -2.63384046, -1.10205438
7180, 37.3568342, -2.72576374, -2.75185772
7181, 40.0170606, 7.50280885, 1.21161762
7182, 34.4924862, -18.4096889, -9.02882148
7183, 37.1805893, 3.89492521, -2.69726202
7184, 37.9608171, 3.63495904, -2.25191745
7185, 37.9390349, 4.36829954, -3.01267852
7186, 27.5243259, -24.2140359, -1.40984043
7187, 27.5482366, -23.1680905, -1.41743813
7188, 29.2510263, -23.5513404, 0.138761688
7189, 34.811028, -23.0250435, 4.63899403
7190, 34.5286488, -22.2084939, 2.06300312
7191, 35.3001002, -22.626785, 4.64198017
7192, 35.0122297, -21.8073884, 2.06336582
7193, 35.6802018, -23.2651073, 4.28538189
7194, 33.8914196, -18.143447, 8.89979971
7195, 34.2026166, -18.3303892, 8.89963366
7196, 34.1683652, -17.9895327, 8.89988379
7197, 9.99547394, -16.9827691, 1.20963625
7198, 39.2472263, -3.90253329, 0.18823409
7199, 38.3498278, -3.85618713, -1.26345046
7200, 38.3327179, -4.52269677, -2.08721964
7201, 38.8297015, -4.04954271, -2.98764855
7202, 38.3005028, 3.32695694, 3.05391151
7203, 38.3031004, 4.26807848, 3.58208611
7204, 36.9362319, 4.32667499, 3.28466487
7205, 36.9212823, 5.32669268, 3.71345373
7206, 37.7155148, 3.50054893, 4.80837622
7207, 17.2646727, -21.0710982, -1.6117933
7208, 16.2331103, -21.7405509, -1.10172927
7209, 17.8947, -21.3954402, -0.794796089
7210, 17.370282, -20.4553972, -0.549192831
7211, 16.3357479, -21.1230651, -0.0260081936
7212, 15.6899202, -20.800934, -0.861720995
7213, 20.0301503, -19.5958512, 3.57867643
7214, 34.2158953, -17.4490861, 8.90007346
7215, 33.9252193, -17.5222361, 8.90003087
7216, 34.1671253, -17.6782669, 8.89998599
7217, 22.7209377, -16.9606506, -1.36515007
7218, 22.3018749, -17.0016546, -1.08415527
7219, 22.4918831, -17.2937971, -1.27552702
7220, 13.0616085, -19.1205926, 0.913730965
7221, 35.9874242, 4.19260985, 7.82620417
7222, 36.9943538, 3.57420426, 7.38922437
7223, 35.996906, 4.76984063, 7.66303796
7224, 36.1896282, 4.43976934, 3.38648589
7225, 36.1905582, 3.24570978, 4.68812176
7226, 33.9641341, -23.2028597, 4.52645464
7227, 32.7119249, -22.7583528, 4.52000546
7228, 33.6814091, -22.3791205, 1.94951537
7229, 34.1641105, -18.8809825, -9.02882326
7230, 34.2707468, -18.6132494, -9.0288549
7231, 34.428483, -18.9078078, -9.02867103
7232, 35.1229774, 5.19180775, -4.67447669
7233, 35.1185546, 5.61929624, -5.0647336
7234, 35.1219274, 5.15860342, -5.33583583
7235, 17.5289293, -21.0510203, 2.44902791
7236, 16.1719254, -21.7046157, 2.70588476
7237, 39.8464025, 2.77680154, 7.01302881
7238, 39.8410203, 0.427373092, 7.51512737
7239, 39.9710165, 4.46617414, 0.478309479
7240, 40.0750684, 4.49467858, 0.00459354585
7241, 39.7307287, 4.44345623, 0.115504268
7242, 12.3565999, -18.008877, 2.49806349
7243, 12.6523889, -17.5901598, 1.84452646
7244, 11.7503657, -19.1072206, 1.76377509
7245, 12.7121139, -19.1004251, 1.38368507
7246, 33.3818394, -19.6078552, 8.83307924
7247, 35.9526704, -15.2690802, 8.78821027
7248, 35.6963598, -15.0977932, 8.78832575
7249, 40.0864794, 2.85242606, -6.75891813
7250, 40.0763406, 0.535667923, -7.38445005
7251, 39.0551443, 2.83184931, -6.79316615
7252, 38.9273308, -2.66828163, -7.06698078
7253, 38.8679396, -0.307027892, -7.590941
7254, 39.8631069, -0.26986267, -7.53577462
7255, 39.9946382, -7.48844495, 1.26278018
7256, 39.0164473, 2.61674152, -6.40187572
7257, 38.9703862, 2.40519672, -5.31819165
7258, 37.926894, 1.81689303, -6.1214772
7259, 17.6460081, -21.3227308, 0.470480083
7260, 39.9935883, -4.42816933, 0.3524162
7261, 40.0653658, -4.4962916, -0.151036097
7262, 39.7164864, -4.3969708, 0.0617759527
7263, 15.0202911, -24.3788906, -2.50427315
7264, 15.5560002, -24.3742438, -2.35171145
7265, 15.082649, -24.3767954, -2.11336367
7266, 14.882209, -24.2492905, -0.69682982
7267, 15.2074454, -24.2502933, -0.80452178
7268, 15.1185156, -24.2484405, -0.4006574
7269, 34.7872551, -16.3346164, -9.00871357
7270, 34.4710427, -16.1991935, -9.0086926
7271, 34.7785608, -16.0032393, -9.00882661
7272, 32.8294608, -18.7398544, -9.05154804
7273, 33.1093754, -18.6057031, -9.05140006
7274, 33.0918931, -18.8925199, -9.05144182
7275, 15.9114207, -19.949652, -2.29030954
7276, 17.586189, -19.5843852, -2.02196676
7277, 15.9053601, -19.3047369, -1.28359312
7278, 33.6051622, -19.5526548, -8.85756857
7279, 33.7967538, -19.4423311, -8.85730437
7280, 33.8030294, -19.6712317, -8.85750922
7281, 40.0027675, 1.52147639, -5.65081849
7282, 32.835322, -18.4648947, 8.87256447
7283, 20.5774814, -22.742371, -4.69823225
7284, 21.6658933, -23.3157523, -3.35159136
7285, 34.5103531, -18.1124905, -9.02895045
7286, 36.7958039, -3.03498833, 3.01897571
7287, 36.0671485, -3.15194937, 3.15547204
7288, 36.2865849, -4.41142882, 3.116309
7289, 36.281399, -3.21915707, 4.43449783
7290, 37.0166652, -4.27776977, 2.99618262
7291, 33.3498359, -18.7663792, 8.87249538
7292, 14.3542939, -24.5290669, 2.06000327
7293, 14.7203692, -24.5248298, 2.02266109
7294, 15.0500792, -23.8045548, 1.93071396
7295, 11.1246871, -20.7761487, 4.39487075
7296, 10.5659062, -20.7783527, 4.17995552
7297, 11.2608604, -20.7691674, 3.85643807
7298, 16.9476748, -22.3288972, 2.6249556
7299, 35.4456069, 5.28267995, 3.78780624
7300, 35.3971225, -17.3353848, 1.01866176
7301, 35.3965601, -16.9892687, 0.0350513817
7302, 33.333508, -18.679922, -0.069984344
7303, 37.9987432, 3.23680678, 1.64337062
7304, 39.4754936, 3.25806137, 2.20192402
7305, 39.7139712, 3.29451536, 3.57698722
7306, 38.7655711, 2.43656647, 3.22537463
7307, 39.1193202, -2.89383704, -6.77643326
7308, 39.5263065, -3.78999517, -6.42603093
7309, 38.6167901, -1.7021906, -6.69562583
7310, 38.0550016, -3.48761372, -6.63614978
7311, 14.6679582, -17.2816518, 6.9785563
7312, 17.0295854, -17.292272, 7.4712817
7313, 14.6827005, -18.2474653, 6.95073556
7314, 17.025946, -18.2717466, 7.48550909
7315, 18.8374091, -19.2235763, -4.77887334
7316, 19.0660594, -19.0890014, -5.11200349
7317, 18.7420948, -18.8010047, -4.74376899
7318, 36.0569136, -2.89750367, -2.89979007
7319, 36.200987, -4.24853686, -2.93891655
7320, 36.1889905, -3.07294056, -4.23270204
7321, 37.2505286, -2.77218411, -4.0972531
7322, 37.399496, -4.19103575, -4.10361844
7323, 20.3175178, -19.5730308, -2.23032414
7324, 19.1424165, -19.004476, -3.55865965
7325, 18.8916571, -19.5903969, -1.95781127
7326, 35.7586653, -6.92450309, 3.41682984
7327, 35.9973939, -5.95337338, 2.49905951
7328, 34.2906425, -6.91602041, 3.52398503
7329, 35.2645562, -6.17072894, 4.37682987
7330, 35.5342475, -5.26867585, 3.53252962
7331, 37.0279686, -5.30011064, 3.46465899
7332, 35.1723891, -5.35411124, -4.48018635
7333, 35.1783742, -4.63331363, -5.57851276
7334, 35.1689073, -5.97414857, -5.58379481
7335, 18.9077087, -23.900299, 0.627615604
7336, 18.9423762, -22.8794083, 0.250227241
7337, 18.6858658, -23.9775585, -0.494965451
7338, 17.7860282, -23.2984765, -0.576781595
7339, 34.5148868, -14.3948136, 6.0342686
7340, 34.4546337, -14.6604972, 8.40783417
7341, 34.5161923, -14.3889509, 8.40796542
7342, 33.1139893, -18.3351631, 8.8724767
7343, 32.9022009, -18.2289687, 8.87244152
7344, 12.0068933, -19.1217984, -1.72087636
7345, 12.2620976, -18.7843048, -1.66436578
7346, 12.3974995, -17.9890923, -2.83721587
7347, 34.4533232, -14.6653363, 6.03355468
7348, 21.9247414, -17.0011564, 0.345464815
7349, 21.9026115, -17.2863963, 0.0503982514
7350, 22.0016828, -16.9584939, -0.181738839
7351, 27.8128297, -24.0506746, -0.39056192
7352, 36.4599054, -22.1583437, 4.16920471
7353, 37.2932145, 2.21162157, 3.17470066
7354, 37.3619525, 2.05828146, 1.94752705
7355, 20.0094714, -23.9024609, -3.44998454
7356, 21.1099613, -24.3873677, -2.01479498
7357, 19.6774115, -23.9940986, -1.67763173
7358, 36.136798, -1.78412586, 3.04416552
7359, 36.1330186, -2.92325685, 1.78437227
7360, 36.8758114, -2.76542244, 1.64248606
7361, 35.0448242, -7.83620727, 3.12010858
7362, 35.2598476, -6.90116444, 2.39061941
7363, 36.2082901, -15.7138377, 8.78788157
7364, 36.1756395, -15.4713605, 8.78804601
7365, 14.5170144, -16.9990841, 6.64451158
7366, 40.1020596, -2.90665832, -6.71801579
7367, 38.2645454, 4.59004344, -1.9889666
7368, 38.2810513, 3.92083806, -1.18408637
7369, 38.7197759, 4.01555886, -2.79906799
7370, 20.3232499, -16.9430015, -6.82295102
7371, 35.2561677, -5.71293565, 5.76051887
7372, 35.2671923, -4.45611366, 5.72377442
7373, 35.2630779, -5.07279612, 4.76784008
7374, 34.2782816, -6.72201945, -3.57248976
7375, 35.0552256, -6.14306889, -3.58495273
7376, 35.2665794, -6.58416953, -2.43638631
7377, 34.2754023, -7.89810917, -3.15291802
7378, 34.9993653, -7.3505934, -3.22162043
7379, 15.6676248, -24.6323733, -4.07839526
7380, 37.9984222, -1.25424893, -4.72446962
7381, 39.5017031, 4.85650343, 1.85304882
7382, 34.8814447, -16.9957514, -8.95615439
7383, 35.1180245, -17.1820196, -8.95612469
7384, 34.8797615, -17.3340777, -8.95605284
7385, 18.1169169, -22.5934476, -2.21844854
7386, 18.8086351, -21.995091, -2.38839294
7387, 33.9052389, -17.8418064, 8.89995017
7388, 15.3685718, -21.7228684, -0.430813695
7389, 15.4024668, -22.2254655, -0.071375757
7390, 14.6230337, -22.4409454, -0.438458098
7391, 14.6611864, -22.9403681, -0.0752596478
7392, 16.1105506, -22.7821457, -0.271403425
7393, 36.4863639, -15.589443, 8.78789705
7394, 34.4242388, -18.1267783, 8.89976384
7395, 20.6313417, -19.5209397, 8.89059253
7396, 14.3431277, -24.5266986, 1.72395294
7397, 38.9825515, 2.1185018, -4.55475019
7398, 37.9693744, 2.57999022, -1.71335176
7399, 37.2534494, 2.7163267, -2.15157371
7400, 38.4430367, 2.52465581, -3.26426168
7401, 17.6644656, -20.7009426, -2.56047701
7402, 18.2400923, -20.1167996, -2.44183698
7403, 15.9592229, -21.0189975, -2.90195785
7404, 16.5381239, -20.4532383, -2.71781063
7405, 38.8965505, -2.15768018, 6.98521834
7406, 39.4799719, -2.10895244, 6.94077521
7407, 39.2020917, -2.11791198, 6.66013866
7408, 38.5508352, -3.63128336, 1.13824216
7409, 18.2297092, -21.4969058, -2.43795288
7410, 16.5413388, -21.8305017, -2.69867567
7411, 30.6680272, -19.1008117, 8.42640537
7412, 31.0252967, -18.9202115, 8.4262682
7413, 31.6754406, -19.3852448, 7.46640391
7414, 38.9901126, -2.12448964, -4.57629451
7415, 39.951357, -1.74845581, -5.14285516
7416, 33.6680185, -18.6546347, 8.87214889
7417, 33.3566722, -18.4674656, 8.87244137
7418, 15.4631024, -24.2751778, 0.84265181
7419, 15.7465421, -24.2757859, 1.15317174
7420, 17.406858, -19.4951889, 3.16502451
7421, 17.9894634, -19.5214065, 2.09451645
7422, 16.6135607, -19.3096801, 1.63494428
7423, 32.4380507, -18.5116015, -8.98449509
7424, 32.4525615, -18.8119162, -8.98457979
7425, 32.2272485, -18.643826, -8.98458402
7426, 15.4371597, -17.2806951, -6.27663947
7427, 15.439942, -16.9979574, -5.94215904
7428, 16.4320489, -24.5440555, -3.50448424
7429, 16.2178233, -24.546867, -3.39290261
7430, 16.4180128, -24.5422619, -3.17432735
7431, 12.9752792, -17.2776153, 0.622447515
7432, 12.810792, -16.9899656, 0.809075934
7433, 13.0228853, -17.0061888, 0.444143937
7434, 16.2400026, -22.4264586, 2.66944702
7435, 34.2764387, 5.78349441, 3.58986441
7436, 35.1583531, 5.05602876, 5.58304227
7437, 30.3862267, -21.8144301, 3.24126195
7438, 31.1646479, -23.0881211, 2.78864828
7439, 31.3502685, -21.4348516, 0.675779131
7440, 23.1796829, -17.9902206, 2.95886242
7441, 22.1507722, -18.0125754, 2.52279326
7442, 21.282658, -17.2517337, 4.06565581
7443, 17.4975342, -17.5252409, 7.63393922
7444, 17.4997372, -18.9762298, 7.60869231
7445, 17.7871531, -18.2787759, 7.54747946
7446, 33.3737907, -17.3905471, 8.92476324
7447, 33.5413205, -17.1033553, 8.92480869
7448, 33.2564343, -17.1106459, 8.92478862
7449, 37.0348539, -2.86610524, 4.07839575
7450, 37.0243665, -3.46385809, 4.94289593
7451, 16.5874536, -23.9847279, 3.2956665
7452, 17.0397983, -24.5328794, 3.2185823
7453, 16.1269006, -24.2778481, 2.23884579
7454, 39.9404174, 3.57319363, 0.631068868
7455, 40.1018149, 4.68141697, 0.786910504
7456, 36.1539623, 3.24156432, -4.40479357
7457, 36.1489789, 4.41425706, -3.10313414
7458, 36.0369857, 2.878685, -2.88626819
7459, 37.2008211, 2.66762658, -4.01166101
7460, 37.3263818, 4.27187945, -4.1679343
7461, 37.9966899, 1.79458454, 3.01944857
7462, 36.8599742, 1.45935925, 2.90403298
7463, 35.7058561, -6.12855327, -4.52240992
7464, 36.8830136, -5.23265159, -4.32710785
7465, 35.6955699, -6.7371909, -5.62454436
7466, 16.7936961, -18.9885884, -3.19450935
7467, 21.870851, -20.4770518, 5.26928007
7468, 23.6703238, -20.5115454, 3.71952939
7469, 22.9009629, -21.337537, 3.49297469
7470, 21.5315479, -19.2675658, -1.90654273
7471, 22.0362321, -18.7389292, -2.17701022
7472, 21.8373715, -18.6025078, -3.16629205
7473, 39.578602, 3.93842746, 0.0311329371
7474, 18.8204738, -21.8541409, -1.09499513
7475, 37.2440178, 1.54323632, -3.38042639
7476, 36.2457022, 2.69946558, -1.00036454
7477, 37.523724, 1.31805898, -1.53596607
7478, 36.2620507, 1.5099957, -2.3241355
7479, 11.0354681, -18.8438489, 4.53380954
7480, 11.2578431, -19.1107088, 4.73912575
7481, 9.43323862, -18.7654255, 5.00182242
7482, 9.85164836, -19.2821334, 4.23240437
7483, 10.028205, -19.5528098, 4.47628723
7484, 11.7208036, -19.5980524, 3.90729466
7485, 12.166561, -16.9922191, 1.48072867
7486, 12.7688634, -17.0027139, 1.78068588
7487, 12.0343257, -17.5819542, 1.54425007
7488, 18.5644589, -21.7754026, 0.172426606
7489, 18.6789807, -20.6573195, -0.0567467138
7490, 19.0447477, -21.776292, 0.0324865752
7491, 21.5527759, -17.7672202, 0.806782956
7492, 35.6887195, -16.5139618, 0.0346196408
7493, 35.6866668, -15.5748035, 0.836895582
7494, 35.6874642, -16.8620817, 1.01699952
7495, 33.5550082, -19.1970419, -9.05138882
7496, 33.3435866, -19.0413406, -9.05140227
7497, 33.661745, -18.9294357, -9.05123351
7498, 15.6409493, -24.3724224, 2.47698717
7499, 15.7605005, -24.3786816, 2.9569768
7500, 15.473019, -24.3801433, 2.90580148
7501, 33.6336494, -19.6801158, 8.83276429
7502, 20.7541082, -18.973125, 1.73259756
7503, 19.9221446, -18.2296649, 3.23356927
7504, 19.9408822, -19.8249502, 2.26478831
7505, 38.3800768, -5.76474137, 1.77790917
7506, 37.8296504, -5.60129302, 1.76242373
7507, 33.868023, -19.581048, 8.83262306
7508, 35.9287143, -19.3874412, -1.04657055
7509, 38.2809536, -1.68836868, 4.18985195
7510, 38.2833689, -2.3174307, 5.03289044
7511, 37.8017592, -3.41996439, 4.4564618
7512, 19.7666097, -20.0535463, 0.34945301
7513, 19.9976713, -20.0551742, 1.41129093
7514, 19.7528265, -20.9673447, 0.756770634
7515, 39.9079471, -4.80930576, 1.62762585
7516, 39.9387026, -3.53059128, 1.43099806
7517, 39.9991892, -4.45871918, 1.22687885
7518, 19.6043785, -17.4977613, 6.96442303
7519, 19.6180987, -17.8033515, 6.69278636
7520, 19.9807845, -21.0185831, -0.523544406
7521, 19.8769328, -22.133289, -0.278969839
7522, 20.1225057, -22.0566687, 0.829243915
7523, 35.3978617, -17.3122893, -0.979177809
7524, 33.5371104, -19.8883739, 8.83279441
7525, 35.0386648, 3.06731345, 4.16376619
7526, 35.0456079, 2.34471789, 3.62488502
7527, 35.0291055, 3.51573988, 2.31174324
7528, 35.0617415, 4.20326946, 2.88056496
7529, 32.0133977, -21.0064235, -8.74541837
7530, 38.4367542, -2.95680665, 6.53223709
7531, 38.7288499, -2.93530836, 6.2207637
7532, 38.0232478, -3.54649701, 6.02000873
7533, 38.219904, -1.78941351, 5.61769872
7534, 37.9251948, -1.79582645, 5.89243207
7535, 26.8120853, -24.0533891, 0.479070196
7536, 26.6568887, -24.1978679, -0.548533545
7537, 39.9635026, -1.52263396, -5.62152406
7538, 22.1797199, -17.3011235, -0.888798409
7539, 21.9628046, -18.0265831, -1.19346955
7540, 22.0959407, -17.714316, -1.40684751
7541, 21.8516661, -17.267169, -1.69909849
7542, 15.3169689, -24.3776643, -2.74657369
7543, 15.4987523, -24.3781143, -2.96483906
7544, 15.7018458, -24.3758611, -2.74651784
7545, 37.8951794, 4.96951833, -1.51163174
7546, 39.7449846, 3.77412496, 4.16318918
7547, 38.9814824, 5.64864521, 3.08090557
7548, 38.424369, 4.97053982, 4.33284443
7549, 34.0374398, -19.5723685, -8.85709046
7550, 34.0108037, -19.3232776, -8.85700671
7551, 34.2750949, -19.3501801, -8.85675414
7552, 35.0538426, 3.39061274, -2.08142485
7553, 35.0238601, 2.21893134, -3.40295645
7554, 35.2497106, 2.03186044, -1.53836484
7555, 14.9870752, -24.2487062, 3.40772305
7556, 15.2391498, -24.3214992, 3.43628436
7557, 15.1797791, -24.1236037, 3.6120576
7558, 34.1418565, -7.63678424, 3.34250775
7559, 35.0259832, -7.49819196, 2.29052969
7560, 13.6478687, -21.2486992, 1.82228952
7561, 13.3874974, -20.4992302, 2.16014799
7562, 14.5427838, -21.681147, 2.2294294
7563, 14.5660975, -20.6697712, 1.62057202
7564, 14.7461998, -21.4203797, 1.23168225
7565, 16.9367022, -18.9885878, 3.35334125
7566, 18.2041297, -16.8532547, -4.57824233
7567, 18.0749791, -17.2911267, -4.50547376
7568, 35.1617423, -1.50595812, -0.93126021
7569, 35.1597004, -0.736564645, -1.21534957
7570, 35.1195086, -0.709064052, 0.358709692
7571, 36.3002331, -1.53041363, 0.0861700915
7572, 35.1189403, -1.49193432, 0.661018123
7573, 16.0941365, -24.2090004, -1.39705901
7574, 16.2645287, -24.2099003, -1.92632813
7575, 16.6330878, -24.2075888, -1.50484328
7576, 17.2758197, -24.2058209, -1.60712425
7577, 16.8317318, -24.209231, -2.12322122
7578, 17.5491367, -24.2084341, -2.27261557
7579, 35.6982391, -16.8313158, -3.3607256
7580, 35.690142, -15.4090386, -3.083707
7581, 35.7045099, -16.2120571, -4.38219863
7582, 14.815054, -22.1322836, 0.904573229
7583, 15.5374841, -22.6810571, 0.700546175
7584, 20.6809531, -21.0616808, -3.26241319
7585, 37.2960559, -2.19303132, 3.17662779
7586, 37.9776271, -3.22645785, 1.64785562
7587, 37.5461689, -3.44503436, 3.11339796
7588, 15.8408624, -18.9927713, -3.56952301
7589, 15.0442145, -19.9739672, -3.14964396
7590, 14.7771683, -20.4719507, -4.02097371
7591, 15.5641329, -20.447629, -3.20210628
7592, 14.7799669, -21.4552225, -2.76366312
7593, 14.5295063, -17.0470288, -2.44270783
7594, 14.2627555, -17.7473411, -1.99085275
7595, 13.6527846, -17.2741444, -2.52758868
7596, 14.4621025, -17.2670832, -4.02045952
7597, 14.1708262, -17.9756247, -3.57961756
7598, 15.0568492, -17.7435626, -3.49079945
7599, 39.946848, -3.557011, 0.577805184
7600, 19.3002398, -17.8030954, 7.34796701
7601, 11.4587826, -17.0009044, -1.63159119
7602, 39.9983553, 2.9784475, 6.64098921
7603, 12.9158162, -20.3324813, 4.38228089
7604, 38.0395839, -1.65655458, -3.60623109
7605, 37.4291345, -1.41562152, -2.05949756
7606, 36.9200206, -1.77205971, -2.97505786
7607, 37.9864546, -2.90625012, -4.2387407
7608, 38.4871047, -2.61780854, -3.36004104
7609, 15.2233803, -24.247476, -0.0349452561
7610, 14.9165008, -24.2461751, 0.394588268
7611, 15.6095666, -23.5250442, 0.60472104
7612, 17.4226876, -24.318514, -0.734100193
7613, 23.5603783, -17.0193837, -1.64574882
7614, 35.6092464, -16.2069608, -8.84251188
7615, 35.275117, -16.3377802, -8.8423769
7616, 35.2663965, -16.0065145, -8.84254146
7617, 20.0335012, -20.0942117, -0.977090207
7618, 32.247137, -18.469326, -8.98453463
7619, 38.8645014, -3.48685041, -1.31588159
7620, 38.0044673, -3.29212841, -0.564171305
7621, 38.4840417, -3.4738911, -2.36382809
7622, 37.980376, -2.61368753, -1.75470017
7623, 26.6364451, -21.439422, -3.25266322
7624, 28.7584305, -23.2876863, -3.16950506
7625, 28.3887897, -21.8123992, -1.80115661
7626, 39.7065063, 1.799156, 5.78653097
7627, 38.2308634, 1.80376505, 5.65185368
7628, 38.9903055, 2.39011116, 5.68719586
7629, 39.7213772, 2.3919474, 5.20534974
7630, 38.2733486, 2.35762508, 5.07680023
7631, 38.9714922, 1.80037513, 5.20610419
7632, 37.0317814, 2.49304552, -0.519007783
7633, 13.9303306, -24.6523654, -1.28503057
7634, 13.9531086, -24.65565, -1.56383832
7635, 13.8618644, -24.1844716, -1.91563702
7636, 34.787676, 6.24355439, -4.34537513
7637, 34.7842612, 6.67447135, -4.73469263
7638, 35.9187898, 5.85047864, -4.28029699
7639, 21.0547618, -17.0513126, 0.576648987
7640, 35.1607833, 4.35782781, 4.40541068
7641, 16.0027714, -24.2764159, 1.76591714
7642, 14.7354017, -21.4133429, -1.25497193
7643, 15.4772704, -22.4676773, -1.10628969
7644, 19.858949, -24.5867373, -3.33470137
7645, 18.9367492, -23.5431483, -2.47576555
7646, 14.2119566, -20.4826811, -6.00655723
7647, 14.4224885, -20.4914164, -6.53848829
7648, 14.6437273, -20.498092, -5.95194684
7649, 17.1854108, -22.1470328, -1.91708886
7650, 19.5104505, -17.7647694, -5.68672065
7651, 19.5152984, -18.2822554, -5.65971411
7652, 19.2716611, -18.0262221, -5.27026337
7653, 11.7009937, -20.4513225, -4.1642931
7654, 11.4485214, -20.4499036, -4.53007334
7655, 12.0514398, -20.4505488, -4.47763917
7656, 37.7183018, 7.12125245, 3.60442303
7657, 35.9841279, 7.55183394, 4.59104002
7658, 36.9810502, 7.94610448, 3.27591381
7659, 14.5535634, -20.8838419, -8.59912966
7660, 15.0361767, -20.8919244, -8.76029517
7661, 15.4288673, -19.8904043, -8.60360062
7662, 16.0273286, -20.4628712, -8.39015563
7663, 15.5032016, -20.4770075, -8.24473248
7664, 39.7424361, 0.314926757, -7.55326201
7665, 40.0848372, 0.137788557, -7.60234275
7666, 20.3908604, -18.8572976, -3.52559594
7667, 20.6767442, -19.372634, -4.39883945
7668, 34.2800108, 0.796884966, -2.29679232
7669, 35.2850477, 0.873386327, -3.66647999
7670, 35.0429678, 1.64827156, -2.69002443
7671, 35.2429453, 1.4582712, -0.862935815
7672, 35.5167819, 0.662498542, -1.89476007
7673, 32.2265719, -19.5549501, -8.69881405
7674, 32.2719386, -19.307773, -8.69845102
7675, 32.4971393, -19.4758848, -8.69852631
7676, 37.9520258, -1.81005114, 2.95988079
7677, 34.2783035, -5.83548829, 3.88652371
7678, 37.3887584, -1.8270405, 1.76828992
7679, 18.3592521, -23.9799884, -1.02514692
7680, 18.6461882, -23.9791591, -1.68540358
7681, 17.6372112, -23.1828978, -1.44857252
7682, 20.9626345, -19.5644526, -1.13264973
7683, 20.8183375, -18.9979125, -0.600699811
7684, 19.7169091, -19.5788967, -1.01924133
7685, 34.4521989, -17.5230795, 8.90006184
7686, 14.7410921, -23.1274295, 1.33388677
7687, 14.9023195, -22.972678, 0.804844246
7688, 14.8271356, -23.5821651, 1.12005016
7689, 16.5298779, -19.0019683, 7.80610871
7690, 16.2451788, -18.7548159, 8.65030889
7691, 15.3102713, -19.2804723, 8.38840323
7692, 15.6103076, -19.2680367, 8.44961389
7693, 16.5755384, -18.7498639, 8.68393829
7694, 15.7940624, -24.2116273, -1.68867311
7695, 15.8358883, -23.590841, -2.46181843
7696, 36.8717708, 5.94909316, -3.46820336
7697, 36.1465941, 5.39865467, -3.52838093
7698, 36.8992661, 4.87751691, -3.40504513
7699, 32.8439901, -19.0401593, -9.05158618
7700, 21.4814403, -21.2717409, -3.75967147
7701, 11.6274698, -20.9982996, 2.92075366
7702, 10.7462145, -20.7689527, 3.60268523
7703, 11.3507734, -20.2707949, 3.00833228
7704, 16.2151982, -19.6014192, -3.23310365
7705, 14.4801825, -24.5281138, 2.28140277
7706, 35.5458388, -15.8504694, -8.84266906
7707, 14.693584, -23.9064454, -2.64455272
7708, 14.8184685, -23.7696195, -1.32956987
7709, 15.2482431, -23.6272688, -1.58554061
7710, 36.555879, 6.99024679, -3.09047393
7711, 35.8072779, 6.44524463, -3.20664428
7712, 14.1768053, -24.5847174, -0.642292158
7713, 14.4187354, -24.5737369, -0.34873785
7714, 14.6511479, -23.837232, -0.230942858
7715, 34.2864589, -7.99454814, 3.00022667
7716, 35.2351397, -7.8155528, 1.82317251
7717, 35.0966953, 2.23744136, 2.42574211
7718, 14.6056526, -23.5549197, 0.250544982
7719, 32.4870439, -19.8082746, -8.69897826
7720, 32.802441, -19.8624104, -8.69864455
7721, 32.8333565, -20.1130992, -8.69912285
7722, 17.7879532, -22.5043141, -0.571937569
7723, 17.0301685, -22.8331014, -2.79087787
7724, 16.7074282, -22.737985, -1.1520635
7725, 35.066048, -3.66635334, -2.33935745
7726, 35.0314602, -2.46927398, -3.67023443
7727, 35.1763789, -2.43551761, -2.32332053
7728, 36.1742794, -1.66631325, -2.84849726
7729, 15.1542764, -24.374849, 2.27368208
7730, 15.2466524, -24.3768758, 2.69484842
7731, 14.9154725, -24.3781474, 2.53313716
7732, 37.7717435, -8.19728106, 3.11939785
7733, 37.7563097, -8.83510767, 0.849578846
7734, 15.2469399, -24.3218228, -3.44494723
7735, 14.9948561, -24.2480586, -3.41521079
7736, 15.1887136, -24.1287209, -3.61833733
7737, 32.4840492, -18.0515727, -8.9843859
7738, 32.5064543, -18.2739998, -8.98442571
7739, 32.2774941, -18.270194, -8.98446973
7740, 10.785951, -20.8877701, -6.00693672
7741, 10.4551639, -20.8852247, -5.60860874
7742, 10.919045, -20.4732473, -4.61821244
7743, 10.8389138, -19.8652919, -5.26337071
7744, 11.2586429, -20.4640104, -4.99870719
7745, 37.9483655, 2.79552856, -4.13907529
7746, 37.95885, 3.10641501, -5.15742155
7747, 39.4072622, 3.33651094, -4.89207428
7748, 20.8341685, -20.3771054, -4.63040012
7749, 11.4576979, -19.1030939, 4.97009265
7750, 10.3356284, -19.0160531, 3.634277
7751, 12.216067, -19.2961621, 3.31402528
7752, 10.9628702, -19.7688412, 3.06443228
7753, 22.2842357, -18.0396991, -1.57779297
7754, 22.1763485, -17.2692444, -2.74052141
7755, 21.2776138, -18.7323326, -1.34915712
7756, 20.9716106, -18.2525085, -1.36206624
7757, 36.027209, 0.00298874305, -3.48136204
7758, 35.4430091, -0.774251288, -2.38550943
7759, 36.9087044, -0.77727883, -2.50579112
7760, 37.0045743, 0.673214587, -1.99508841
7761, 36.4100266, -0.101478524, -0.978949068
7762, 14.0475814, -20.9002005, -8.32239274
7763, 14.7172181, -19.9104328, -7.78258455
7764, 14.8516693, -20.5090619, -7.37869983
7765, 14.3787402, -20.4971443, -7.10097481
7766, 34.2798455, 0.0423753916, -2.15701221
7767, 35.2424605, 0.70873734, -0.690344923
7768, 15.9537278, -23.4610384, -1.15863442
7769, 15.3534149, -22.6014492, -2.40608192
7770, 16.071634, -22.4273899, -1.97376797
7771, 35.0714105, -2.13183369, -8.04561193
7772, 35.2876623, -2.26856201, -7.06684992
7773, 34.2953324, -2.59676376, -7.55955306
7774, 34.2726767, -3.66012708, -6.72766456
7775, 35.0121232, -3.39214337, -7.20570163
7776, 13.04229, -20.3310964, 3.92090523
7777, 12.5336346, -20.3324396, 4.0646546
7778, 12.6197847, -19.8220992, 3.23481211
7779, 34.2788506, -0.894983534, -2.69670465
7780, 34.1468592, -1.57739259, -2.88476697
7781, 35.281066, -1.48172669, -2.5515236
7782, 35.1588263, -1.66492264, -1.80009111
7783, 18.8823047, -19.7818289, -3.24753033
7784, 34.28997, -3.54521385, 6.20696272
7785, 35.2717174, -2.50636944, 5.98602601
7786, 36.2874427, -3.49171004, 5.47854466
7787, 35.5124764, -3.55789107, 4.89946915
7788, 36.9443897, -4.7039481, -3.26523296
7789, 13.9116401, -17.0494222, 0.635746506
7790, 35.2649272, -15.6781554, -8.84267637
7791, 35.2540793, -15.4099532, -8.84274573
7792, 20.6667494, -21.859341, -3.2743756
7793, 34.2366145, -18.2723675, -9.02891779
7794, 14.4446816, -24.0879288, -1.05446873
7795, 14.1271764, -24.0902248, -0.946216261
7796, 14.5876403, -23.339461, -0.523115701
7797, 14.0469961, -23.6154521, -1.57708592
7798, 18.2356227, -19.6055797, -0.686091133
7799, 16.6182035, -19.3367318, 0.108566235
7800, 34.1439327, -21.5865132, -2.57697179
7801, 32.8940631, -21.1384189, -2.57111939
7802, 34.9345106, -21.1389325, -2.57382052
7803, 39.4558074, -3.44888527, -5.01366242
7804, 37.9909054, -3.24342786, -5.26109276
7805, 16.0262301, -24.213116, -2.31708026
7806, 16.4121228, -24.2097599, -2.31659597
7807, 20.4561294, -23.2474637, 4.5439932
7808, 21.7675353, -22.8849733, 3.37711554
7809, 20.4090809, -23.4275349, 2.9159286
7810, 19.5508853, -22.5333689, 3.33793147
7811, 20.8677441, -22.1058898, 2.18339801
7812, 20.9231358, -21.9877058, 3.82275689
7813, 14.5854858, -24.5247445, -2.24605166
7814, 13.61957, -17.3013347, -0.498103226
7815, 13.6073464, -17.0186947, -0.219379819
7816, 36.5596523, -15.6773706, -8.84971054
7817, 36.8800267, -15.3379208, -8.84975802
7818, 36.9106856, -15.763822, -8.84951572
7819, 38.7830754, 3.55180241, -1.23440567
7820, 39.2971325, 3.2984403, -1.86172945
7821, 38.9720268, 3.06764132, -2.87876202
7822, 38.4770073, 3.37234524, -2.28336806
7823, 19.2857688, -23.9805762, -0.166827477
7824, 19.5062532, -23.9023287, 0.969152857
7825, 19.0879651, -23.9775794, -0.958823018
7826, 14.8907845, -21.3134361, 0.176834809
7827, 14.8550953, -20.802771, -0.187379719
7828, 20.4281654, -22.8977938, 1.55792532
7829, 19.1256399, -23.3055846, 2.73813242
7830, 19.5721108, -22.0250478, 2.00355951
7831, 18.035582, -16.9403784, -7.44476947
7832, 33.6512096, -18.0250365, -9.04188252
7833, 33.3895841, -17.8730451, -9.04192583
7834, 33.6500318, -17.7129964, -9.04191024
7835, 35.1162811, -1.02858427, 1.52123499
7836, 36.9784543, -13.5168013, 8.12822634
7837, 35.9947752, -11.8379951, 6.44671479
7838, 34.9778754, -11.8310887, 7.82177626
7839, 36.9761876, -12.3574885, 8.53943724
7840, 35.991048, -10.6933592, 6.85480196
7841, 21.2535714, -23.9246045, -3.81306777
7842, 13.6069952, -24.5340398, 1.51267646
7843, 13.9375303, -24.531798, 1.61200641
7844, 13.9327053, -24.5262867, 1.27520135
7845, 18.0458158, -23.6161376, -2.98985667
7846, 14.0743731, -19.2865411, 4.80446188
7847, 13.830828, -24.0626802, 1.9359633
7848, 39.9108283, -5.35055069, 2.31139421
7849, 39.9059082, -5.39285068, 1.57881107
7850, 35.5418865, -14.1229028, 8.40951679
7851, 36.5629618, -14.122965, 7.03675804
7852, 37.0678383, -14.4024627, 7.41498118
7853, 35.6297002, -15.0130899, 7.6962651
7854, 36.0461642, -14.4057191, 8.7888835
7855, 35.169074, -3.85598785, -3.67328784
7856, 33.3706681, -18.1659204, 8.8722154
7857, 38.9870106, -5.65607362, 2.99241206
7858, 39.0082069, -4.64614346, 2.50988161
7859, 38.5065125, -4.9422475, 3.97680149
7860, 33.3503436, -18.7421528, -9.05130981
7861, 39.9550468, -2.3721073, -3.2526797
7862, 39.9510719, -2.98175346, -2.45027782
7863, 38.9963857, -3.16419969, -2.96475062
7864, 39.4579961, -3.76088952, -3.48495614
7865, 39.4434649, -3.11884722, -4.283749
7866, 38.7719956, -2.35571708, 3.19995474
7867, 35.5525852, -17.1049767, 1.01695476
7868, 35.5535322, -16.7582415, 0.0348323423
7869, 39.0678588, -4.75887936, -1.53684285
7870, 39.8188122, -4.62767007, -2.71141141
7871, 34.4044928, -17.6920856, -2.5026027
7872, 37.0221709, -18.3940783, -3.507961
7873, 34.9327738, -19.7752474, -2.57089842
7874, 26.3914428, -19.2434694, -1.11158624
7875, 26.4191958, -20.0551674, -0.656757088
7876, 26.1341488, -20.1570796, -1.64691716
7877, 37.9983821, 3.29674426, -0.569366529
7878, 15.5363841, -20.5251451, 3.93776153
7879, 15.6354753, -21.5118605, 3.87551635
7880, 15.2087198, -21.68052, 2.88636837
7881, 33.1008677, -19.1766652, -9.05151162
7882, 33.1492823, -19.4267018, -9.05159891
7883, 32.8342015, -19.3727075, -9.05173473
7884, 20.4710305, -21.2659512, 1.50336177
7885, 19.2030996, -20.8966375, 1.92548746
7886, 36.8714099, -1.30430927, 2.75622554
7887, 31.5341841, -24.5139954, -2.69936408
7888, 32.7118484, -22.7696797, -4.52367007
7889, 30.7705437, -23.3170122, -3.13967577
7890, 31.7475266, -22.8894259, -0.689226516
7891, 33.6869691, -22.3832414, -2.08838206
7892, 12.9242405, -17.7240001, -1.43222387
7893, 13.0608042, -18.017296, -1.20043018
7894, 13.173686, -17.2803664, -1.6990365
7895, 35.8351106, -18.3083652, -6.27709637
7896, 35.8359409, -18.3064299, -8.52498068
7897, 36.0691531, -17.9923292, -6.27564618
7898, 30.295489, -20.6964771, 8.25565343
7899, 39.7519202, 4.69707894, -2.62455445
7900, 39.1453455, 4.81656796, -1.46747652
7901, 15.1849466, -24.3811512, 3.10987265
7902, 33.3408517, -19.3162206, -9.05149313
7903, 18.8598052, -16.8531662, -5.3070969
7904, 19.0468641, -17.0256794, -5.62733773
7905, 36.0701769, -17.991269, -8.52534279
7906, 39.3546242, -3.2250309, -1.94437562
7907, 38.8695249, -2.76392455, -2.42517966
7908, 35.1981313, -22.1503877, -0.0689973075
7909, 35.0170846, -22.3157526, -0.0683738083
7910, 36.1679705, -23.3575953, 2.12994834
7911, 36.3487732, -23.1932826, 2.12980783
7912, 36.9035212, 3.37990467, -4.54377139
7913, 18.8484607, -24.5660461, -3.29424693
7914, 32.8991454, -17.7162976, -9.04196525
7915, 33.1023427, -17.4963104, -9.04194989
7916, 33.1516798, -17.756806, -9.04194363
7917, 14.2342627, -18.9673313, 1.73702714
7918, 14.545643, -19.9604716, 2.70975935
7919, 13.6867577, -20.4843495, 2.53267635
7920, 14.8221288, -21.6726265, 2.61052655
7921, 15.4224219, -20.1576229, 1.78785433
7922, 35.5528483, -17.0822981, -0.977288783
7923, 22.1971772, -18.8263176, 1.19750591
7924, 21.9511667, -19.0942253, 0.889327698
7925, 21.1343861, -18.4853786, 1.14233602
7926, 39.9572677, 2.37070601, -3.24890612
7927, 39.9507996, 2.98092857, -2.44679397
7928, 39.402424, 3.01983174, -4.1897916
7929, 39.4209069, 3.67207719, -3.39780938
7930, 36.2433613, -17.7017482, -6.27590413
7931, 34.0170745, -15.9842292, -9.00865268
7932, 34.2837225, -15.9569724, -9.00872688
7933, 34.150392, -16.2282055, -9.00863093
7934, 40.0969984, 5.31915416, 1.47921366
7935, 39.5101557, 5.47182291, 1.54755149
7936, 19.2561658, -18.7289643, 4.21296832
7937, 19.2995235, -20.3568385, 3.18827973
7938, 36.3731944, -0.080756468, 0.606961152
7939, 15.5033593, -24.2501276, -0.51226346
7940, 15.7211251, -19.0280457, 2.98158656
7941, 15.1737069, -20.4973328, 3.64418338
7942, 32.3902824, -20.9592614, 8.88297273
7943, 35.1375324, 3.74528499, -3.60538821
7944, 13.7476935, -20.49422, -1.7363341
7945, 12.9430167, -20.5136486, -2.47852327
7946, 14.7307979, -20.4713822, -1.24551731
7947, 14.1316286, -20.4456863, -2.17525324
7948, 14.5223461, -21.4153275, -2.4139645
7949, 37.0767967, -12.2727944, -8.53871832
7950, 37.0770579, -13.4252717, -8.12913461
7951, 36.8099668, -12.3676616, -7.52461937
7952, 36.8133509, -13.5173164, -7.11419597
7953, 35.894994, -13.4345328, -8.48741853
7954, 26.0567675, -24.1973415, -1.92473871
7955, 19.4975704, -17.0071328, 7.19288615
7956, 20.1945834, -16.9743655, 6.67127543
7957, 39.9969674, -2.00633317, 7.18892783
7958, 40.0266606, -2.69966542, 6.66543876
7959, 20.1011768, -17.2847483, -5.10821234
7960, 34.7848326, 6.9302215, -4.29433399
7961, 14.6545192, -22.2831043, 1.43144401
7962, 34.2772538, 3.16479396, -4.05879576
7963, 34.2801439, 2.41284634, -3.47949228
7964, 35.2824238, 1.85090671, -4.30476727
7965, 35.0236704, 2.98107082, -3.99731488
7966, 24.6589681, -22.481414, -3.37565792
7967, 23.6461852, -22.3873048, -3.71669617
7968, 24.6914405, -21.4000131, -3.40155572
7969, 22.1387459, -23.927614, -3.69705671
7970, 22.6789535, -23.0387675, -3.78401658
7971, 33.2540458, -24.4996212, 2.02693455
7972, 33.4970295, -24.4839694, 2.02086427
7973, 33.4294844, -22.8853027, -0.0704945606
7974, 33.675165, -22.8719355, -0.0688828372
7975, 32.4279927, -20.1418013, -6.59958162
7976, 33.2094954, -19.5975388, -6.83396086
7977, 33.218367, -20.9555261, -6.78019559
7978, 32.4690281, -20.6997103, -7.22183993
7979, 33.2413151, -20.1604067, -7.45273789
7980, 32.4488241, -19.3428557, -7.27751526
7981, 15.1406253, -17.0398442, -3.25679491
7982, 15.1132856, -17.2832229, -4.81136012
7983, 35.0248746, -9.46322657, 1.74715509
7984, 35.9945034, -11.39437, 2.37255031
7985, 35.0129835, -9.12564467, 2.35575495
7986, 14.1343968, -24.301305, 0.919477132
7987, 15.1950193, -24.3801781, -3.11820099
7988, 36.0066792, -4.57671671, 7.64123545
7989, 37.0326891, -3.59887918, 7.40138277
7990, 36.9946591, -3.22117845, 8.01143963
7991, 16.7006081, -23.5270405, -1.15750865
7992, 36.2267517, -1.90137782, -8.53536819
7993, 36.9400882, -2.18885933, -8.1139395
7994, 36.9803573, -1.43202431, -8.8341325
7995, 19.4565736, -19.5130628, 0.284700346
7996, 15.5077521, -19.3035812, 1.03574968
7997, 34.4420773, -17.8297806, 8.89990054
7998, 36.6482825, -15.294021, 8.78802313
7999, 36.2970987, -15.2075921, 8.78821399
8000, 39.700085, -3.89271358, -0.533417791
8001, 40.0369765, -3.99431682, -0.742117604
8002, 39.0766145, -4.41959751, -1.16248815
8003, 39.414286, -4.55567131, -1.36055186
8004, 39.8246503, -3.50645076, -1.31979921
8005, 33.1330943, -18.0422012, -9.04194059
8006, 32.8532008, -18.1763549, -9.0420208
8007, 32.9215596, -17.9387565, -9.04198143
8008, 20.2550735, -24.1726844, -0.439745477
8009, 20.5033486, -24.3959258, -1.29505335
8010, 19.8816521, -23.1426922, -0.353611607
8011, 33.257968, -24.4971121, -2.02094789
8012, 14.9704482, -22.9697867, 2.02968505
8013, 13.9412332, -23.3759776, 1.78248582
8014, 39.4797746, 0.016225724, 7.62030397
8015, 38.53461, -0.27532547, 7.55118982
8016, 38.0191574, 0.00451669682, 7.61336107
8017, 20.6349028, -18.9874842, 0.738955616
8018, 19.0980527, -19.5053847, 1.5340811
8019, 36.6176842, -14.8685946, 8.78841561
8020, 15.5206227, -24.075112, -3.52711816
8021, 15.4845972, -23.6544152, 2.17762394
8022, 35.1301326, 4.54381769, -4.17003179
8023, 35.4162641, 3.43870236, -4.46753496
8024, 34.2798002, -3.296977, 8.55807847
8025, 35.0218528, -3.10321517, 8.62719149
8026, 33.7365086, -24.451459, 2.02166862
8027, 33.9183885, -22.8352135, -0.0681640981
8028, 34.881743, -17.0409602, 4.87689151
8029, 35.5679893, -17.1010961, 3.40012155
8030, 37.34443, -18.0015894, 3.54705442
8031, 37.1201883, -18.3177769, 3.54035264
8032, 34.6470924, -17.3559072, 4.87495666
8033, 16.2445816, -24.3194636, -0.517351204
8034, 16.7821892, -24.3188944, -0.630709609
8035, 35.043459, -2.24259593, 3.50717551
8036, 35.0359502, -3.41802828, 2.18643742
8037, 35.2679167, -3.5011527, 3.46538636
8038, 15.6992028, -17.2897394, 5.73479844
8039, 15.7053468, -18.7598312, 5.60222262
8040, 15.1053575, -18.0146319, 5.69285117
8041, 15.1393002, -17.2767741, 5.13406626
8042, 15.1496469, -18.7422166, 4.99132561
8043, 15.7350305, -18.0333384, 5.09142318
8044, 35.2884316, -8.22179468, 1.13844458
8045, 34.2836526, -9.27781027, 2.28645916
8046, 33.9753974, -24.3984901, 2.01961822
8047, 34.1566554, -22.77581, -0.0685101348
8048, 16.6674248, -24.5413169, -3.37299649
8049, 35.4714539, -16.0819293, 8.26079763
8050, 33.9313538, -16.3291632, 8.27323993
8051, 34.1800763, -16.3432876, 8.27333118
8052, 34.1087371, -16.0671866, 8.27344397
8053, 14.7022599, -18.2456943, -2.4838041
8054, 15.59816, -18.2432026, -3.86672638
8055, 21.7283459, -19.0971296, -0.165177335
8056, 20.9701555, -18.4843037, 0.113329651
8057, 19.4115159, -17.3198325, 7.27817569
8058, 35.0222505, 4.16000208, -2.67090734
8059, 19.9049705, -18.756673, -5.04867249
8060, 15.9477257, -23.3692277, 3.2518534
8061, 36.8873624, 3.61439476, -5.57206061
8062, 21.2632676, -17.522201, 2.69100745
8063, 35.6879175, -15.4196364, -0.703954585
8064, 35.6885427, -16.8391777, -0.978583663
8065, 21.646712, -18.0129824, 1.85797256
8066, 22.1599792, -17.2951102, 1.52278722
8067, 21.0417172, -17.0640875, 1.42207023
8068, 15.4036708, -22.8143507, 2.27040623
8069, 14.6790154, -23.9103627, 2.6358275
8070, 30.4848398, -20.1857743, 7.17996263
8071, 30.8587207, -20.6983161, 7.29408224
8072, 37.8840451, 4.16772667, -0.132406966
8073, 37.8795877, 4.32431637, -0.668112596
8074, 38.2368226, 4.22097182, -0.477101701
8075, 11.8253021, -20.8181329, 5.36475307
8076, 11.9477719, -20.8153554, 4.82039492
8077, 11.1373324, -20.102534, 4.66203533
8078, 19.2958997, -19.0136588, 2.98431128
8079, 34.6464135, -17.3554979, -4.87612587
8080, 34.8816832, -17.0404811, -4.87731969
8081, 35.5671666, -17.0769748, -3.35868019
8082, 37.3432482, -17.979005, -3.50767294
8083, 37.1199657, -18.2944436, -3.50158426
8084, 34.596761, -17.4917414, -8.95598622
8085, 34.8448785, -17.670549, -8.95592541
8086, 20.1163354, -23.0667275, 0.771694159
8087, 38.9967635, -4.13381738, 1.86585339
8088, 14.0313823, -23.830319, 1.57807858
8089, 34.5614086, -17.4615098, -2.50537392
8090, 36.7290034, -14.9179819, 5.52944453
8091, 36.7497969, -14.5277179, 6.76286203
8092, 36.7304764, -14.9180234, 6.83173398
8093, 13.4859429, -20.8876003, -8.08804612
8094, 13.0471168, -20.8911764, -7.81279273
8095, 13.0883656, -20.8041854, -6.89421705
8096, 12.6504093, -20.8053796, -6.61518724
8097, 12.8970604, -20.1922847, -7.30435967
8098, 36.0202961, -7.59189627, 5.94998707
8099, 35.9932144, -6.96415245, 4.97169601
8100, 37.2241353, -6.4098818, 4.62429379
8101, 35.7818363, -3.65225454, -6.73020737
8102, 37.7774998, -3.5697592, -7.4417236
8103, 36.9797398, -3.35631342, -7.890095
8104, 36.0062344, -4.81290297, -7.57089228
8105, 15.5058272, -24.2490533, 0.279734737
8106, 29.3933797, -21.9548513, -0.624888327
8107, 29.6623008, -21.8888782, -0.623418758
8108, 28.982609, -20.4998221, 0.741718387
8109, 29.2542189, -20.4336134, 0.742134057
8110, 9.46579265, -20.405149, 2.63079945
8111, 9.05748743, -19.8717437, 2.28606594
8112, 9.46874292, -20.1653419, 3.37426061
8113, 9.95499675, -19.7742028, 2.65580769
8114, 10.4190693, -20.2978341, 2.9566686
8115, 17.9839646, -19.5305115, 0.615229919
8116, 35.4378, -18.8670192, 8.64975923
8117, 35.4360415, -18.8741623, 6.4147544
8118, 35.6065812, -18.6811743, 6.40291638
8119, 33.4074113, -17.543176, -9.04192781
8120, 35.0443115, -3.00609203, 4.13853847
8121, 35.2659768, -4.25240469, 4.12826144
8122, 35.0273437, -3.61654383, -6.19141132
8123, 35.0650502, -3.24643704, -5.11256311
8124, 35.1775123, -4.22689156, -4.52464939
8125, 36.2052003, -3.42658943, -4.86603111
8126, 35.1106317, -2.00473386, 2.13635643
8127, 9.25646108, -20.8876763, -3.50752264
8128, 9.79524915, -20.893884, -3.99115184
8129, 9.718134, -19.876686, -3.21190733
8130, 10.5242522, -20.4951584, -3.00483655
8131, 9.9846496, -20.4954407, -2.55470483
8132, 12.7294494, -18.0461028, -1.60262581
8133, 37.2876112, -3.56843317, 6.5476614
8134, 36.2621535, -4.58991858, 6.76816896
8135, 37.5084919, -4.64873748, 5.43511503
8136, 36.2999634, -5.87410621, 6.82866822
8137, 39.4759841, -3.75524207, 2.69385562
8138, 39.4783822, -3.23575871, 2.01664058
8139, 36.1877953, -2.5326828, -0.495115012
8140, 36.8781413, -2.57093101, 0.587980256
8141, 36.1322677, -2.58374952, 1.15864725
8142, 34.278619, 4.56138844, -3.05414799
8143, 35.2526085, 4.45738475, -1.97535393
8144, 35.4127216, 4.81045059, -3.489318
8145, 15.9780574, -24.6299733, 3.45913257
8146, 16.0452335, -24.6344082, 3.85086148
8147, 15.6989128, -24.6423329, 3.66929117
8148, 36.8561412, -16.7536029, -6.60036748
8149, 37.0254962, -16.3974653, -8.84947246
8150, 37.0241178, -16.3988959, -6.56056797
8151, 34.2873963, -3.33266101, -5.68752283
8152, 35.3013963, -2.50719657, -6.02619987
8153, 10.0115751, -18.5451638, 1.32209545
8154, 9.95533074, -18.0102024, 1.21697139
8155, 10.1662445, -18.2293442, 1.59248651
8156, 19.6222124, -18.0138696, -4.53777135
8157, 36.1439914, 3.59624647, -5.03059062
8158, 14.2483118, -17.5237136, 2.19766097
8159, 13.2203158, -19.3038082, 2.86683303
8160, 13.1293194, -17.8308027, 3.35096974
8161, 14.0753162, -18.7828224, 2.99472768
8162, 39.9139761, 1.25580496, -5.18952497
8163, 35.7016942, -18.5761908, 8.65058285
8164, 40.0927901, -1.56263494, -4.8202218
8165, 39.480007, -1.8162019, -3.63264914
8166, 39.1285363, -1.07768233, -3.92045543
8167, 38.5437479, -0.96529216, -3.86531379
8168, 39.5149761, -1.45846864, -4.75255335
8169, 37.0368522, -8.77542523, -0.799517269
8170, 36.2653083, -9.11967168, -0.315939129
8171, 35.2573268, -8.26344185, -1.07263834
8172, 35.0298254, -9.40246923, -2.00984662
8173, 34.2811235, -9.70739789, -1.53223556
8174, 36.0094152, -10.2279708, -1.26717082
8175, 21.9102266, -21.9582661, 3.4853672
8176, 35.9719246, -14.9290868, 8.78852423
8177, 35.2439576, 0.402919366, 0.471363755
8178, 35.1414398, -19.1418777, 6.51762053
8179, 10.52212, -20.8942308, 5.46731018
8180, 10.1444749, -20.8943147, 4.97450894
8181, 9.99472572, -20.2716071, 5.75928374
8182, 11.1065026, -20.2138614, 5.94471475
8183, 10.7253726, -20.2191492, 5.45410495
8184, 11.2619662, -20.8236033, 5.15207216
8185, 37.9025234, -1.70235357, 5.34814615
8186, 37.8898669, -1.65604453, -6.72796067
8187, 10.6823218, -20.8906294, 5.97908501
8188, 11.4211338, -20.8220946, 5.663633
8189, 36.8577038, -16.7522978, -8.8492332
8190, 20.4254535, -24.1433544, 0.355983992
8191, 16.2616693, -24.6298575, 3.49105251
8192, 15.6130633, -24.0177085, 3.42517677
8193, 35.3119041, -15.1362185, 7.04196213
8194, 35.8157393, -15.4203578, 7.42259823
8195, 35.1946448, -2.06035989, -8.99009093
8196, 36.2180363, 0.129015928, 1.81296693
8197, 35.1033102, 0.622879284, 1.67355005
8198, 36.3369103, 1.54481808, 0.774864298
8199, 22.4625971, -19.098813, -1.54157421
8200, 37.9100599, 1.67517407, 5.36564702
8201, 37.9092991, 1.80681906, 5.89524797
8202, 14.515387, -17.9588558, 6.62768167
8203, 37.9100075, -0.51958156, 4.2852131
8204, 37.9221399, -1.03018263, 4.53846654
8205, 38.228455, -0.802494594, 4.36265984
8206, 13.2911009, -20.4064549, -4.88932229
8207, 13.7259778, -20.4046506, -4.83683825
8208, 13.4285464, -20.405108, -4.39467004
8209, 15.6061132, -24.423605, -4.23384803
8210, 25.5207677, -18.6154519, -0.395611403
8211, 25.3080715, -19.0125491, -0.573912253
8212, 25.3538762, -19.0676845, -0.130965943
8213, 21.0116085, -18.9993347, 6.03045781
8214, 23.0324221, -19.0261172, 4.53883601
8215, 21.0405038, -18.2263039, 5.59474266
8216, 35.7000059, -16.8557568, 3.40466532
8217, 39.7208927, 2.82186272, 4.49774617
8218, 12.4400382, -20.802366, -5.87148342
8219, 12.6359107, -20.8000628, -5.40645202
8220, 12.0442566, -20.8077106, -5.45848545
8221, 37.9230356, -15.2793977, 3.12051444
8222, 37.9806417, -14.8919507, 2.98589455
8223, 20.7329818, -17.529869, 2.01451496
8224, 33.4721936, -18.8923423, 8.20549728
8225, 14.7082956, -22.3042516, -1.34688602
8226, 36.1839383, -5.23344755, -3.38670122
8227, 36.7207209, -6.00651354, -3.40105916
8228, 15.8599697, -22.6405573, 3.2662419
8229, 9.18989564, -18.7968619, 0.759600098
8230, 9.14953536, -18.798085, 0.45000767
8231, 9.94151059, -19.0517226, 0.870139624
8232, 8.76499939, -19.2496582, 1.09074339
8233, 8.84277991, -19.2629076, 1.40419854
8234, 27.3641092, -20.2776016, -3.37105134
8235, 27.9396019, -20.2598815, -4.88094669
8236, 27.9620504, -20.2647022, -2.51657068
8237, 37.6080697, -20.3103683, -2.13143113
8238, 37.6050643, -19.3145367, -3.11778898
8239, 35.537204, -20.6929757, -2.20095301
8240, 21.9779979, -17.0027417, 1.22178936
8241, 13.5730819, -18.7674454, -7.77139626
8242, 13.2995615, -18.7690739, -7.59374472
8243, 13.3087459, -18.7621084, 7.66091955
8244, 13.6003751, -18.7672624, 7.76732829
8245, 13.1386992, -20.7992175, -6.31730383
8246, 14.8389087, -20.6069888, 0.51895852
8247, 13.5472612, -20.4046183, -3.93956336
8248, 14.357536, -19.3807658, -4.43348286
8249, 14.626037, -18.8761691, -3.56481219
8250, 38.2202136, 0.806274737, 4.36429273
8251, 37.9142204, 1.04121814, 4.53321627
8252, 37.9085731, 0.522819155, 4.30287242
8253, 35.0574291, -4.15064795, 2.85033753
8254, 39.2246899, 0.944186053, 3.8598476
8255, 38.5343293, 1.23881021, 3.38846771
8256, 38.9706473, 1.47761742, 4.77501325
8257, 38.2185078, 1.76443278, 4.22136017
8258, 39.2602369, 1.88390444, 3.65558812
8259, 13.6901588, -17.5196894, -6.33282316
8260, 13.6249231, -24.6579025, -1.486223
8261, 15.8398251, -23.9229665, -3.33087804
8262, 34.2812459, 3.75366572, -2.54751184
8263, 15.7611033, -24.5707166, 4.00039282
8264, 34.5348366, -17.3517134, 8.37269966
8265, 31.1686245, -19.3743068, -6.93999906
8266, 31.1883397, -20.7336588, -6.88127321
8267, 31.2023384, -19.9356071, -7.55842779
8268, 31.7334291, -19.4486015, 8.54017805
8269, 37.3909926, -0.788647824, 0.848263491
8270, 37.3654771, 0.891669416, 1.02122431
8271, 37.5129994, 0.691945594, -0.230168944
8272, 36.2508627, 1.52942199, -8.86294586
8273, 35.2645065, 0.584150068, -8.43687509
8274, 37.0303103, 0.946667696, -8.90529708
8275, 36.9966659, 1.90440102, -8.44379668
8276, 35.2858113, 1.54705036, -7.97273211
8277, 13.7126779, -21.4390098, -1.75790869
8278, 10.0309163, -20.1791267, 4.47770513
8279, 35.335206, -16.7195978, 8.97313889
8280, 35.0014185, -16.8501356, 8.97301145
8281, 13.6488923, -22.3310428, -1.81499388
8282, 13.8216513, -22.7707106, -2.59384189
8283, 14.9307669, -22.7431634, -2.16236785
8284, 18.5878958, -16.9806639, 4.53688735
8285, 18.1058426, -16.9911773, 4.31031605
8286, 18.3712908, -17.3027383, 4.36139319
8287, 40.086182, -1.5150154, -6.10373159
8288, 10.2171334, -18.9812703, -4.55010964
8289, 10.5105879, -18.9168995, -3.45126461
8290, 11.9222211, -18.9398237, -5.44197887
8291, 15.9648534, -17.0015132, -5.65131948
8292, 15.7372847, -16.996901, -5.17696952
8293, 16.0398575, -24.2740942, 0.753976396
8294, 37.2720733, -21.4489219, 2.01756814
8295, 37.3346881, -21.2107508, 2.01366033
8296, 35.8221531, -21.1102177, -0.0693627664
8297, 35.8816562, -20.8722755, -0.0701683486
8298, 35.1712366, -1.81268913, -0.296522116
8299, 35.0759737, -2.81946536, 0.746318424
8300, 35.1172923, -1.80626232, 1.29867115
8301, 14.0264034, -18.4908347, 0.117846299
8302, 13.2721061, -19.0913948, -0.154764749
8303, 21.7239999, -18.7752205, -0.483731456
8304, 21.8179792, -19.084669, -0.710169789
8305, 34.2697931, -15.4630905, -9.00880321
8306, 34.5358274, -15.5410961, -9.00886703
8307, 34.3647532, -15.6807235, -9.00880998
8308, 14.7545611, -24.1338182, 3.32512885
8309, 14.8977603, -24.3469198, 3.1480816
8310, 29.6068981, -23.5750246, 1.49377041
8311, 30.9251401, -23.551786, 0.757774552
8312, 14.6315887, -24.245745, 3.11332446
8313, 19.882019, -18.0334154, 5.69556489
8314, 19.2959501, -18.7746006, 5.64179409
8315, 19.2955566, -17.3106836, 5.78352791
8316, 19.891145, -17.2686696, 5.18651682
8317, 19.3153985, -18.0247926, 5.16051442
8318, 15.794695, -24.2492212, -0.119425134
8319, 22.6960396, -24.0997852, -4.53928413
8320, 22.6994109, -24.080636, 4.54743372
8321, 34.4904836, -16.5236851, 8.97299218
8322, 34.6860154, -16.720378, 8.97298548
8323, 37.240357, 0.000953686753, 3.17341775
8324, 36.1133242, 0.90317717, 2.74866285
8325, 37.3765982, 0.930822204, 2.48768681
8326, 37.3962001, -0.77308367, 2.32795845
8327, 36.1384538, -0.774975106, 2.60068057
8328, 32.5303491, -19.6142488, 8.54012069
8329, 32.2794608, -19.4735469, 8.54012539
8330, 32.2850774, -19.7621993, 8.54041369
8331, 33.9594176, -18.4260632, -9.02890555
8332, 28.3112672, -23.5359307, 0.991339769
8333, 36.2923556, -6.18473669, -6.71772656
8334, 36.2718893, -4.80879341, -6.69380485
8335, 37.4393713, -4.64019871, -5.38718982
8336, 33.4832523, -20.6057875, -5.08589451
8337, 33.4788393, -21.0047548, -5.1190594
8338, 34.4599745, -20.6247763, -2.68490394
8339, 34.4688965, -20.2275688, -2.68714414
8340, 9.0211929, -20.8925276, 2.25412831
8341, 9.28240456, -20.4049613, 2.04347193
8342, 8.36372605, -20.2697115, 2.45000701
8343, 8.87492748, -20.8847681, 1.65182749
8344, 37.7372822, 7.4956796, -3.70757139
8345, 37.1065066, 6.36179167, -4.96596525
8346, 36.7800556, 7.39244542, -4.60050524
8347, 34.1405544, -15.7136789, -9.00873589
8348, 38.5134511, -1.24411621, 3.37631159
8349, 39.2351155, -0.931894204, 3.84917677
8350, 39.0050511, -1.42852624, 4.72904748
8351, 39.2768941, -1.81189482, 3.60654917
8352, 15.7120852, -16.9939437, 6.06127191
8353, 38.03071, -0.00652362999, -1.86988556
8354, 37.4360689, -0.80030421, -0.77591299
8355, 40.0129908, -0.583425644, 4.29508137
8356, 39.7148553, -0.864983937, 4.35277098
8357, 40.0433344, -1.09107571, 4.55115168
8358, 12.6531556, -20.8119785, 5.45968596
8359, 12.2626374, -20.8161167, 5.711836
8360, 12.3204425, -20.813723, 5.15532787
8361, 12.8453438, -18.8500284, 5.33036151
8362, 11.3499644, -18.8180102, 3.38900139
8363, 35.2871839, -0.884528036, -3.66524247
8364, 34.9521742, 4.88163491, -6.48526015
8365, 34.9506162, 4.50880445, -6.94604485
8366, 34.9543261, 4.16229658, -6.28934684
8367, 34.2797971, 2.51435024, -0.932028843
8368, 35.0347548, 2.82271779, -1.40474955
8369, 35.2532762, 3.73219115, -1.06681678
8370, 35.4997852, 2.36735233, -0.526797034
8371, 10.6748335, -19.0089353, 2.51568147
8372, 11.8483442, -18.0313142, 3.09664044
8373, 11.0292495, -17.4995056, 3.14698516
8374, 12.6142682, -17.8568849, 3.92370912
8375, 26.4624967, -24.1557946, 1.23239545
8376, 26.9726485, -22.7288631, 1.73493491
8377, 40.0925987, -1.34434258, -5.29210979
8378, 26.6468888, -22.5107846, -3.29079303
8379, 14.8839308, -24.3798417, 2.86150592
8380, 37.1899086, -21.6799683, 2.0173288
8381, 35.7397945, -21.3411655, -0.0693182268
8382, 35.0430616, -2.90752961, -1.83886488
8383, 9.21123153, -20.8857697, 2.97503416
8384, 10.1453645, -20.9821283, 2.56279312
8385, 10.1679386, -20.7695477, 3.30977786
8386, 15.8271045, -19.0882796, 5.36631871
8387, 15.6926558, -19.0667375, 5.91608488
8388, 16.3486206, -23.3593113, -2.99997079
8389, 15.6400212, -23.5206107, -3.43891471
8390, 15.8401433, -22.3727996, -2.91715662
8391, 35.2766166, -7.54324646, -1.97819574
8392, 35.0283069, -8.31687406, -2.74876208
8393, 34.2830299, -8.7486954, -2.34585147
8394, 23.6683595, -18.0391249, 2.24082264
8395, 23.1925296, -18.0471677, 2.24854551
8396, 37.8994775, -4.97697128, -1.50615698
8397, 35.2566439, 7.55019152, -1.96993889
8398, 34.2900923, 7.64005935, -2.58178783
8399, 35.0452851, 8.03771693, -2.18917498
8400, 35.7972132, 7.46191512, -2.80611759
8401, 34.7928415, 7.54270847, -3.32878818
8402, 35.0742191, 7.02492264, -3.15520513
8403, 37.468959, -2.3307655, -1.14214534
8404, 12.817756, -19.3837691, -3.2846998
8405, 14.3160212, -18.9723971, -2.53740957
8406, 12.9579516, -18.7382817, -2.12372768
8407, 13.2151904, -18.6352241, -3.24602496
8408, 20.4413713, -18.2879667, 6.20706837
8409, 36.9539672, -22.1097381, 2.01548626
8410, 37.0802493, -21.8992788, 2.01522543
8411, 35.6341783, -21.5627654, -0.0706066484
8412, 35.5086688, -21.7726088, -0.069029796
8413, 9.72708358, -19.075892, -0.122795085
8414, 8.54137228, -19.2557596, 0.0495027764
8415, 12.9637908, -20.4048071, -4.51609229
8416, 34.2818755, 1.40589425, -2.8566645
8417, 40.0474642, -4.78181785, -1.07364671
8418, 15.6648968, -17.7298255, -5.43146228
8419, 15.6917723, -18.0184655, -5.72632184
8420, 14.8105456, -17.2800697, -5.5572048
8421, 14.2170659, -24.5781402, -0.118700436
8422, 14.5272195, -24.5713896, 0.0158323928
8423, 39.4073743, 3.79660835, -4.27158787
8424, 8.91832691, -19.8915066, 1.69579756
8425, 12.8557502, -17.2793226, -2.7536845
8426, 39.4828233, 3.81318753, -6.35860203
8427, 17.5043843, -18.5165489, -3.9522306
8428, 17.0659674, -17.7740259, -4.07488752
8429, 17.5040915, -17.0481034, -3.9281606
8430, 15.1172615, -18.2389806, 3.18630549
8431, 14.0650849, -18.5453628, 4.31360078
8432, 14.2347128, -17.2823319, 3.51223322
8433, 34.2440725, -18.8428826, -8.38524069
8434, 19.5495491, -17.2872001, -5.99974622
8435, 19.8849303, -17.283883, -5.62103908
8436, 31.5527805, -19.7999736, 2.49874029
8437, 31.3098894, -19.9370904, 2.49930454
8438, 32.2750673, -19.5667318, -0.0698662729
8439, 32.5172488, -19.4295791, -0.0697574169
8440, 35.9948501, -12.0796376, -6.54603015
8441, 35.9880448, -10.9321277, -6.96048237
8442, 34.8125446, -12.0797867, -6.90715131
8443, 34.2819633, 5.07287646, 3.33026887
8444, 35.2752486, 5.1191333, 2.34611808
8445, 39.0909758, 3.95526538, -0.640869141
8446, 38.7406176, 3.90472237, -0.544243899
8447, 39.371242, 4.5551645, -1.19016384
8448, 39.0233461, 4.50011019, -1.10908924
8449, 35.0254825, -15.8444486, -8.84253465
8450, 16.1058969, -23.5694058, -0.277797482
8451, 38.6763631, 4.63984896, -1.26682172
8452, 36.3651096, -13.9839091, -8.48700883
8453, 36.0448189, -14.321898, -8.48656109
8454, 35.6111213, -13.9765, -8.48667385
8455, 39.0092661, -1.80677703, 7.38293576
8456, 37.7461143, 1.4469747, -8.7561293
8457, 38.0002941, 0.694499704, -3.21090398
8458, 35.9919039, -10.8742156, 5.6598952
8459, 35.9976587, -13.5306362, 2.00179836
8460, 35.9963645, -14.5105541, 0.833201422
8461, 35.9999838, -12.9058907, 0.92385753
8462, 16.6633209, -24.209211, -2.52584221
8463, 19.3242581, -17.5317316, -3.63842063
8464, 18.4635736, -18.2692971, -3.85896308
8465, 18.5096825, -20.0489498, 2.51844902
8466, 19.1244726, -22.0117601, 3.08773762
8467, 33.7887393, -18.7165628, -8.57974021
8468, 14.6425086, -19.2946727, 3.93708441
8469, 13.4871061, -20.3288465, 3.81318288
8470, 16.915744, -18.7404811, 8.69018094
8471, 39.8629289, 4.99309291, -1.24184642
8472, 34.137605, -0.731243323, 8.95225051
8473, 35.3194276, -1.66348652, 8.94156573
8474, 34.1349498, -2.95655876, 8.8784278
8475, 37.4280752, -2.23803839, 0.493167519
8476, 8.76157548, -20.2739362, 3.62160877
8477, 9.45318559, -20.8915025, 3.53984522
8478, 9.72013009, -20.1668407, 3.93862851
8479, 34.2872211, 0.319945632, 2.43898302
8480, 35.2955359, 0.580122595, 3.55904557
8481, 35.0457292, -0.27338299, 2.43279454
8482, 35.3492395, 1.46685076, 2.80322308
8483, 16.5374169, -24.3184413, -0.127354299
8484, 39.7065702, -1.79293725, 5.74736767
8485, 39.9754756, -1.80387242, 6.07425972
8486, 9.45692242, -20.8908026, 4.03973808
8487, 10.1863496, -20.7809044, 3.79387824
8488, 13.6048964, -17.8373188, 4.2556151
8489, 14.7223785, -17.2765583, 4.41638864
8490, 37.0484273, -14.7932335, 7.48345591
8491, 35.9968008, -8.0569233, 4.53922993
8492, 39.4436712, -3.89303106, -4.36707618
8493, 37.9276856, -1.56162526, 6.95021522
8494, 38.0443648, -3.36168656, 7.11343977
8495, 40.0080003, 1.78856618, 6.06170033
8496, 9.76503549, -20.8928272, 4.57938006
8497, 35.699386, -18.5794453, 6.40137484
8498, 17.0275133, -24.2079316, -2.79411647
8499, 39.494795, 1.8142176, -3.62841532
8500, 14.2209747, -24.5778938, 0.447613392
8501, 14.9057529, -24.3468467, -3.15540821
8502, 14.7621805, -24.1336982, -3.33231165
8503, 31.2253045, -18.7140325, 8.42614097
8504, 31.3564952, -18.9375183, 8.42632573
8505, 14.6384905, -24.2465851, -3.12017245
8506, 38.4266427, 3.88257961, -0.206786183
8507, 39.469708, -2.7810313, 3.05172072
8508, 39.7530694, -3.71741839, 4.0244553
8509, 39.7400312, -2.71457206, 4.39487773
8510, 37.2298041, 2.91133665, 1.2436073
8511, 37.9875959, 2.98322611, 0.778068297
8512, 32.8324713, -19.4677923, -8.24990935
8513, 36.1448071, -14.8793843, -7.83580985
8514, 33.1643868, -20.8190231, 5.35601045
8515, 33.1765051, -20.8052892, -5.35824794
8516, 16.2594318, -24.545343, -3.71976384
8517, 37.7218431, 6.9720147, 3.88511393
8518, 35.98237, 7.38416596, 4.84832512
8519, 13.8096799, -19.7705735, -6.34711247
8520, 12.96397, -20.7969837, -5.79045222
8521, 14.9070478, -22.6244701, 3.51353727
8522, 23.5314698, -21.2984569, -3.71084001
8523, 24.2317947, -20.4968046, -3.65444125
8524, 38.0136345, 1.66634846, -3.54826796
8525, 38.3488695, 1.10222169, -3.90521292
8526, 38.9323084, 0.966104452, -3.85260363
8527, 37.7304636, -7.19415181, 3.61087012
8528, 19.0421475, -21.3773018, 3.07292574
8529, 35.8019238, -15.154443, -3.08548121
8530, 35.8122381, -15.9557285, -4.38280822
8531, 37.2270619, -2.92754853, 1.25293273
8532, 37.9529353, -3.03274937, 0.812356105
8533, 27.0566516, -21.8081749, 1.64129305
8534, 36.8119615, -16.6794811, 8.66595048
8535, 36.6441337, -17.034051, 8.66558291
8536, 36.6425842, -17.0357166, 6.4157468
8537, 13.8594721, -20.3127987, 4.12237248
8538, 35.0565825, -9.39777867, 0.421414367
8539, 37.0292715, -8.9829674, 0.2781683
8540, 36.0156972, -9.94216528, 0.14794121
8541, 34.2856419, -9.49313894, -0.158572026
8542, 35.2580911, -8.5072475, -0.0107744275
8543, 34.0571484, -16.5710628, 8.2730964
8544, 35.1049106, 1.762476, 1.48222531
8545, 35.247786, 1.54390627, 0.263608436
8546, 36.2646651, 2.46883379, 0.0413373218
8547, 37.5209522, 1.80318067, 0.654366769
8548, 37.5308074, -14.3650674, -8.19503731
8549, 37.0606598, -13.8197553, -8.19639641
8550, 36.7945919, -13.9101499, -7.18175648
8551, 33.7264293, -18.1592807, 8.27125679
8552, 38.9603807, -5.71185439, -4.00165073
8553, 37.4831438, -5.45821027, -3.31412856
8554, 37.9008205, -6.03323002, -2.82566336
8555, 22.6026132, -17.4989699, 5.05741626
8556, 39.6314899, -1.90612996, 7.2521517
8557, 34.9926018, -10.5256596, 7.82890324
8558, 36.9914691, -11.0529953, 8.54173917
8559, 15.6111238, -24.2790678, 1.98603972
8560, 37.884195, -6.53246588, -1.72317327
8561, 37.4812961, -6.57196482, -3.33852637
8562, 29.7880814, -19.3667553, -8.36003551
8563, 29.5174905, -19.4312184, -8.36001192
8564, 29.7886624, -19.3662524, -5.98325431
8565, 29.5182813, -19.4313077, -5.98325815
8566, 12.7333337, -20.8015972, -6.1713423
8567, 38.0145544, -5.43482918, -5.43428033
8568, 13.6059598, -18.2708078, -0.490664524
8569, 13.5665955, -18.5612365, -0.204696501
8570, 30.739619, -18.7323339, 8.42609276
8571, 12.7353873, -20.399687, -3.71665156
8572, 12.6188869, -20.4022411, -4.19358393
8573, 13.0939015, -20.4029039, -4.04408723
8574, 33.6357231, -19.1584729, -8.40833452
8575, 33.5978012, -23.6256201, -4.514097
8576, 33.9664255, -23.2006613, -4.52499597
8577, 32.5321862, -19.9059166, 8.54032266
8578, 16.9773189, -19.0980493, 4.26302012
8579, 16.715192, -18.7903695, 4.37461411
8580, 16.4503987, -19.1213491, 4.51526139
8581, 38.2683402, -8.04956847, 3.62822613
8582, 38.0173581, -7.74720711, 1.95750842
8583, 38.2422621, -8.71106787, 1.35016606
8584, 19.2947231, -17.0101089, 6.10032507
8585, 35.30399, -18.1104187, -8.52508044
8586, 35.6518469, -17.9614809, -8.52529319
8587, 35.5295938, -18.3002523, -8.52495392
8588, 37.9160139, -4.32386271, -0.667229472
8589, 37.904209, -4.16231433, -0.11057391
8590, 38.2201086, -4.20475925, -0.442998673
8591, 35.9897418, -11.1535751, -5.76122908
8592, 35.9908727, -10.1756536, -4.57647043
8593, 35.987966, -11.2731149, -3.85173392
8594, 35.9942798, -11.2872749, -2.40447838
8595, 35.9936072, -12.1917787, -3.25374323
8596, 38.6716351, 1.68268361, 4.95102779
8597, 33.5917986, -23.6251829, 4.51338391
8598, 37.5614767, -14.7901391, -8.19479812
8599, 37.3101789, -15.2604201, -7.54427377
8600, 14.0853016, -19.3772461, -5.45637373
8601, 23.6550298, -21.8995451, 3.70560923
8602, 24.4436983, -22.4417412, 3.5034641
8603, 24.537033, -21.5130596, 3.44268354
8604, 37.0128686, -8.03508053, 3.2490742
8605, 37.5679953, 2.15432964, -0.59560237
8606, 37.0334167, -7.15619838, -3.60967108
8607, 35.9947822, -7.27471538, -4.7468805
8608, 36.0099855, -8.47862173, -4.35998
8609, 36.4422542, -17.3706392, 8.66541881
8610, 36.6146987, -17.0824402, 6.41613141
8611, 40.0705399, 4.71469738, -0.974673411
8612, 34.2759642, -4.11652891, 5.29047899
8613, 36.7320481, 3.34053572, -6.73246205
8614, 36.0956807, 4.53629075, -5.72771562
8615, 35.9736608, 3.34091033, -6.16335468
8616, 34.2844162, -2.57629632, -1.35397976
8617, 35.2795445, -3.73385658, -1.07197797
8618, 35.424222, -2.48643611, -1.06267881
8619, 38.0336246, -0.677047167, -3.25487374
8620, 12.4241811, -19.6526225, 4.87051383
8621, 15.6653947, -18.3222714, -5.41206121
8622, 36.0060315, -9.56908456, -3.65162487
8623, 34.7167881, -17.3462291, 8.97273558
8624, 34.7269816, -17.0395015, 8.97288451
8625, 37.995136, 0.560103053, 3.36466531
8626, 21.4008118, -18.278835, -0.529932148
8627, 21.4271992, -18.5583842, -0.217751777
8628, 34.8295418, -15.0564144, 8.40812551
8629, 34.5770097, -15.1761677, 8.40782781
8630, 34.8634853, -15.3124429, 8.40803269
8631, 34.2813457, 3.00984093, -1.60673284
8632, 9.48007236, -19.8633834, -2.6679652
8633, 9.01082435, -20.8886722, -2.94630392
8634, 9.74348234, -20.4731912, -2.13605912
8635, 8.84210706, -20.8898421, -2.4968251
8636, 15.4561598, -19.2588977, -8.59029155
8637, 15.7632168, -19.2774793, -8.67090207
8638, 38.4687376, 2.99613656, 6.55733118
8639, 37.9300352, 1.56557185, 6.92793178
8640, 37.9996478, 3.32803357, 7.07575488
8641, 38.045959, 3.53883092, 6.03976741
8642, 15.6830401, -17.5246904, -3.62293036
8643, 20.8995285, -17.8926876, -4.43392677
8644, 21.1936438, -18.6251382, -4.93349294
8645, 40.0758332, -5.15726165, -1.32910978
8646, 40.0574448, -5.94785241, -1.63543142
8647, 16.5658774, -18.7496899, -8.68276287
8648, 16.8955818, -18.7431006, -8.68732458
8649, 9.57901095, -19.5386667, 3.67198834
8650, 9.44806402, -19.5225496, 3.3826199
8651, 19.937688, -17.5232792, -2.87902795
8652, 20.4759159, -17.0661094, -2.43901634
8653, 20.9287658, -18.3782037, -3.119429
8654, 21.5266774, -17.8777946, -3.64380749
8655, 34.2806646, 3.38497469, 4.65186386
8656, 35.298236, 2.26916532, 4.93515589
8657, 35.4241179, 3.57875077, 5.14969075
8658, 34.6060644, -17.1834512, -8.95608082
8659, 14.9214606, -22.6284747, -3.5179387
8660, 15.4236128, -22.393121, -4.06001957
8661, 15.1417687, -21.4565564, -3.04835569
8662, 33.6252382, -16.5916403, -8.7913741
8663, 33.7585513, -16.8356715, -8.79133397
8664, 33.4782965, -16.8377691, -8.79130486
8665, 26.4596222, -22.4723037, 3.43311467
8666, 26.5397016, -21.5357705, 3.371769
8667, 36.4411132, -17.3728567, 6.4156322
8668, 35.3024011, -2.26969621, 4.93394123
8669, 35.1168582, -15.0939798, 8.40839288
8670, 21.3614147, -17.2834619, -2.49034399
8671, 20.7600025, -17.7551621, -1.96019372
8672, 33.3748294, -20.8362151, -6.1026677
8673, 33.4130854, -19.4462456, -6.20609168
8674, 32.0851056, -19.8319133, -8.69915097
8675, 11.827427, -20.4338083, -3.70299862
8676, 10.9403909, -20.466265, -4.03366352
8677, 34.2930519, 9.04086599, -0.314084609
8678, 36.2742686, 9.03661306, -0.600353531
8679, 36.9956885, 8.93653374, -0.0421041835
8680, 35.2592421, 8.51846794, -0.0182031909
8681, 35.0840016, 8.96748018, 0.265001598
8682, 33.3740232, -18.1787365, -9.04184586
8683, 35.2932771, 2.24850102, -4.89704565
8684, 36.1057316, 2.69663399, 1.29123984
8685, 10.068207, -20.8935585, -5.12331162
8686, 10.1150276, -20.8911448, -4.52726401
8687, 10.4528786, -19.8739759, -4.77042793
8688, 14.8968605, -20.4885651, 4.79315274
8689, 35.1318361, 4.44084249, -5.13133548
8690, 29.0612291, -24.5156165, -3.31415735
8691, 34.1767662, -18.5621413, -7.56599785
8692, 34.328024, -18.1194608, -7.73933146
8693, 33.720315, -18.4342087, -7.76231618
8694, 15.0590495, -19.9769509, -1.30169336
8695, 15.1863024, -19.3015854, -0.203704123
8696, 35.9893522, 8.14238234, 3.72327078
8697, 37.0088192, 8.08784756, 2.98776371
8698, 35.0345745, 8.23324476, 2.73119375
8699, 14.8928858, -24.3811086, -2.87033999
8700, 35.9884755, 3.92122811, 7.96827407
8701, 36.9909198, 3.29298327, 7.53145293
8702, 35.9955981, -13.5127715, -5.7520681
8703, 34.8126959, -13.5161275, -6.11272887
8704, 33.2890276, -19.5941403, -8.05566307
8705, 33.7724353, -16.5780292, 8.27300141
8706, 14.4535267, -19.2815181, -7.68324434
8707, 14.7077772, -19.2717508, -7.83403411
8708, 26.5054165, -19.0314599, -0.269524517
8709, 25.6697225, -18.9633838, -1.51683477
8710, 25.6582946, -18.9624499, 0.933487675
8711, 36.8091107, -16.6806311, 6.3807518
8712, 36.0047995, -9.40863625, 3.84585017
8713, 35.9921268, -11.3032239, 1.07365716
8714, 15.6969004, -24.3533977, 4.15434279
8715, 36.974036, 8.91507753, 0.586509396
8716, 35.1023125, 8.91802299, 0.908864367
8717, 28.4371218, -20.5640115, 3.11772056
8718, 28.4336332, -20.5625838, 0.742761553
8719, 27.8486399, -20.5569782, 1.61850455
8720, 16.5676707, -17.7969661, 3.86097678
8721, 16.2607491, -18.503094, 3.37710591
8722, 16.0402617, -18.0237142, 4.70851263
8723, 15.7954322, -18.7331006, 4.18226059
8724, 15.6540703, -17.75971, 3.58122573
8725, 35.9955473, -13.5222666, 5.75825202
8726, 35.9948659, -12.5567925, 4.97324085
8727, 37.6832785, -7.12624619, -4.60215057
8728, 28.3582236, -21.8186093, 3.25487965
8729, 34.289464, -3.21668116, -1.91294927
8730, 14.0191742, -24.5348102, 1.96148806
8731, 14.1995627, -24.5343796, 2.31037303
8732, 13.8806939, -24.4664038, 2.25464675
8733, 33.3752675, -18.8693869, -7.4095164
8734, 14.3303009, -19.7686413, 6.10697516
8735, 13.6305963, -20.7787407, 6.45240867
8736, 13.5159121, -20.7750145, 6.01349463
8737, 11.9073862, -19.7592255, -5.18688785
8738, 36.0051458, -13.5329649, -1.99717197
8739, 35.9920023, -12.6158643, -1.14200921
8740, 35.9954319, -14.3549396, -0.699832252
8741, 34.2882914, -5.53212058, -3.58798342
8742, 35.2756522, -5.43286052, -2.44192847
8743, 35.4384776, -4.64180718, -3.33106262
8744, 34.2773342, -3.22687293, 2.12072605
8745, 35.2784975, -4.15600817, 1.69611021
8746, 34.2816243, -3.93503396, 2.77680855
8747, 39.48096, 1.14471271, -3.5101263
8748, 39.9043017, 0.746310215, -4.58337073
8749, 34.8689545, -15.8404759, -8.35121925
8750, 38.2259085, 0.915480873, -9.44646242
8751, 38.2269995, 0.914588374, 9.44658931
8752, 38.2447519, 3.9181939, 8.64733824
8753, 38.2326892, 3.92491018, -8.6412599
8754, 38.2261293, 5.51609079, -7.72284016
8755, 38.2367038, 7.71870756, 5.52402089
8756, 38.2460622, 5.52954595, 7.71708879
8757, 38.2320677, 7.72311705, -5.51505622
8758, 38.2307237, 9.44553808, 0.929264252
8759, 38.2288056, 9.44560722, -0.920557161
8760, 26.0176497, -20.2386118, 1.76149599
8761, 25.4644468, -20.2331543, 3.39404443
8762, 26.121203, -19.2754922, 1.63603894
8763, 25.6388102, -19.1781391, 3.29186653
8764, 34.133515, -19.1334038, -6.9551021
8765, 34.0479941, -19.8519496, -7.60557598
8766, 22.6772526, -22.5578158, 3.77369451
8767, 34.2777591, 3.32390513, 2.24279858
8768, 34.2813395, 4.00377775, 2.80920221
8769, 35.280604, 4.15607403, 1.69630504
8770, 38.2552741, -8.04252013, -3.56183069
8771, 38.2320772, -8.73329181, -1.36211015
8772, 38.0224426, -7.96716886, -1.53398989
8773, 37.7173604, -8.92329575, -0.293377621
8774, 37.7948212, -8.52074387, -2.69656537
8775, 35.6681553, -14.3589036, -8.48633115
8776, 35.4934555, -14.6836308, -7.82859873
8777, 23.8173006, -23.6833905, -3.76875632
8778, 24.7935497, -23.7603034, -3.32648172
8779, 35.9491791, -17.0018286, 8.6656087
8780, 36.0238911, -17.341114, 8.66538424
8781, 36.2522038, -17.0129186, 8.66563744
8782, 20.2874139, -17.5221454, 3.05703666
8783, 9.58345898, -19.2300455, -2.91361118
8784, 9.71209468, -19.2290345, -3.18471533
8785, 35.9909699, -13.5102396, 4.38407032
8786, 35.9785999, -13.9054495, 4.5128564
8787, 35.980463, -13.9080642, -4.51155169
8788, 35.9990085, -13.5128894, -4.38030255
8789, 34.5288609, -22.2062335, -2.20054764
8790, 34.8094304, -23.0242903, -4.63994861
8791, 35.0125362, -21.8094236, -2.20347419
8792, 35.3043127, -22.6310284, -4.6412407
8793, 35.6715331, -23.2685934, -4.27801534
8794, 35.9828805, -16.3288188, 8.66607663
8795, 36.0463779, -16.6849445, 8.66581398
8796, 36.2573133, -16.4659389, 8.66594692
8797, 35.8078892, -15.3106174, 3.21899553
8798, 35.7970238, -15.3197639, 0.835504784
8799, 13.1308912, -20.7776276, 6.26454828
8800, 34.2814342, 2.74210924, 4.07649635
8801, 39.4687039, -0.970196175, -3.45122904
8802, 40.0885584, -0.700567946, -4.57017782
8803, 34.2789251, -2.66272931, -3.73441556
8804, 35.2743696, -1.84665356, -4.30293262
8805, 35.4503676, -3.26902153, -4.30113692
8806, 12.7990524, -20.9959636, 2.56918845
8807, 13.1783669, -20.3288391, 3.44270581
8808, 23.06907, -19.9920108, 5.81040268
8809, 35.0327436, 3.28884205, -5.56850474
8810, 34.2826927, 3.11470889, -5.00802004
8811, 15.6995191, -18.7513545, -6.55966656
8812, 15.6955988, -19.060422, -6.1723842
8813, 15.0869113, -18.7205966, -5.84135263
8814, 34.9512505, 5.00770851, -7.20378292
8815, 21.3895952, -17.3119617, -0.542789468
8816, 35.1297415, 5.47584669, -4.09731952
8817, 35.0656405, 6.07231093, -3.08555827
8818, 34.793758, 6.54012765, -3.76175158
8819, 39.8177102, -3.82506476, -2.47223112
8820, 35.7434652, -18.4103976, -6.27786619
8821, 32.7880087, -18.8037967, -8.53591759
8822, 19.5249634, -24.4277308, 3.22948893
8823, 20.8766156, -24.0142959, 2.01362236
8824, 20.9300394, -23.9025816, 3.73720326
8825, 38.2662249, -6.61257199, 5.78923771
8826, 34.2787858, 3.38219338, 5.65901915
8827, 35.2966848, 2.50737474, 5.97500119
8828, 35.0337876, 8.36359011, -2.61536277
8829, 34.783601, 7.8409337, -3.78983628
8830, 18.1168231, -21.0833698, 8.82693091
8831, 20.1892409, -21.0875864, 8.82546975
8832, 13.5108157, -17.2650469, -3.42587153
8833, 39.4027045, 4.48254381, -3.63171207
8834, 34.24455, -16.8894948, -8.95612774
8835, 34.367256, -17.1076911, -8.9560768
8836, 34.0791476, -17.1697966, -8.95603595
8837, 34.5652087, -16.8604641, -8.95616869
8838, 20.2757807, -17.2693882, 4.43248057
8839, 9.25013894, -19.8671652, -2.10305789
8840, 8.64808945, -19.8869467, -1.20450345
8841, 8.66091686, -20.8805018, -1.88707827
8842, 9.06227716, -20.4901978, -1.27197947
8843, 35.0251297, 3.04488099, 7.66440914
8844, 25.7782139, -19.2145918, -2.08536196
8845, 25.1428944, -19.239903, -3.5719894
8846, 25.554568, -20.1405535, -3.28054895
8847, 17.4993018, -17.9686624, 3.90035554
8848, 18.0806814, -17.5403073, 3.47028799
8849, 17.7683567, -18.2875618, 3.94266752
8850, 32.0053883, -19.6963173, 8.54049449
8851, 32.0398872, -19.3334556, 8.54003861
8852, 32.441049, -19.239352, -8.18302845
8853, 32.4055778, -18.6791304, -7.5628801
8854, 32.7975848, -18.9076792, -7.62976554
8855, 35.9912264, -12.5866591, -4.96676677
8856, 36.4325241, -16.7100844, 8.66586063
8857, 36.5353592, -16.3415042, 8.66600172
8858, 33.0444699, -21.2290701, -8.12413359
8859, 34.2871352, -4.996857, 3.35727591
8860, 35.2748296, -5.11130623, 2.34255431
8861, 39.5073248, 6.47867914, -3.01817794
8862, 38.0295272, 6.28456357, -2.37565102
8863, 38.4351965, 5.76569544, -3.20880032
8864, 39.4554094, -4.58339009, -3.72958215
8865, 34.5377067, -15.8410524, -9.00882174
8866, 38.7286336, -3.90661003, -0.508686069
8867, 38.4651705, -3.88786315, -0.190383551
8868, 31.7953245, -18.4363725, -8.07842195
8869, 31.552223, -18.5726651, -8.07851166
8870, 31.3233852, -18.6070237, -8.92706981
8871, 31.0802277, -18.7433676, -8.92712007
8872, 31.9422252, -18.9529395, -7.50583919
8873, 35.2696084, 5.43728738, -2.44304344
8874, 34.7771034, -15.674775, -9.00891272
8875, 18.5743949, -18.7132234, -3.90450107
8876, 38.6821478, -1.61176496, 4.91053689
8877, 38.7382179, -0.271492594, 3.96691853
8878, 39.040971, 0.00178801625, 3.90029338
8879, 39.4772405, -0.572878413, 3.42929768
8880, 35.9963986, -14.3471579, -3.08563438
8881, 14.1642113, -18.9826321, -0.588353697
8882, 14.8552194, -19.8463729, -0.163368515
8883, 34.942553, -18.220003, -8.05314646
8884, 17.9040029, -18.7050135, 7.49035627
8885, 34.4000143, -17.6873993, -4.87513835
8886, 34.5568276, -17.45708, -4.87140424
8887, 17.0276345, -17.0433687, -3.66054997
8888, 16.3448823, -17.5239491, -3.50210928
8889, 16.5903582, -17.2918737, -4.67347954
8890, 16.3953939, -18.2630752, -3.95960808
8891, 34.2796919, -3.31394566, 4.63321968
8892, 35.3390105, -17.7741776, -8.5253137
8893, 14.0269836, -24.5324197, -1.96403576
8894, 14.2080413, -24.5306276, -2.31219269
8895, 37.7417533, -3.30740154, 7.94678436
8896, 34.3184695, 5.4556891, -3.08753445
8897, 35.9913885, 5.67317148, 6.90311388
8898, 35.9943107, 5.90893359, 6.70359512
8899, 37.1497628, 5.41449275, 6.03698236
8900, 37.1557063, 5.17702105, 6.22915212
8901, 21.6860652, -23.9162602, 3.34496768
8902, 24.3693141, -24.5836399, -3.79453752
8903, 25.3902826, -24.4730481, -3.84734926
8904, 27.2825283, -23.3181108, -3.69408715
8905, 36.2188194, -0.915542558, -9.00169935
8906, 35.1022567, -0.0137123167, -8.98778999
8907, 37.00569, -0.0225302219, -8.96869131
8908, 21.0031797, -17.5283406, 6.20564703
8909, 26.42174, -20.0977742, 1.08011036
8910, 23.8062525, -18.9801044, -2.39297453
8911, 24.8473863, -18.9894005, -2.23890342
8912, 23.2876339, -19.3831714, -3.34236335
8913, 23.6263098, -18.8892707, -3.48227788
8914, 33.1565722, -18.8948546, -0.0701052506
8915, 33.1573035, -18.8941622, -2.44417101
8916, 33.3346165, -18.6796968, -2.4439573
8917, 36.9780042, 8.9447184, 0.275679055
8918, 37.0074572, -11.0397597, -8.54084303
8919, 35.9872723, -9.37811691, -7.22277398
8920, 35.0068829, -9.18376728, -8.18868532
8921, 35.0064802, -10.7516711, -7.92315476
8922, 31.0551132, -20.0420271, -4.87199152
8923, 30.7956484, -20.1430015, -2.50216324
8924, 30.7921736, -20.1314404, -4.87174886
8925, 31.0569126, -20.0513507, -2.50219758
8926, 22.0970926, -18.3367148, -1.40062113
8927, 36.9789439, 8.90107283, 0.906780255
8928, 35.6838418, -23.7584214, -2.13402569
8929, 36.168635, -23.3574147, -2.13360893
8930, 36.0000193, -7.86319629, -5.81264939
8931, 35.2652059, -4.44947835, -1.96876499
8932, 34.2828805, -4.06034971, -2.7652163
8933, 35.9806144, 6.13118516, 6.49022359
8934, 37.1264519, 5.63343565, 5.81980387
8935, 21.0451037, -17.2703492, -1.34238691
8936, 16.5547518, -23.7593111, -2.89446624
8937, 35.0284154, -3.24174533, -8.51022879
8938, 20.8346017, -20.4645096, -6.80926921
8939, 20.9759971, -19.3421267, -5.43738439
8940, 21.8514542, -20.371015, -5.63413403
8941, 32.6366005, -20.9110039, -8.7446566
8942, 33.5909859, -20.6410097, -8.87564261
8943, 33.2420496, -20.4310261, -8.07637914
8944, 32.2852724, -20.7004208, -7.94631094
8945, 11.9649679, -20.8867355, 7.03657976
8946, 11.7409283, -20.2704058, 7.50509517
8947, 12.4530497, -20.8866246, 7.41369844
8948, 12.2619813, -20.8175492, 6.28221805
8949, 12.0322964, -20.2022302, 6.75610339
8950, 11.5435738, -20.2073121, 6.38084797
8951, 39.7570851, 3.89502301, -2.38207614
8952, 13.164915, -19.1079905, -0.701065666
8953, 13.2811986, -18.7795122, -0.441104435
8954, 39.9519541, -1.25253827, 3.32701231
8955, 39.7414973, -1.73414748, 4.19727407
8956, 8.78318641, -19.8976004, 1.10286716
8957, 8.57391914, -20.4663374, 0.507718685
8958, 8.53374425, -19.8573697, 0.515966718
8959, 35.2726364, 3.49239442, -0.00790074299
8960, 33.742998, -17.8709153, -7.75313157
8961, 33.8121425, -18.1531093, -8.5706701
8962, 33.2031098, -18.4689814, -8.59309797
8963, 13.8863899, -24.4618052, -2.25549776
8964, 10.9081015, -19.6022214, 5.71993498
8965, 34.0065596, -18.5690578, 8.23122661
8966, 32.2106103, -20.2083284, -8.69971647
8967, 36.0009736, -12.0305917, 3.467214
8968, 35.9873266, -11.0801009, 4.05428519
8969, 11.8597947, -20.8089595, -5.93668067
8970, 11.4448727, -20.1981308, -6.18996186
8971, 38.7644331, -4.57593213, -1.36787628
8972, 40.0163989, 0.953176634, 4.61279558
8973, 39.7071555, 0.729498027, 4.4240443
8974, 39.2841712, 1.69557303, 4.96081148
8975, 39.7169366, 1.66640104, 4.32209366
8976, 15.9088434, -17.2867905, -4.85566582
8977, 38.7741604, -3.48176373, 5.5575635
8978, 39.4953666, -5.08859666, 5.03428703
8979, 34.7838262, 7.21495294, -4.8472098
8980, 35.0022103, -6.82846775, 8.29755394
8981, 34.9903201, -8.47537488, 7.82574335
8982, 40.0165115, 1.68878211, 5.51974433
8983, 31.3110984, -19.9322103, 4.86892355
8984, 31.5536794, -19.7951915, 4.86985843
8985, 39.4000007, -6.07138153, -1.67847996
8986, 39.8731058, -6.36046292, -1.59934311
8987, 38.3962855, -6.87604626, -1.80933797
8988, 38.8987117, -7.13105527, -1.72701033
8989, 39.4877874, -6.90434666, -2.259289
8990, 9.2541934, -19.2109641, -2.08930541
8991, 8.65285614, -19.2489472, -1.1976593
8992, 15.323937, -18.7481646, -4.77284323
8993, 14.0686601, -18.641406, -4.70058668
8994, 36.9871214, 8.84689597, 1.22461064
8995, 35.0431466, 8.79433749, 1.54328891
8996, 35.0180593, 8.41014199, 2.12978718
8997, 37.0174569, 8.50095753, 1.8294831
8998, 40.0524085, 3.94369108, -0.656889057
8999, 39.4998631, 5.0624646, 5.12405649
9000, 38.7820463, 3.54025837, 5.60363321
9001, 37.4297686, 4.65031468, 5.69030385
9002, 18.8782346, -20.3377779, 8.80345203
9003, 14.4524713, -24.531427, 2.61209484
9004, 14.2042115, -24.3928185, 2.86370944
9005, 14.1661455, -24.4947785, 2.59587478
9006, 34.2873895, -9.32154694, 1.03739259
9007, 38.0081568, -0.566299198, 3.36377643
9008, 35.488785, -1.99409182, 8.6289641
9009, 36.2298505, -1.77526988, 8.64389215
9010, 29.9840302, -19.5691141, -8.3603333
9011, 30.3383772, -20.0204746, -8.36077858
9012, 29.4144618, -19.6895673, -8.36058213
9013, 38.7281064, 0.272724526, 3.97035724
9014, 19.58254, -23.8965679, 1.83485314
9015, 37.015024, 0.299597696, -8.95127496
9016, 37.7816657, 0.290695296, 8.94720715
9017, 36.0072988, 0.0141136114, 8.50947083
9018, 36.2828521, 0.288890293, 9.03955672
9019, 36.991474, 1.16388923, 8.7051777
9020, 35.297868, 0.87883811, 8.33224637
9021, 35.0317269, 2.37533072, -7.8268133
9022, 35.0394563, 2.80543089, -8.1664327
9023, 34.9594791, 3.48351212, -7.47768773
9024, 34.9512322, 3.94388672, -7.82371028
9025, 35.9742157, 3.09428967, -7.20801421
9026, 35.3665011, 2.85715844, 1.84459145
9027, 18.2795377, -18.7935113, 4.37041454
9028, 18.5463329, -19.104396, 4.4984229
9029, 18.0223951, -19.1167834, 4.26049021
9030, 32.1574713, -20.1366253, -5.8236529
9031, 30.9175304, -20.7313041, -6.10907177
9032, 39.9505896, 1.12476655, 3.40115265
9033, 18.4390089, -17.7922897, 3.85717074
9034, 18.7485781, -18.4964041, 3.38246547
9035, 19.3703732, -17.7426431, 3.63572294
9036, 18.9898165, -18.0310293, 4.76334653
9037, 13.9902424, -18.2379961, -1.37124926
9038, 32.8854586, -17.7731569, 8.92480185
9039, 32.8566187, -17.5508258, 8.924724
9040, 32.6582599, -17.7675078, 8.92483016
9041, 35.9504816, -14.7779758, 3.21661841
9042, 35.9457192, -14.7848432, 0.835572924
9043, 33.9534019, -13.7763688, 2.3756541
9044, 33.9535486, -13.7762507, 2.04419974e-05
9045, 33.2649284, -21.208479, -6.3998567
9046, 33.103265, -17.6076141, 8.92473966
9047, 33.0972365, -17.8793766, 8.92479775
9048, 33.3538246, -17.7101457, 8.92469951
9049, 18.0654422, -18.99106, 3.35768922
9050, 12.5253536, -19.0994973, -1.53292981
9051, 19.307107, -20.7454853, -8.45852307
9052, 19.5885775, -19.753512, -8.14932069
9053, 18.8067672, -19.7231426, -8.82372917
9054, 13.5025807, -22.1049313, 2.00078119
9055, 15.808724, -16.9860609, 5.51986487
9056, 34.2764846, 1.46058553, 2.30032189
9057, 37.716459, 7.28802483, 3.36109342
9058, 35.7975429, -15.164425, -0.703349341
9059, 11.503307, -20.8882716, 6.70756976
9060, 11.8038181, -20.8197144, 5.95331195
9061, 18.754559, -17.0616442, 3.3330449
9062, 19.2951788, -17.2678751, 4.23176257
9063, 37.9828492, -5.50147597, 4.55999016
9064, 14.1727711, -18.9886277, 7.09350445
9065, 13.9597436, -18.9602351, 6.03815034
9066, 14.508648, -18.5161535, 6.57870048
9067, 15.9493731, -19.0392562, 6.96519622
9068, 35.0309073, 2.20488066, -8.36238383
9069, 34.276372, 1.80124978, -8.7652936
9070, 35.9941224, -11.0566334, -0.983277632
9071, 34.2785024, 3.21107472, 6.41962944
9072, 31.6689799, -24.5740005, 3.32982529
9073, 32.9910515, -24.5731424, 4.46573286
9074, 33.2694597, -24.4933271, 4.03978875
9075, 33.2568496, -24.0247132, 4.53550056
9076, 31.8842494, -24.5092496, 2.80710507
9077, 35.9982191, -12.9010987, 3.29270711
9078, 14.3729124, -17.2769317, -4.91711451
9079, 24.6977077, -20.2485718, -5.04053688
9080, 33.2714162, -24.4941783, -4.04089904
9081, 36.9866368, -9.88857333, -1.91870743
9082, 35.9831259, -8.29472975, -8.20048999
9083, 35.0474998, 0.641441172, -8.94793893
9084, 34.2966497, -2.94530083, 1.33886398
9085, 35.2852549, -3.74497289, 1.09631935
9086, 35.3932697, -2.72422508, 1.69596407
9087, 18.4754626, -17.5290416, -3.45098016
9088, 35.889864, -15.046655, 3.21623436
9089, 35.8832985, -15.0556581, 0.835846576
9090, 33.5009388, -24.4896986, -2.02052231
9091, 34.0939172, -18.1598373, 7.72783228
9092, 34.3757862, -18.5695078, 7.68631641
9093, 34.6269618, -17.8350119, 7.7570575
9094, 21.6776984, -17.9093463, -4.5297638
9095, 35.5720602, -18.6017427, -6.2919898
9096, 35.5715266, -18.5969716, -8.52430188
9097, 34.2831456, 8.61074529, 2.06286543
9098, 35.2912171, 7.85207671, 1.68755504
9099, 35.2690554, 8.24609912, 1.11635354
9100, 39.5048745, -0.583609858, -4.51037031
9101, 20.8957396, -20.4902737, 6.21175548
9102, 19.9348032, -21.3524267, 3.79185445
9103, 32.934198, -20.9484768, 6.0071777
9104, 33.0046102, -21.2031801, 5.62361831
9105, 16.5456946, -16.9826106, 4.61273465
9106, 17.052915, -16.9984403, 4.36952276
9107, 16.7676081, -17.2869915, 4.42298768
9108, 37.6062328, -20.3158372, -4.16184543
9109, 37.6064989, -19.3376057, 3.16487218
9110, 37.6070345, -20.3137066, 4.16773727
9111, 37.6076396, -20.310948, 2.1340177
9112, 19.173446, -17.7052267, 4.94102832
9113, 33.9835211, -17.219907, 8.39726806
9114, 35.9998788, -9.45277751, -5.55427082
9115, 39.330996, -1.62286388, 4.90680455
9116, 10.127428, -19.2724465, 3.11715885
9117, 22.368491, -17.9066236, -3.90486863
9118, 22.8716617, -20.3856686, -4.65552336
9119, 23.832932, -19.1762851, -4.71522378
9120, 35.0578191, 2.64834635, 0.772128352
9121, 23.977818, -17.5005433, -3.03441869
9122, 24.4025562, -18.5689319, -1.80249847
9123, 24.4031742, -17.5050315, -2.25078783
9124, 40.0125597, 0.447735359, 4.36960533
9125, 31.7193467, -19.1651565, -8.92726818
9126, 31.5780317, -19.4421318, -8.92744718
9127, 31.3879967, -19.1825293, -8.92734256
9128, 36.349719, -23.1929273, -2.1297621
9129, 35.2940442, -0.581598288, 3.56083969
9130, 34.2839016, -0.847604119, 2.49212903
9131, 36.9341346, 3.4849408, 5.20169167
9132, 39.8187606, -4.30830139, -1.6858673
9133, 15.8284613, -19.0800092, -6.72163914
9134, 10.6311917, -18.5644926, -1.80757983
9135, 10.595374, -17.500547, -2.25167427
9136, 11.0032567, -17.5049822, -3.04690812
9137, 34.4754308, -16.4981987, -8.46480566
9138, 34.2101201, -24.3166375, -2.01946166
9139, 33.9772843, -24.391639, -2.02070055
9140, 34.3882336, -22.6952512, -0.0688173726
9141, 34.9939624, -7.14801803, -8.20182896
9142, 35.0002713, -5.78452032, -8.20218441
9143, 36.9860243, -5.75290559, -8.8630147
9144, 36.0367886, -6.17240887, -7.5946534
9145, 35.5773952, -17.6220138, -8.52550882
9146, 35.6750162, -17.3049429, -8.52571479
9147, 35.8803265, -17.6333477, -8.5255627
9148, 35.3630518, -21.9690041, -0.0683405156
9149, 36.5135743, -23.0109902, -2.12995769
9150, 33.0648173, -17.3357573, 8.92474117
9151, 38.9774338, -1.72863635, 5.11665655
9152, 14.5404707, -22.6238243, 3.20689214
9153, 14.53765, -23.8915603, 3.21149975
9154, 14.1077687, -22.7798588, 2.96410148
9155, 14.1041971, -24.0399665, 2.96210889
9156, 35.1600461, -14.3836923, -8.48603255
9157, 34.8939942, -14.3053293, -8.48587815
9158, 35.0492199, -14.0390987, -8.48621017
9159, 8.56530164, -19.899137, 0.0276446631
9160, 15.6025432, -19.9004995, 8.42754693
9161, 16.1082022, -19.7855832, 8.80993169
9162, 16.1190064, -20.3967323, 8.78340019
9163, 38.4199102, 6.87003857, -1.79830881
9164, 39.4933407, 6.90129738, -2.24733328
9165, 33.7421743, -24.4483596, -2.01980496
9166, 32.6877699, -20.1865907, 8.54043496
9167, 32.9026792, -19.5990506, 7.87350302
9168, 34.2789523, -1.82097013, 3.09644465
9169, 35.2907461, -1.54448656, 4.02624604
9170, 35.3827317, -1.34723215, 2.64282502
9171, 37.8148454, -17.8455197, 3.52238858
9172, 34.292543, 2.52132304, 0.181479196
9173, 28.0344292, -19.4797392, -7.37111554
9174, 28.9654815, -19.4844818, -5.98414189
9175, 28.9641686, -19.4841869, -8.35678791
9176, 38.966039, -5.02030305, -4.60460916
9177, 37.948606, -4.96196902, -4.17124706
9178, 35.2903565, -2.25571523, -4.90615201
9179, 35.2935322, 1.54568977, 4.0272489
9180, 34.2820436, 1.92637195, 3.20859712
9181, 15.8485828, -18.3375689, 4.89265105
9182, 35.9993628, -4.64201543, 8.87235001
9183, 32.9523891, -20.9526386, 7.04552008
9184, 33.0068394, -21.2055358, 6.67038688
9185, 26.6638199, -24.2139714, 2.99055618
9186, 28.5935028, -23.5993588, 2.80806392
9187, 11.419971, -18.0394496, -1.28319188
9188, 33.3358994, -18.3123012, -6.78774995
9189, 34.8203765, -22.4616471, -0.0673663149
9190, 35.4884456, -23.9048769, -2.13101517
9191, 10.6411444, -19.2496383, -5.00768772
9192, 10.8267854, -19.2350042, -5.27514033
9193, 32.6224575, -19.1891855, 7.91247508
9194, 10.9882355, -20.4534634, -3.32725337
9195, 20.0949096, -18.695852, -6.16924137
9196, 34.609229, -22.5864139, -0.068553457
9197, 35.2765366, -24.0285248, -2.13314168
9198, 34.9216333, -18.2020531, 8.65064277
9199, 35.1696476, -18.3806425, 8.65048889
9200, 35.2046849, -18.044535, 8.65075801
9201, 28.8216319, -20.8843193, 8.25616336
9202, 34.4833075, -17.7800589, -8.48468723
9203, 39.4876108, -3.5183522, 6.16405409
9204, 34.9526653, 3.99433613, -7.20916048
9205, 34.9506419, 5.47123871, -6.79573347
9206, 34.2757007, -4.41632845, -3.5925392
9207, 15.3335621, -17.2856519, -5.32663855
9208, 18.2021222, -19.026045, -3.23166942
9209, 37.7664527, -7.70987345, -3.42917776
9210, 37.9899164, 5.46567849, 4.54185537
9211, 37.0051857, 0.611526582, -8.93542466
9212, 12.4674713, -20.473075, -2.66661173
9213, 12.8035969, -20.4904057, -2.99267709
9214, 17.2338618, -18.2804375, 3.94123018
9215, 19.2125833, -16.9748212, 5.53000591
9216, 32.0213537, -19.6805509, -0.0711230809
9217, 32.2755233, -19.5667483, -2.44343139
9218, 30.8037188, -19.8631679, -8.36078642
9219, 30.9283965, -20.2400164, -8.36121828
9220, 17.0593358, -17.5214513, 3.50495737
9221, 16.3764638, -17.0698978, 3.39786485
9222, 15.8594102, -17.2781166, 4.24945891
9223, 12.4363784, -17.510377, 5.12785658
9224, 39.4621552, 0.448534093, 3.52920017
9225, 35.996381, -4.64610985, -8.87083639
9226, 13.3180397, -19.6010935, 5.42189031
9227, 9.43305834, -18.7676461, -5.00144936
9228, 10.4347004, -19.2491133, -4.77027475
9229, 37.3704638, -20.9662432, -2.01684511
9230, 37.3327793, -21.209198, -2.01944605
9231, 35.9163935, -20.6285186, -0.0708704313
9232, 35.3103584, -21.1034282, -2.08825009
9233, 35.699678, -23.7633629, -4.16041197
9234, 36.1689852, -23.359516, -4.16358435
9235, 15.7461396, -20.8885033, 8.5584257
9236, 29.2424611, -19.4705566, -8.35963889
9237, 29.2424871, -19.4703364, -5.98277075
9238, 33.5931815, -17.1159751, -8.79124127
9239, 34.2718257, 7.39090857, -3.04672242
9240, 34.7845161, 7.27497693, -3.83281532
9241, 35.9339995, -18.2635986, 6.40131765
9242, 22.6032321, -24.0197254, 3.00758796
9243, 18.8740158, -24.5147604, 2.88400801
9244, 34.8981445, -24.2231015, -4.17241969
9245, 34.6768443, -24.3083147, -2.13748989
9246, 34.6859409, -24.3283016, -4.15641387
9247, 34.6513403, -14.8770677, 8.40801806
9248, 35.274424, -3.49408116, -0.0101287025
9249, 28.4536578, -19.2059555, 7.12612313
9250, 28.8472572, -20.2502671, 5.8777617
9251, 29.1232252, -20.2365871, 5.87780697
9252, 28.7312917, -19.1930598, 7.12551036
9253, 34.9017364, -24.2228067, 4.17212877
9254, 34.6842828, -24.3249918, 4.15655233
9255, 34.6769003, -24.3146827, 2.13410772
9256, 15.8511024, -17.7227155, 4.89252757
9257, 30.6139234, -19.6035653, -8.36046925
9258, 14.2107245, -24.3885158, -2.86550016
9259, 14.4600551, -24.5278262, -2.61412226
9260, 14.1688843, -24.4909383, -2.59203597
9261, 36.8533197, -18.6022034, 3.55282743
9262, 37.021809, -18.4171618, 3.5464035
9263, 36.4568074, -19.8973904, 4.6540463
9264, 36.6154745, -19.6869614, 4.65279677
9265, 34.8143007, -13.5119716, -8.48650256
9266, 35.8249378, -12.1921117, -8.48868642
9267, 39.4929818, -3.96372895, 5.385002
9268, 36.0040735, -9.191793, 5.43731732
9269, 40.0442245, 6.20010956, -1.59619762
9270, 34.2856985, -3.04433388, -4.56270147
9271, 12.1979391, -19.340097, -4.33507133
9272, 15.3016245, -23.892186, 3.72181333
9273, 15.2967423, -22.62167, 3.7093756
9274, 35.2787168, 3.74597389, 1.09645566
9275, 34.2905215, 2.78193978, 1.36584039
9276, 33.5650801, -18.5495067, -4.98598007
9277, 33.7623447, -18.3515063, -4.98853998
9278, 32.9611134, -19.0921311, -2.44403782
9279, 34.3229332, -17.6515899, -8.95595787
9280, 34.321772, -17.3395791, -8.95602117
9281, 34.9916081, -14.5080403, 8.4085784
9282, 35.1921939, -14.8136082, 8.40868267
9283, 35.4676247, -14.6457482, 8.40908535
9284, 35.2803692, 2.50608078, -6.02474668
9285, 34.289429, 3.33920548, -6.14810577
9286, 35.2279014, 3.42397256, -6.72376602
9287, 38.2566636, -4.82868189, 7.37119407
9288, 17.7851626, -17.0471987, -3.59959626
9289, 17.7781648, -17.7880101, -3.96054631
9290, 14.5483515, -22.6275511, -3.216369
9291, 24.066256, -19.1069649, -1.74208548
9292, 34.9368904, -14.8343987, 8.40836101
9293, 11.0667194, -20.8898772, 6.27031382
9294, 40.0444548, -1.68797222, 5.51546624
9295, 33.3874527, -19.3446797, 7.01581122
9296, 32.3178582, -19.8800507, 6.00682064
9297, 33.0248034, -20.1546521, 7.29063911
9298, 31.9761304, -20.6961102, 6.29162013
9299, 32.3937774, -19.0804371, 7.30032386
9300, 36.9898899, -7.62895803, -7.20989915
9301, 21.4976081, -18.567573, -0.760564491
9302, 36.4708834, -16.1838216, -8.8495149
9303, 36.1969436, -16.0462978, -8.84963407
9304, 36.4318249, -15.9363964, -8.84963653
9305, 11.2223614, -20.8860495, -6.44468219
9306, 10.8104063, -20.270825, -6.68963089
9307, 11.8818104, -20.1938886, -6.6240259
9308, 36.6722509, -15.3057495, 5.65126675
9309, 31.8147, -18.5442708, -8.92702165
9310, 31.7843204, -18.7434163, -8.92709334
9311, 31.5829039, -18.7258615, -8.92711337
9312, 35.9872264, -9.6072634, 7.82873823
9313, 39.4978904, 6.48476266, 3.15010192
9314, 34.8394137, -18.9967325, 8.64984425
9315, 35.064242, -18.7476241, 8.65017585
9316, 34.6818991, -18.7025856, 8.65009155
9317, 14.9100568, -20.4938757, -4.896012
9318, 16.4335657, -19.7961081, 8.85699586
9319, 28.2418162, -20.2395813, -2.51437589
9320, 28.219739, -20.2347034, -4.8774244
9321, 28.4926515, -20.2014458, -4.87480577
9322, 37.8848949, 6.54151458, -1.7462285
9323, 38.0028788, 7.29869103, -2.26839201
9324, 13.990403, -24.2797494, 2.74044489
9325, 34.2779957, -2.45556189, -0.489483276
9326, 30.4752886, -18.8213607, 8.42604246
9327, 34.5007086, -19.1464507, 7.09629941
9328, 33.8635626, -18.0544648, 7.11472945
9329, 33.878085, -19.8609541, 7.58274023
9330, 33.243337, -18.7839488, 7.59505232
9331, 13.5018258, -23.3568054, 1.99995972
9332, 13.7989278, -24.0419904, 2.58750913
9333, 13.8080424, -22.7754835, 2.58563487
9334, 37.271902, -21.447034, -2.01945661
9335, 28.0264155, -20.2505491, -7.21661942
9336, 28.6636916, -20.7901873, -8.20693637
9337, 26.7852513, -19.5457739, -8.51799338
9338, 28.6680415, -20.0229614, -8.35571323
9339, 29.9185329, -20.7344189, -7.06832372
9340, 35.883882, -14.90028, -0.703151259
9341, 35.8910682, -14.8914839, -3.08827045
9342, 15.5316177, -21.4575225, -3.22094602
9343, 38.4258408, 0.00168340293, 3.87679945
9344, 35.9847675, 6.79900486, -5.90936521
9345, 32.9631511, -18.3736268, 7.63324689
9346, 12.8134603, -19.7100767, -5.23087986
9347, 12.654315, -17.8979617, -3.93919384
9348, 11.6289821, -17.9292357, -3.99467402
9349, 11.9217048, -19.3982682, -3.28168317
9350, 15.157183, -20.4949189, 7.82049892
9351, 15.1857545, -20.8908627, 8.70159605
9352, 24.6048937, -23.6954804, 3.49823935
9353, 35.9938801, 5.02710046, 7.49237345
9354, 8.67730241, -20.8901467, -1.29436105
9355, 38.2352248, -6.61960059, -5.8391192
9356, 22.720529, -17.3045232, 1.46205877
9357, 26.8008376, -23.7662756, 3.52441509
9358, 38.2556822, -4.82042146, -7.36453224
9359, 17.0493182, -18.7867258, -4.35180047
9360, 17.4968487, -18.511916, -3.42558289
9361, 38.437819, -4.01385592, -0.727542609
9362, 9.46058974, -19.2063422, -2.6496857
9363, 14.6788232, -19.8794103, 0.915046011
9364, 39.5198343, 5.07306283, -5.04588283
9365, 38.4577873, 4.25341728, -5.14129301
9366, 38.4044485, 4.0055234, -0.723609482
9367, 13.9071289, -24.3950487, 2.50784121
9368, 13.7051698, -24.2770614, 2.31455497
9369, 9.383445, -19.2376461, -2.3670276
9370, 36.614118, -21.06574, 4.63819787
9371, 14.5452229, -23.8929126, -3.22029032
9372, 14.110552, -24.035238, -2.96459957
9373, 14.1215796, -22.7730138, -2.9649953
9374, 32.9601065, -19.0921071, -0.0700369106
9375, 37.9025791, 7.05404077, -1.45823301
9376, 37.7521554, 7.66685154, -3.45056062
9377, 36.7674265, 7.56354837, -4.33925134
9378, 33.9534455, -13.7762481, -2.37494205
9379, 35.9461539, -14.6294377, -0.702356269
9380, 13.4584848, -24.4749763, 1.79707784
9381, 35.0221721, 2.25507613, 8.00461868
9382, 35.0295925, 2.09630413, 8.48097504
9383, 35.0190168, 2.6637665, 8.2738987
9384, 39.7588504, 3.56359936, -1.23365498
9385, 39.7511773, 4.36472484, -1.56845438
9386, 13.9528361, -17.5248411, 6.24771645
9387, 23.986302, -17.5007213, 3.03306236
9388, 24.3351826, -19.0150619, 2.46812411
9389, 37.9240746, -7.66366437, 0.865605928
9390, 27.3871976, -20.2866961, 3.37406436
9391, 35.6182894, -15.4857066, 4.74019061
9392, 35.71756, -15.2236262, 4.75749866
9393, 37.8302114, -15.6605091, 3.23690533
9394, 19.164756, -18.3465934, 4.94309913
9395, 9.87843525, -19.571396, 4.19494991
9396, 35.9490914, -14.6207216, -3.08346937
9397, 33.9534366, -13.7764248, -4.74997059
9398, 20.8435018, -17.2850724, -5.20588287
9399, 11.0941718, -19.5767351, 5.95635567
9400, 32.8116869, -18.2404256, -8.5263227
9401, 13.6237372, -23.6034541, -1.84864794
9402, 13.8118402, -24.0411978, -2.59500934
9403, 11.3822865, -20.4809153, -2.79593707
9404, 10.8196374, -19.4255673, -3.27377721
9405, 35.0265892, -18.7788424, -9.02844977
9406, 35.5172081, -18.2316343, 8.65067169
9407, 38.0069348, 6.82008779, 2.53299801
9408, 35.9893464, 6.78972496, 5.89757648
9409, 37.1896574, -21.6778963, -2.0191957
9410, 37.9244766, 1.01733798, -7.46468511
9411, 25.1817697, -19.1249102, 0.83438687
9412, 24.8131895, -24.512523, 3.43421127
9413, 13.7919079, -17.5248198, -1.02294311
9414, 37.9218893, -7.70779528, -0.626288924
9415, 39.9661482, -2.25957043, 3.49154843
9416, 33.2881728, -17.0689524, -8.79123429
9417, 12.3677873, -19.5547347, -7.00089465
9418, 12.6224434, -19.5577131, -7.16975702
9419, 12.3675789, -20.1911715, -6.99701809
9420, 22.0327955, -20.0006137, 6.74953984
9421, 31.0561323, -20.0456445, 4.87151803
9422, 30.7919835, -20.1342856, 4.86970678
9423, 29.2560759, -20.4340308, 3.11599807
9424, 29.5195529, -20.3474582, 3.11430056
9425, 20.6133032, -20.5015641, 7.2740612
9426, 36.9807221, 8.6074479, -1.70122135
9427, 35.0694116, 8.55770099, -2.01524882
9428, 35.0451765, 8.69936646, -1.40813797
9429, 13.9975411, -24.2773235, -2.74201175
9430, 37.9908872, 7.18812125, 3.66033048
9431, 37.7241129, 6.79215724, 4.12047186
9432, 38.2342939, 8.06946052, 4.99751704
9433, 20.5336507, -20.4914277, 8.502907
9434, 37.0811446, -21.8976492, -2.01689468
9435, 11.6168659, -20.8848807, -6.81488132
9436, 12.2488063, -20.8065714, -6.30397681
9437, 37.9806312, -14.7437227, -2.8503404
9438, 37.9228689, -15.1315609, -2.9793392
9439, 39.5003823, -6.47958239, 3.0333887
9440, 37.9941842, -6.8294022, 2.46930161
9441, 31.5526223, -19.7956699, -4.87060752
9442, 31.3092858, -19.9293392, -4.87147737
9443, 32.5185907, -19.4296295, -2.44256179
9444, 8.012972, -18.7669567, 0.302232518
9445, 9.0436949, -18.5615636, 0.135515097
9446, 39.1128523, -0.394577469, 7.47500352
9447, 35.2793119, 6.56667981, -2.44265317
9448, 24.0123505, -18.7223164, 5.9279822
9449, 13.3547061, -17.9095511, -4.58831585
9450, 33.3045306, -21.2291018, 8.25865672
9451, 36.646199, -16.4280708, -8.84939067
9452, 36.4658588, -16.7310167, -8.84929995
9453, 36.2604423, -16.4025848, -8.84941398
9454, 8.12224111, -20.2744023, 1.23658386
9455, 8.63617222, -20.4736021, 1.14228763
9456, 39.03801, 2.98276455, 6.62891584
9457, 39.4751179, 3.54273686, 6.24603109
9458, 17.2069454, -20.8782782, 8.93508813
9459, 17.7697735, -20.4813794, 8.84073318
9460, 17.206359, -19.8957504, 8.93939218
9461, 37.5505918, -13.9734951, 8.12657704
9462, 13.4863102, -18.5717245, -0.740272574
9463, 12.9127284, -18.3426779, -1.41467848
9464, 24.9066858, -18.552898, -1.51681864
9465, 25.008756, -18.2149629, -1.30747128
9466, 34.2968539, 8.98212591, -0.906120625
9467, 33.3505412, -18.7289887, -4.98585132
9468, 32.7476459, -19.271173, -2.4439515
9469, 22.5667444, -17.5049752, -5.03998644
9470, 22.1313092, -18.9127705, -5.38834013
9471, 33.0415653, -20.9582523, -7.50270719
9472, 13.7103202, -24.2681508, -2.31904776
9473, 13.9144703, -24.3922027, -2.50939483
9474, 37.981237, -7.23838166, 3.66232309
9475, 10.7101049, -21.0012024, 2.88065029
9476, 34.2757835, 2.45230968, 7.94215886
9477, 34.2787184, 2.30923057, 8.42089873
9478, 35.2978941, 1.86188052, 7.68256287
9479, 34.2928743, 7.97562957, 2.4821597
9480, 24.5886662, -19.0982527, -1.43681254
9481, 23.5757563, -18.0191316, -1.28331345
9482, 36.9777376, 8.67287885, -1.40276705
9483, 23.5712923, -23.6617168, 3.21660717
9484, 22.0025857, -19.9958943, -6.75229788
9485, 21.0131973, -18.9495468, -6.56953335
9486, 37.9400638, 7.67017601, -0.642282693
9487, 36.3491403, -23.1944426, -4.14052819
9488, 29.4417756, -24.5330441, 3.45041452
9489, 29.5181853, -20.3452096, 0.743206881
9490, 32.0247734, -18.2781522, -8.07827384
9491, 31.552844, -18.4487086, -8.92699503
9492, 37.7448329, -2.91609401, -8.37967355
9493, 37.1815524, -3.31527833, -8.84060493
9494, 38.0085075, -7.77427657, -0.130273527
9495, 39.4810618, 4.27370457, -5.65643106
9496, 36.3504798, -23.1945847, 4.13995452
9497, 36.1681681, -23.3593297, 4.13768428
9498, 17.8978522, -19.2382038, 7.73646845
9499, 18.7844537, -19.215841, 7.25368401
9500, 34.3575447, -19.0072839, -6.32688256
9501, 11.186893, -18.9558323, -2.39357405
9502, 17.5001994, -18.584584, 3.8874592
9503, 36.9716752, 8.54029744, -2.00966976
9504, 37.1831061, -3.30382538, 8.84280161
9505, 36.985614, -1.92037126, 8.54229322
9506, 34.3006587, -2.68175487, 0.143277169
9507, 37.954078, 7.7871674, -0.101799904
9508, 30.7379212, -18.732562, 6.05142336
9509, 30.4739553, -18.8216758, 6.05155719
9510, 37.9201788, 1.6760804, -6.73134017
9511, 37.9268623, -1.09163043, -7.56011675
9512, 35.0143864, -17.7242101, 8.12323141
9513, 19.7623979, -17.0486965, 3.49470762
9514, 12.1050471, -20.8836395, -7.19096151
9515, 12.5119766, -20.8839887, -7.50121321
9516, 37.9064062, -7.04704681, -1.45931144
9517, 23.5539632, -24.0942377, -3.29667071
9518, 13.0229194, -19.3865482, -7.49200906
9519, 12.7522554, -18.7530067, -7.35606826
9520, 13.0283122, -18.7613453, -7.48172142
9521, 34.9516275, 4.49558074, -7.5485437
9522, 36.9505853, 4.76246095, -7.38897489
9523, 23.8303266, -23.196932, 3.74634023
9524, 15.837643, -18.0283034, -5.10263138
9525, 36.9405168, 4.50087237, -7.54508412
9526, 24.01579, -18.7192067, -5.90952056
9527, 9.70852805, -19.5291688, 3.94509776
9528, 39.92801, -0.294983965, -3.57917414
9529, 36.6723744, -22.820725, -4.14969901
9530, 36.4643907, -22.1493264, -4.15570036
9531, 36.9615949, -22.110705, -4.02807032
9532, 36.9551848, -22.4876284, -4.25232632
9533, 36.7460967, -21.8082054, -4.26877961
9534, 36.4470979, -22.5141177, -4.38060971
9535, 37.2737267, 3.58578512, 6.53501534
9536, 24.6060762, -19.2942225, 3.74813227
9537, 24.7078824, -20.2629197, 5.04027027
9538, 39.7344684, -2.31848664, 5.14189493
9539, 37.9075266, -0.577318567, -7.73580832
9540, 38.0207336, 3.51601259, -6.56646797
9541, 37.757191, -0.0280067655, 8.94393472
9542, 36.2787308, -0.0165492138, 9.0441199
9543, 36.9476968, -0.920453642, 9.00105131
9544, 35.4888164, -0.934410477, 9.11426121
9545, 20.4819185, -24.1605683, 1.26324717
9546, 21.4462413, -17.5000683, 5.40436828
9547, 31.004072, -20.7324688, -7.60192245
9548, 35.4936035, -23.9063365, -4.15604095
9549, 36.9410522, 4.22664963, -7.6934034
9550, 13.4748395, -24.6023397, -1.77013674
9551, 35.4869855, -23.9033509, 2.13477701
9552, 35.7024702, -23.7681754, 4.16498244
9553, 35.4929684, -23.9076416, 4.15267818
9554, 34.7251253, -17.6723519, 8.89998333
9555, 37.7480341, 1.14537293, -8.79128574
9556, 37.8956439, 0.514864915, -7.69774854
9557, 33.5804479, -19.1988896, 6.3868546
9558, 32.7465222, -19.271131, -0.0700525439
9559, 34.4861079, -18.9415277, 7.97978492
9560, 35.2886017, 2.27054565, -7.06286896
9561, 38.0198419, 3.59233451, 0.514597945
9562, 38.0296461, -3.60655623, 0.515476099
9563, 9.83099575, -19.0723295, -0.643492985
9564, 35.4597229, -1.49373153, -8.93537545
9565, 34.3077981, -1.68527083, -8.43061071
9566, 34.278113, -0.605726178, -8.98258184
9567, 34.9036142, -18.498985, 8.65038353
9568, 34.2772178, 2.86691615, 7.55161236
9569, 35.3018529, 2.24239804, 7.11417029
9570, 14.3744751, -18.9830731, 0.746832802
9571, 8.97099409, -19.2523185, 1.97735601
9572, 9.04224812, -19.245427, 2.29553468
9573, 14.0095152, -17.0255665, -1.63810042
9574, 34.2827535, -2.65842681, 3.93618095
9575, 36.9969571, 1.77617067, 8.56062646
9576, 35.057629, 1.50798492, 8.65223214
9577, 39.4967307, 3.98276158, 5.47034705
9578, 31.980506, -20.6967788, 7.33456049
9579, 36.0080505, -16.0397323, -8.19207829
9580, 35.8652383, -16.1703059, 7.3004003
9581, 37.0963215, -15.5444688, 7.3609456
9582, 36.1831012, -16.0470961, 7.95383339
9583, 36.9869859, -5.75594833, 8.86223127
9584, 36.9867916, -7.63316011, 7.19637167
9585, 36.9299198, -3.4624946, -5.41925396
9586, 38.5024931, -4.36792623, -5.24390621
9587, 37.5972743, -20.5560603, 4.15347578
9588, 12.7132644, -20.0911568, 6.18504676
9589, 37.5981848, -20.5577494, -4.14964141
9590, 36.7488147, -16.0593506, -8.84952801
9591, 37.045941, -19.3796748, -4.51386509
9592, 36.6262343, -19.6817237, -4.64222389
9593, 35.5205096, -16.8339871, 8.13853796
9594, 37.5969384, -20.5544335, 2.13171576
9595, 25.9561921, -20.25719, -8.52216742
9596, 27.6393451, -20.7967976, -7.25338034
9597, 27.0125948, -20.260615, -6.26804891
9598, 37.5952834, -20.5557742, -2.13569966
9599, 16.6623034, -19.8916661, -8.83291095
9600, 17.0891244, -20.886359, -8.9371883
9601, 17.7339255, -19.9156666, -8.89970568
9602, 34.2677079, 3.1406093, -7.05244802
9603, 40.0087539, 1.34392665, 5.09949698
9604, 39.7205063, 2.05327625, 4.79562389
9605, 36.6618689, -22.8148647, 4.13816169
9606, 36.9619678, -22.1148449, 4.03048641
9607, 36.7462816, -21.8111109, 4.26521029
9608, 36.954295, -22.4890032, 4.25184266
9609, 36.4648673, -22.527935, 4.39244129
9610, 36.5154921, -23.0123941, 4.13987599
9611, 36.5133968, -23.0125596, 2.13033946
9612, 16.107107, -18.7819684, -4.84882741
9613, 36.5147895, -23.0126006, -4.13982375
9614, 14.9080038, -23.8941748, 3.51664089
9615, 33.8759034, -19.8597274, 8.83274604
9616, 26.7135989, -20.2573834, 4.99878881
9617, 10.302939, -19.2627786, -4.49065877
9618, 35.2819482, -18.8725871, -6.39211421
9619, 34.2846569, -0.0171935774, 9.04854261
9620, 32.3973044, -17.8412429, 5.88675372
9621, 32.593821, -17.643137, 5.88652375
9622, 31.6792292, -18.1456678, 6.05174416
9623, 31.8757208, -17.9472192, 6.05156549
9624, 32.0162037, -18.5698692, 7.18626273
9625, 16.2673859, -20.8608801, -9.00490734
9626, 36.7819612, 7.71226278, -4.06300468
9627, 34.7910117, 7.56395805, -4.33980693
9628, 13.3035363, -24.2632962, 1.85745337
9629, 37.9759092, 7.52149369, 0.89907084
9630, 12.9891046, -20.8871348, 7.71139278
9631, 33.7093442, -17.7031974, 8.32433157
9632, 37.005647, 2.06297291, 8.47541718
9633, 34.0453385, -19.8510306, -8.85738711
9634, 37.8324177, 0.423193659, -4.28328757
9635, 38.4157046, 0.287449265, -4.24466184
9636, 40.0894808, -6.5280085, 1.50489041
9637, 19.5187443, -17.9965753, -6.03138774
9638, 33.9726206, -24.4031472, -4.06037959
9639, 26.5048411, -19.27428, 0.591971711
9640, 26.7150791, -20.2541027, -5.00551816
9641, 34.2754077, 1.95667279, 8.18294007
9642, 34.2780125, 0.916343865, 8.76070535
9643, 35.0379344, 1.78122603, 8.26231583
9644, 35.2885335, -24.0395777, 4.16850075
9645, 35.2754776, -24.0280948, 2.13298943
9646, 36.9754963, 8.43650814, -2.30884135
9647, 34.9675401, -15.797051, 7.88070537
9648, 40.1021885, -7.27378037, 1.6243402
9649, 20.3807246, -17.2961699, -5.88290754
9650, 35.2877843, -24.0414757, -4.16825935
9651, 31.5467764, -18.962579, -8.92719889
9652, 31.764484, -18.9179096, -8.92716929
9653, 39.9587025, 2.30297309, 3.55492934
9654, 36.9776404, 1.48388408, 8.62515673
9655, 35.2630188, -0.894379777, 8.34325815
9656, 36.9420542, 5.00399694, -7.20694127
9657, 37.0405796, -19.3816839, 4.51441935
9658, 36.9829773, 2.5006588, -8.2528907
9659, 15.197356, -17.0600577, 3.55219208
9660, 30.29852, -19.4936756, -8.36026963
9661, 35.0055817, -14.6792421, -7.99450074
9662, 34.2817449, 0.621297804, 9.06435812
9663, 16.4895108, -19.0644022, -7.45512409
9664, 36.9755436, 2.20666414, -8.35703671
9665, 31.7634699, -20.6970959, 8.88402836
9666, 32.1112969, -20.157983, 8.54079285
9667, 32.3293656, -20.6972579, 7.92610183
9668, 34.2753319, 1.19108388, -8.88476373
9669, 15.425956, -23.6473306, -4.05799735
9670, 14.92015, -23.892384, -3.52355886
9671, 21.8941841, -20.2612053, 8.89582763
9672, 36.9910722, -15.1778047, 8.78798559
9673, 19.1434294, -19.0855709, -6.70136565
9674, 37.0016339, 8.42470563, 2.12244117
9675, 21.7787679, -17.5083739, -5.65735438
9676, 13.3241803, -24.378671, -1.83472272
9677, 12.9165715, -18.8784068, -5.42359762
9678, 12.3953637, -17.519001, -5.04557495
9679, 36.9927069, 8.23070611, 2.70846124
9680, 39.905897, 0.477397811, -3.65644983
9681, 17.200039, -17.2973741, -7.57743014
9682, 17.5003961, -16.972459, -7.6382757
9683, 11.7691468, -19.5698339, 6.59822817
9684, 35.2732762, -0.583092228, -8.43761159
9685, 36.7724279, 7.8444841, -3.78520022
9686, 37.3906847, 4.76945203, -5.53579461
9687, 36.9998905, 2.36160011, 8.3880227
9688, 37.0153661, 8.33454811, 2.41723546
9689, 15.4968316, -21.0680861, -3.98085253
9690, 21.0000226, -19.2189819, -7.46570251
9691, 20.8468156, -20.2648857, -7.87174166
9692, 21.9538698, -20.2539166, -7.66471347
9693, 36.9646186, 2.78801263, -8.1476516
9694, 20.8596752, -19.0093853, 7.08617773
9695, 34.2731074, 1.96976144, -8.28512584
9696, 34.2901161, 2.70151438, -7.35079363
9697, 13.134339, -20.7811195, 6.83517228
9698, 19.3126138, -19.0605017, -6.12634448
9699, 18.8384886, -16.9965379, 5.10751653
9700, 19.5457496, -17.2720069, 4.77215675
9701, 36.9485172, 5.24297479, -7.00574775
9702, 27.0636913, -19.6383961, 8.51306415
9703, 25.9632629, -20.2582306, 8.52422298
9704, 27.01565, -20.2601737, 6.26397391
9705, 27.9166339, -20.8821498, 7.25125354
9706, 17.7935846, -17.2954724, -7.54405548
9707, 10.9450747, -17.5149106, 2.24282064
9708, 11.7381306, -18.0235747, 2.2038303
9709, 35.5882469, -18.2063604, 6.10789247
9710, 35.495356, -18.3075371, 6.10991729
9711, 35.1043209, -18.2095294, 7.50683257
9712, 35.2593012, 8.2766888, -1.07922169
9713, 34.2951387, 8.50393292, -1.77250239
9714, 40.0365463, -1.34500369, 5.09973636
9715, 39.7373672, -1.98199064, 4.73967031
9716, 13.3898375, -24.0391493, 2.14613945
9717, 18.0473307, -19.0890508, -7.73730191
9718, 18.5014349, -19.0591732, -7.47875005
9719, 34.2998937, 6.6956997, -3.03848379
9720, 34.6164663, -19.4991596, 7.39655745
9721, 31.4206882, -20.6972532, 8.28789777
9722, 33.989549, -16.4440108, -8.29993954
9723, 15.8960197, -19.2645351, 8.5352205
9724, 34.7183516, -14.6624313, 8.4081693
9725, 35.3904077, -14.2496626, -8.48628002
9726, 39.8116597, -5.09328711, -2.05036934
9727, 28.7049863, -23.0730295, 3.25197503
9728, 38.2281743, 3.91617523, -7.75283536
9729, 38.2374978, 4.21104948, -7.61162807
9730, 38.2331299, 3.89580367, 7.76173205
9731, 38.2383417, 4.18837049, 7.65549044
9732, 38.2706897, 5.94491041, -6.40881928
9733, 38.2724535, 6.11823345, -6.18993735
9734, 28.9859021, -20.497923, 3.11701117
9735, 23.8313064, -18.4971751, 1.75043263
9736, 23.9765867, -19.1232333, 1.66065057
9737, 10.444575, -19.112162, -1.46085871
9738, 35.0771301, -15.8087976, -7.07751735
9739, 34.0080678, -14.8738979, -5.94934975
9740, 34.9742318, -14.9929586, -5.87881088
9741, 35.8379999, -14.7233667, -7.23905941
9742, 34.7666059, -13.7912863, -6.11184634
9743, 34.869835, -14.6080174, -7.30988555
9744, 35.2861547, -1.56801072, -7.9557986
9745, 34.3602518, -23.7601412, 4.63803636
9746, 34.1482362, -23.9860441, 4.65928578
9747, 34.3292992, -23.9304788, 4.66259589
9748, 13.2307523, -20.3975859, -3.5585227
9749, 35.879455, -14.5704463, 4.64559044
9750, 35.9336214, -14.1820441, 4.51266584
9751, 34.702562, -14.8029812, 5.76141815
9752, 17.9055437, -19.2382111, -4.29748216
9753, 23.0681403, -19.99955, -5.81498623
9754, 34.3286414, -23.9299807, -4.6624437
9755, 34.1468556, -23.985952, -4.65909487
9756, 34.3599877, -23.7594987, -4.63832908
9757, 32.0155512, -18.1745598, -8.98450672
9758, 31.9335043, -18.8492921, -8.41178921
9759, 16.7366305, -20.3970836, 8.86806264
9760, 37.5313831, -14.3649485, 8.19513777
9761, 19.1488065, -19.1034881, 5.38362733
9762, 10.9598455, -19.1007307, -1.75376913
9763, 10.2040872, -18.9903071, -2.26237524
9764, 15.1407886, -20.4914373, -4.32755123
9765, 13.9146747, -20.4013685, -4.2369977
9766, 13.9617694, -17.278499, -1.3902062
9767, 15.9193053, -19.1023419, -5.14622016
9768, 31.9523727, -18.1782246, 5.88577331
9769, 31.6094099, -18.9931077, 6.1624543
9770, 14.1466426, -20.7813425, 7.42177412
9771, 13.6628339, -20.7801333, 7.13760005
9772, 14.3085031, -20.7848571, 6.49214029
9773, 33.0076355, -21.2080456, -5.61605779
9774, 16.1547142, -16.9922081, 5.09961666
9775, 15.4793868, -17.2791802, 4.72545219
9776, 38.4798249, 7.46198997, 1.30199555
9777, 38.946912, 7.16904987, 1.72616543
9778, 38.933185, 7.55755308, 1.20094605
9779, 16.9836623, -19.0820196, -7.70065873
9780, 33.7443586, -24.4640118, -4.05149643
9781, 35.0018565, -5.56413804, 8.27137613
9782, 38.278527, 5.23854234, -6.99019079
9783, 38.2698723, 5.50821461, -6.82184051
9784, 38.2699573, 5.51929349, 6.8543626
9785, 38.2649517, 5.27519038, 7.04401538
9786, 33.9711834, -24.4016656, 4.05826976
9787, 33.7436165, -24.4640204, 4.05087032
9788, 27.0180507, -20.0792334, 0.204924126
9789, 36.3526985, -16.0782269, -7.60249947
9790, 37.0036762, -15.1044618, -6.94895146
9791, 24.3861204, -17.0046816, -1.839302
9792, 24.6989849, -17.2820154, -1.76868831
9793, 24.9081449, -16.9903, -1.52558662
9794, 34.7398322, -18.2077617, 8.04983905
9795, 34.2902461, 8.79619043, 1.50592599
9796, 13.8783219, -20.2709153, 8.73984507
9797, 14.5863093, -20.8897215, 8.54612789
9798, 14.0088661, -20.8891971, 8.30573754
9799, 33.4974347, -18.0517671, 7.65887743
9800, 34.7291937, -19.0082178, 6.4767252
9801, 34.8159451, -19.4121687, 6.76730667
9802, 39.5007435, -4.29394004, -5.65686658
9803, 13.9776534, -18.2309006, 5.55185047
9804, 34.7662492, -15.4064425, -9.0089566
9805, 31.9772068, -19.5132661, -8.12607916
9806, 28.7060719, -20.5414615, 0.742679582
9807, 32.8064305, -19.1288157, -5.24517444
9808, 31.7924008, -18.4368375, -5.69907257
9809, 37.7494612, 8.61153833, 1.70092938
9810, 33.5065973, -24.4922433, -4.04283487
9811, 17.5019796, -16.9986308, 3.91392845
9812, 28.7121454, -20.5391814, 3.1215821
9813, 40.0119517, -0.000987104126, 3.91420684
9814, 33.505239, -24.4937054, 4.04266687
9815, 37.3336415, -21.20875, -4.03046232
9816, 13.1954767, -17.4997383, -5.64066078
9817, 34.0984279, -19.7265328, 8.8324627
9818, 37.7360546, 2.78864952, -7.84082649
9819, 37.7375828, 2.03244063, -8.6027881
9820, 24.3454079, -24.222116, 3.07579271
9821, 24.9705389, -19.0818164, 1.0976443
9822, 34.2676244, -19.7181576, -8.85657446
9823, 17.9221938, -16.8322992, 7.48938757
9824, 24.817263, -20.2320651, 6.3083176
9825, 23.0579956, -20.2322281, 7.95038939
9826, 22.2519112, -18.7507748, 7.39382947
9827, 23.1590266, -19.9512428, 7.06162743
9828, 34.9631977, -16.5016221, -8.29846431
9829, 35.3283428, -18.5035564, 6.12130102
9830, 35.0287262, -17.5996663, -7.98085063
9831, 33.1749059, -18.0267106, 8.29694191
9832, 14.5671267, -19.7826995, 7.15831022
9833, 31.4880962, -18.600155, 8.4260358
9834, 40.1181134, -0.417602597, 7.47584868
9835, 34.4991004, -16.6879484, 7.74595258
9836, 37.9321014, 1.30188367, 7.21218366
9837, 8.58455443, -19.8886808, -0.588244743
9838, 8.04091412, -20.2761032, -0.00329271303
9839, 8.56240215, -20.4704818, -0.117223786
9840, 33.8982035, -17.5325079, -8.49771799
9841, 38.2501975, 0.933799527, -8.68315902
9842, 38.2575856, 0.604538799, -8.68749185
9843, 25.1254999, -20.2758071, -7.51981386
9844, 25.0814486, -20.2763362, 7.56998828
9845, 37.773414, 7.81100757, -3.18631125
9846, 24.481261, -17.521244, 2.21668599
9847, 32.1824342, -18.0200128, 5.8859832
9848, 31.4654052, -18.3246966, 6.05085492
9849, 23.0975001, -20.2323686, -7.90054897
9850, 24.8621424, -20.2326042, -6.25965678
9851, 23.1939756, -19.9502716, -7.01768161
9852, 22.2443072, -18.7517333, -7.39436311
9853, 37.2108527, 4.4959025, -6.66329937
9854, 11.6547884, -19.5721213, -6.42416648
9855, 38.4571225, -7.36406289, -1.52442463
9856, 38.7852876, -7.46951256, -1.32529858
9857, 20.7537035, -19.2595522, 7.95884752
9858, 21.9680814, -20.2429501, 7.64806462
9859, 13.5067358, -17.5121289, 5.46264423
9860, 37.0871582, -21.9000506, -4.02956293
9861, 35.3953629, -18.5703767, 8.65034426
9862, 38.4264013, 6.31469965, 1.77155073
9863, 37.8295218, 6.42951634, 1.72810582
9864, 11.5356024, -19.573615, 6.39364621
9865, 38.0319815, -7.28232653, 1.26751744
9866, 13.6763462, -18.7326522, -1.33423204
9867, 32.8095162, -19.1292481, 5.24684447
9868, 9.18115815, -19.3591117, 2.78512902
9869, 9.17802202, -18.726804, 2.76116142
9870, 37.0866164, -21.9016343, 4.0267572
9871, 27.941693, -20.2587311, 4.87937822
9872, 16.1141572, -18.6978456, 7.32103754
9873, 19.2725806, -19.7192196, 8.52665929
9874, 18.2827908, -19.7606191, 8.99786261
9875, 12.9086449, -20.1663195, 7.31008185
9876, 8.57369353, -21.0574691, 0.827573388
9877, 39.4769015, -6.97041847, 2.22272752
9878, 16.8790707, -19.2446872, 8.9507382
9879, 17.2051778, -19.2244948, 8.92680784
9880, 32.9893719, -24.5741921, -4.45943917
9881, 12.9088829, -19.536577, 7.31773581
9882, 12.652909, -19.530322, 7.14226695
9883, 38.9761753, 5.77220271, 2.19985245
9884, 39.4827868, 6.57510499, 2.21994164
9885, 35.8369431, -22.7872921, 4.6234737
9886, 36.1227673, -22.1876178, 4.63262287
9887, 38.2511864, 0.930255981, 8.69180877
9888, 38.2599792, 0.592629823, 8.7013127
9889, 36.0936924, -22.1744362, -4.63698962
9890, 35.8429426, -22.7731418, -4.62771267
9891, 34.5627155, -14.1127558, 8.4081902
9892, 8.61488846, -19.2562871, -0.883918141
9893, 37.1508395, -19.2886743, -4.50798459
9894, 16.4174224, -20.994003, 8.84875468
9895, 37.1069887, 5.97609144, -5.45021747
9896, 37.0950192, 6.17120674, -5.21434053
9897, 31.6628664, -18.8222903, 8.42621974
9898, 16.9648676, -19.2194209, -8.83214593
9899, 18.0660705, -19.2268024, -8.86151776
9900, 38.3417045, 7.25176959, 1.67082613
9901, 21.0774007, -17.2621619, 5.61849126
9902, 37.9870429, -7.35061126, -2.32513399
9903, 37.9894614, -6.88708592, -3.49429446
9904, 37.2734186, -21.4467401, -4.03029341
9905, 37.3338037, -21.2103549, 4.02996073
9906, 37.273462, -21.4484611, 4.02871537
9907, 37.815651, 7.34917575, 1.24084543
9908, 8.57048537, -19.2669483, -0.282472431
9909, 13.5241966, -20.8886965, 8.02346522
9910, 35.0416077, -18.7709418, 6.22681793
9911, 37.148797, -19.2927282, 4.50705603
9912, 37.1347371, -20.4832555, 4.64715208
9913, 37.136727, -20.2756836, 4.64181504
9914, 37.1913598, -21.6777172, -4.03049215
9915, 8.53601895, -21.0623317, 0.190779434
9916, 37.1362327, -20.4843719, -4.6376181
9917, 37.1367049, -20.2773903, -4.63353552
9918, 10.1631183, -17.2974332, 1.58653107
9919, 38.4649895, -7.51627144, 1.25209311
9920, 38.5658626, -7.15538953, 1.71351712
9921, 38.9656852, -7.53821965, 1.26631042
9922, 29.8988193, -20.7335342, -8.36171145
9923, 37.1913059, -21.6795353, 4.02823752
9924, 23.0907174, -18.8054809, 1.74442372
9925, 15.3153775, -24.2001713, -4.15998084
9926, 38.4366428, -0.786946481, -7.77594922
9927, 38.4121063, -0.533970837, -7.4602456
9928, 38.0015791, -0.531468611, -8.12810587
9929, 31.3198769, -18.8856729, -8.927192
9930, 31.0721001, -19.072592, -8.92729852
9931, 33.6736282, -17.0387729, 7.69719228
9932, 31.6928433, -18.622341, 8.42601504
9933, 30.6962939, -19.5444997, -7.787345
9934, 16.6662022, -19.2313011, -8.80403263
9935, 34.18397, -16.7659486, -7.03607842
9936, 35.1520713, -16.8802605, -6.96564441
9937, 34.8075638, -16.8403901, -7.5542921
9938, 35.701304, -15.8831594, -7.59558994
9939, 34.7328906, -15.7693888, -7.66693765
9940, 38.5770095, 0.015574861, -3.4208014
9941, 24.6520672, -16.9926634, 1.72660485
9942, 37.7742056, 7.93267261, -2.90573631
9943, 33.900693, -18.9804338, 6.11628384
9944, 19.8592995, -18.7663329, 8.39509004
9945, 23.9071307, -16.9977905, 1.56064893
9946, 24.6960533, -18.002843, 1.69151208
9947, 9.13200733, -18.7642434, 4.47983885
9948, 12.6473931, -19.2911628, -6.29917716
9949, 8.87581498, -19.2462649, 1.69934549
9950, 34.617787, -23.6015109, 4.64131901
9951, 34.5146167, -23.858147, 4.64671268
9952, 11.3050263, -19.5801908, 6.18518118
9953, 34.5140692, -23.8578511, -4.64712215
9954, 34.6169578, -23.6008793, -4.64106818
9955, 34.339503, -16.4270931, -7.78025423
9956, 34.2453436, -15.7654064, -7.83301145
9957, 18.0689751, -20.5097846, -8.87708616
9958, 11.8725134, -19.5529646, -6.63892508
9959, 13.1858451, -19.2726849, 6.62011224
9960, 9.70290081, -18.9931518, 2.03679908
9961, 34.4139452, -17.4985905, -7.66714778
9962, 39.1023376, -7.31525528, 1.63048483
9963, 33.9534267, -13.7764689, 4.7499671
9964, 33.4123609, -17.4783885, -8.33294012
9965, 21.2622555, -18.2136766, -6.12566478
9966, 38.0297627, 7.80932454, 2.02487621
9967, 37.7471946, 8.85300091, -1.20767088
9968, 37.7780755, 8.26179143, -2.09387454
9969, 23.9509213, -18.9254375, -4.60729247
9970, 13.0246686, -18.7548488, 8.37207507
9971, 13.0327963, -18.7586443, 7.51063526
9972, 13.0194683, -18.7667238, -8.36763386
9973, 21.9084668, -20.2647458, -8.90478695
9974, 38.2616845, 7.92735893, -3.56644349
9975, 38.2294182, 7.75853068, -3.85134431
9976, 37.9935717, -0.271335042, -4.25320836
9977, 37.75288, 8.73370876, 1.10390029
9978, 38.237632, 8.34222958, 0.470690721
9979, 37.7498646, 8.95681514, 0.0527811062
9980, 37.9815752, 5.75175948, 1.76592844
9981, 37.0855084, -20.6824655, 4.67193814
9982, 36.6288605, -21.0583293, -4.63199824
9983, 37.0901222, -20.6814269, -4.66256391
9984, 28.498089, -20.2008037, 4.87422909
9985, 28.2219975, -20.2377638, 4.87568509
9986, 37.2913165, 7.69089298, 2.22354921
9987, 15.4051329, -24.1392246, 4.0712682
9988, 34.0561538, -16.9845876, 5.9826311
9989, 35.8222502, -17.8912165, 6.10809386
9990, 17.5086039, -18.7417213, 8.7252461
9991, 12.1126054, -19.5551657, -6.83302469
9992, 31.5511228, -18.5736178, -5.70320006
9993, 31.2358142, -18.4828693, 6.05086324
9994, 35.4026138, -23.3602686, -4.65538908
9995, 35.6117665, -23.6350796, -4.50474568
9996, 35.4186821, -23.5785236, -4.60981231
9997, 35.8039659, -14.841965, -4.63221271
9998, 35.8752444, -14.5735297, -4.64268625
9999, 36.9445143, -15.4932846, -5.77257664
10000, 34.9130834, -15.2632294, -5.87821351
10001, 13.9079372, -18.2132983, -5.85191022
10002, 34.2304229, -17.8790833, 4.88955934
10003, 33.9403696, -18.1391183, 4.99215749
10004, 33.9002203, -17.2148778, 5.98307494
10005, 37.2533688, -15.6476878, -8.84957078
10006, 35.7045666, -15.2283527, -4.76111719
10007, 36.8509125, -15.8736022, -5.88214654
10008, 35.4043467, -23.3620917, 4.65408449
10009, 35.4157136, -23.5825799, 4.60727023
10010, 35.6126665, -23.6337748, 4.50316034
10011, 35.225719, -16.4611024, -4.87740865
10012, 35.1955531, -16.5067293, -4.8756995
10013, 34.7148334, -15.7851997, -5.87858567
10014, 36.5216552, -16.6442016, -6.0040627
10015, 36.547981, -16.5959189, -6.00639957
10016, 16.97795, -18.9883233, -8.01332925
10017, 16.364731, -19.2433006, -8.78135776
10018, 16.0491594, -19.2451911, -8.7528804
10019, 32.9464133, -17.9184552, 7.68485414
10020, 34.5548161, -17.4567183, 4.87199317
10021, 24.2884639, -20.2646111, -8.49337375
10022, 31.3656074, -19.1283438, 6.16192334
10023, 34.2934036, 8.91627596, -1.54409094
10024, 35.353333, -23.1800971, 4.63439076
10025, 34.992612, -23.4254979, 4.62808281
10026, 35.5773488, -15.6029907, -4.83916309
10027, 35.4960908, -15.8569462, -4.8399032
10028, 34.8250936, -15.528712, -5.87948463
10029, 36.7176343, -16.2423694, -5.96645718
10030, 39.8820541, -7.16789049, -1.73120321
10031, 40.0648262, -7.47171869, -1.39565107
10032, 34.9919141, -23.425743, -4.62994988
10033, 35.3489354, -23.1783978, -4.63230284
10034, 21.4123523, -20.2693028, -8.28537526
10035, 31.7287587, -18.4198285, 8.42582952
10036, 37.8012623, -1.00472584, 8.60446429
10037, 37.7389502, 8.94150269, -0.275544126
10038, 37.744312, 8.9158459, -0.587860279
10039, 24.2415037, -20.2648793, 8.54406651
10040, 32.2384722, -18.0993184, -8.07808898
10041, 32.2292726, -17.9956686, -8.98442464
10042, 32.9668056, -20.98753, 8.882102
10043, 10.1066677, -19.5424836, 2.45272797
10044, 40.0971113, 7.0259116, -1.79934751
10045, 40.0633831, 7.42960971, -1.49035541
10046, 35.4534813, -17.8946206, -5.96223678
10047, 33.6887754, -16.9837942, -5.83671211
10048, 35.219887, -18.2104383, -5.96227487
10049, 35.7667339, -16.9805195, -7.27881291
10050, 34.8713648, -17.9419737, -7.23519465
10051, 35.4221874, -16.941916, -7.86789342
10052, 36.3480059, -16.9348588, -6.00354713
10053, 37.1192243, 5.53848337, -5.88155402
10054, 9.13039323, -18.7674966, -4.4767067
10055, 10.1317543, -19.2477854, -4.21593872
10056, 37.919118, 0.424148344, 7.73105892
10057, 35.1948478, -16.5073136, 4.87343066
10058, 35.2254296, -16.4618016, 4.87553304
10059, 34.4419993, -15.5957786, 5.76090474
10060, 36.2735782, -16.4089324, 5.88798064
10061, 36.2468916, -16.4569333, 5.8873487
10062, 34.6771622, -18.7684075, -6.08246763
10063, 34.9598546, -18.5031128, -5.97619342
10064, 33.9463815, -15.1456373, -5.94924678
10065, 35.48695, -15.8613203, 4.8392511
10066, 36.5764861, -15.6869577, 5.75915395
10067, 36.4406988, -16.0535998, 5.84837512
10068, 34.552168, -15.3377606, 5.76022252
10069, 21.2554418, -17.2675287, -6.13304764
10070, 35.1282403, -18.3121834, -5.96209206
10071, 34.8280158, -23.8521252, 4.30216697
10072, 34.4352395, -23.2122675, 4.64363197
10073, 34.6394657, -15.0738541, 5.75946822
10074, 30.9942955, -18.6190934, 8.42603329
10075, 34.0837783, -17.1054807, -8.24720437
10076, 34.4345728, -23.2120118, -4.64337443
10077, 34.8265364, -23.8523593, -4.30239178
10078, 38.2420959, 4.4656537, 7.50813425
10079, 38.245871, 4.74523661, 7.3502035
10080, 37.7282758, 1.73367786, -8.68561675
10081, 34.2318692, -17.878034, -4.89144771
10082, 33.5322446, -17.2137864, -5.83648669
10083, 35.2462239, -16.6881867, 6.99253865
10084, 35.9952134, -17.6006984, 6.10925028
10085, 35.6128048, -17.3168175, 7.52347943
10086, 33.2572937, -24.0246117, -4.53606655
10087, 34.3107207, 9.06851043, 0.331227328
10088, 33.6730527, -23.989555, -4.53214507
10089, 33.7114392, -24.3271398, -4.39546816
10090, 33.5861034, -24.1846965, -4.49104487
10091, 9.41072876, -18.7334569, -3.32631931
10092, 37.4000592, -18.9834911, -4.51330644
10093, 33.6719459, -23.988756, 4.53110378
10094, 33.5809093, -24.1853291, 4.4908334
10095, 33.7106106, -24.3267575, 4.39418089
10096, 38.2598497, 5.00420803, 7.18517714
10097, 37.1593648, 4.9225866, 6.39858703
10098, 34.054669, -14.5974572, -5.94930846
10099, 13.1653555, -19.5376496, 7.49116082
10100, 37.7749426, 0.541248219, -8.85154016
10101, 37.7824676, -0.577043841, -8.88180169
10102, 9.30093944, -18.7209473, 3.03476084
10103, 33.0064354, -17.9178867, -7.36868565
10104, 33.9283257, -17.4443531, -7.50253884
10105, 32.8209282, -18.3446, -7.61977281
10106, 13.9824033, -18.9818066, -6.55501155
10107, 37.7602553, 0.843622653, -8.81487225
10108, 37.7617416, 8.14012812, -2.37028999
10109, 37.766043, 8.04538248, -2.64459894
10110, 37.3989063, -18.9848808, 4.51274616
10111, 37.8076261, -1.00273414, 8.60474025
10112, 24.8403971, -18.5816005, 1.55621146
10113, 37.7463271, 8.52811404, 1.98494642
10114, 35.2424966, -23.4942183, 4.64303134
10115, 35.2425948, -23.4928581, -4.64484095
10116, 34.5912014, -17.1715981, 7.1310158
10117, 33.4613265, -17.3869902, 7.03236646
10118, 34.2243417, -17.171521, 7.6724077
10119, 36.0735609, -17.136953, -7.87488468
10120, 32.8405163, -17.4623936, -9.04196986
10121, 18.4442447, -19.0031697, 7.78921022
10122, 17.5285821, -19.0298038, 8.15480173
10123, 33.7890595, -16.0718771, 8.27333141
10124, 35.7249857, -17.6887288, 7.81609284
10125, 33.3033939, -20.9576761, 7.63573001
10126, 17.1862931, -18.7661539, -9.48611377
10127, 17.1829464, -18.7684504, 9.48600025
10128, 12.4937721, -18.760848, -8.06416935
10129, 12.4870548, -18.7537327, 8.06142035
10130, 8.01368149, -18.7687712, -0.319164242
10131, 33.8596882, -15.4104844, -5.94918668
10132, 33.7489928, -15.6661331, -5.94918145
10133, 37.7407642, 8.66483592, 1.41012955
10134, 38.2363654, 8.3099473, 0.78148217
10135, 34.2793564, -24.1386575, 4.62145295
10136, 9.2952635, -18.710519, -3.03259648
10137, 37.7596486, 8.46031187, 2.30011849
10138, 34.28408, -24.1365845, -4.61989135
10139, 33.6546463, -16.31743, 5.89732157
10140, 33.4986632, -16.5481471, 5.8973539
10141, 38.4594751, 7.3470698, -1.55179957
10142, 38.0089856, 8.06169589, -1.52752981
10143, 8.59086481, -19.24857, -0.584555134
10144, 37.7885962, -0.575665296, -8.88209495
10145, 37.8082928, -15.0505576, 5.83150904
10146, 34.2782453, 0.589052205, -9.00342155
10147, 32.425453, -17.7977342, -8.98433548
10148, 9.41110741, -18.7390649, 3.34007066
10149, 26.0879138, -18.7145791, -2.18014411
10150, 34.6357672, -24.1891047, -4.50748728
10151, 34.4807606, -24.0664459, -4.60054349
10152, 38.7188295, 0.283809798, -7.55734256
10153, 38.4384949, 0.54768862, -7.46513409
10154, 38.4534493, 0.00200997012, -7.5977738
10155, 37.7615538, -0.0291626924, 8.94321128
10156, 37.5590486, -19.9952099, 4.4978491
10157, 37.5597606, -19.9973583, -4.49807902
10158, 24.9529601, -18.2783742, 1.42821657
10159, 17.5059623, -19.2457749, 8.94493431
10160, 34.8434863, -16.0249753, 6.90735861
10161, 35.1533817, -16.205533, 7.60725021
10162, 34.9021844, -17.3516668, 7.83050207
10163, 34.4775592, -24.068323, 4.60039298
10164, 34.6362414, -24.1902823, 4.50674163
10165, 33.8006106, -24.1528671, 4.51725711
10166, 33.8072969, -24.1525088, -4.51986951
10167, 37.7410361, 8.89613733, -0.894034168
10168, 38.2724733, 5.74471563, -6.62967583
10169, 37.1057491, 5.76434925, -5.6724606
10170, 10.0946932, -17.0128259, -1.51678955
10171, 34.4185952, -24.2663535, 4.508711
10172, 34.0825135, -15.2166006, -9.00876528
10173, 34.7066455, -14.058821, -8.48584848
10174, 34.2035618, -24.3202385, 4.50667149
10175, 34.3355359, -24.4146654, 4.3568666
10176, 34.826316, -24.0929429, 4.50578561
10177, 34.7877992, -24.2527358, 4.34719154
10178, 34.3365816, -24.4131017, -4.35768257
10179, 34.2016528, -24.3201999, -4.50674234
10180, 34.4176813, -24.2656044, -4.50867168
10181, 34.7882792, -24.2515026, -4.34838667
10182, 34.8254297, -24.0923588, -4.50585876
10183, 34.6748854, -23.9935869, 4.62739568
10184, 17.504962, -18.5529178, -7.61978119
10185, 17.2103763, -18.2649935, -7.56456994
10186, 16.957644, -18.5313653, -7.40568874
10187, 8.99441315, -18.7177456, -2.1990799
10188, 9.44160688, -18.9873532, -1.52171823
10189, 34.6801832, -23.9910887, -4.62936686
10190, 38.2715415, 8.07644394, -3.32323218
10191, 33.4775248, -24.0089465, 4.53021524
10192, 33.4737645, -24.3537362, 4.3908545
10193, 30.0518295, -19.2777539, -8.36003631
10194, 18.0312952, -18.5499585, -7.42147257
10195, 17.7747132, -18.2782018, -7.55548664
10196, 12.4888523, -18.7402601, -7.196908
10197, 37.7389794, 1.88938615, 8.44371943
10198, 37.7402091, 1.61023531, 8.4961831
10199, 33.4741102, -24.3532126, -4.39195994
10200, 33.4783023, -24.0088502, -4.53083839
10201, 10.1583635, -18.556774, -1.5443794
10202, 33.8538793, -16.3724289, -7.61520823
10203, 38.2732134, 5.76334833, 6.66995363
10204, 37.719164, 2.17250461, 8.33424011
10205, 34.0442837, -14.5973473, -5.94928681
10206, 38.4741252, 8.45574581, 0.154253753
10207, 38.2343, 9.48708251, 0.301237906
10208, 38.2346986, 8.05982346, -5.01338022
10209, 17.5057061, -19.2401534, 8.94548468
10210, 33.361581, -24.2096199, 4.50728559
10211, 33.6551088, -16.3161049, 8.27316764
10212, 33.363471, -24.2094129, -4.50778892
10213, 16.9446536, -18.9951701, 7.41331257
10214, 33.8914945, -23.7587943, 4.52224869
10215, 11.0216074, -18.7676996, 1.68559146
10216, 10.6234041, -19.0012363, 1.89137537
10217, 33.894841, -23.7594061, -4.52240979
10218, 36.3896028, -21.4740192, -4.52370065
10219, 36.3774394, -21.8503194, -4.74651565
10220, 10.5908118, -17.5272734, 1.84161867
10221, 36.6436677, -22.0173908, -4.75516392
10222, 36.9403268, -22.1932667, -4.60530363
10223, 36.7530932, -22.2015934, -4.72064738
10224, 15.6546619, -20.880503, -8.90756205
10225, 10.167448, -19.0047567, 1.63560657
10226, 9.15849918, -18.7173599, -2.77662739
10227, 38.2650115, -0.0302921222, 8.73575635
10228, 37.9958663, -0.9554393, 7.78132884
10229, 37.9741555, -0.0211172275, 8.1885268
10230, 33.6087334, -24.4383785, 4.23627667
10231, 38.0047732, 0.500538834, -8.01011652
10232, 11.9873003, -18.7240414, -6.83658544
10233, 11.7406131, -18.7208846, -6.6551582
10234, 33.3593648, -16.5888347, -8.79135407
10235, 33.9959349, -15.4814604, -9.00871505
10236, 33.6113918, -24.4380679, -4.23792989
10237, 36.3789124, -21.8568252, 4.75216377
10238, 33.6613784, -20.717153, 8.87530326
10239, 36.9412658, -22.1929041, 4.60401833
10240, 36.6451039, -22.016915, 4.75400482
10241, 36.7531065, -22.2036075, 4.7206441
10242, 36.1559113, -20.5370001, 4.72972816
10243, 37.0011876, -21.0479853, 4.18514288
10244, 39.1046936, 7.01507064, -1.79334132
10245, 33.9710189, -24.0194536, 4.16965863
10246, 9.06100266, -18.7119271, -2.4937206
10247, 33.8851716, -15.7371689, -9.0086508
10248, 11.9898595, -18.7256488, 6.84227608
10249, 11.7231485, -18.7272821, 6.66382987
10250, 12.2832874, -19.3063919, 6.08637987
10251, 36.8260811, -22.3904617, 4.6040171
10252, 36.5665807, -22.1931664, 4.77318799
10253, 33.9721399, -24.018728, -4.17085381
10254, 37.0969557, -22.150916, 4.44328771
10255, 37.0413547, -21.9852498, 4.60356694
10256, 35.0726987, -23.5920288, 4.65753967
10257, 34.9101926, -23.6849549, 4.65815782
10258, 37.0411827, -21.984634, -4.60452335
10259, 37.0975762, -22.1484778, -4.44479184
10260, 36.8518614, -22.0235755, 4.72880537
10261, 17.4921569, -17.953494, -7.62937218
10262, 25.2677091, -18.9825853, 1.94279478
10263, 36.8530734, -22.0188106, -4.7296909
10264, 35.0725895, -23.5920034, -4.65833567
10265, 34.9081588, -23.6843483, -4.65957651
10266, 17.2092769, -18.753054, 8.71669505
10267, 34.36649, -14.9300983, 6.03379597
10268, 36.8217427, -22.3949547, -4.60361987
10269, 36.5445012, -22.1918269, -4.75379882
10270, 34.3681142, -14.9250022, 8.40764139
10271, 12.7545285, -18.7522547, 7.36509704
10272, 13.444929, -19.5490439, 7.62896847
10273, 35.1464538, -19.1303784, 8.64926158
10274, 38.0330296, 0.959725859, 7.75414787
10275, 36.8123033, -21.2819768, -4.52433958
10276, 37.1413283, -21.4008691, -4.38231311
10277, 36.960274, -21.4465776, -4.50428586
10278, 38.2451286, 4.47520526, 8.37202346
10279, 38.233446, 4.4828338, -8.36647247
10280, 38.2322567, 4.46689852, -7.48826924
10281, 33.7511529, -15.9814794, -9.00857787
10282, 36.8214932, -21.2905263, 4.5410663
10283, 36.9576699, -21.4556403, 4.49076125
10284, 37.1404632, -21.4026535, 4.38110378
10285, 36.1513077, -22.6835742, 4.63841756
10286, 36.1511057, -22.6824508, -4.63806897
10287, 36.9445917, -16.3100265, 8.66599598
10288, 36.0272117, -22.8313185, 4.65488794
10289, 36.0271443, -22.8380826, -4.64850893
10290, 24.6601241, -18.2829651, -1.70184403
10291, 24.8748374, -17.9488021, -1.5296907
10292, 34.5816763, -19.4846722, -8.85573428
10293, 9.06024591, -18.7297671, 2.48351054
10294, 10.1311098, -17.974308, -1.52056549
10295, 10.3378445, -18.2517702, -1.71454902
10296, 10.2973934, -17.2753012, -1.76316453
10297, 29.3969482, -20.1972749, 5.87799228
10298, 36.0725699, -23.0436859, 4.61644249
10299, 35.8940851, -22.9662835, 4.64743512
10300, 35.8735544, -22.9649236, -4.63876171
10301, 36.0756995, -23.0396748, -4.61696242
10302, 38.0009127, -0.488658532, 7.41387088
10303, 37.0822412, -22.2760344, -4.2527604
10304, 37.1578052, -16.0281476, -8.84953619
10305, 38.2563452, 4.74187455, -7.30805036
10306, 34.6569216, -15.617729, 7.18172051
10307, 36.648632, -22.3899125, 4.75338786
10308, 37.0821424, -22.2769061, 4.25148555
10309, 12.2215753, -18.7339739, 7.03920353
10310, 12.491305, -18.7422717, 7.19797997
10311, 35.0682927, -23.81046, 4.63311376
10312, 35.0718998, -23.8074454, -4.63321868
10313, 17.2010639, -18.7476776, -8.72377483
10314, 36.7536706, -21.4753096, 4.52877799
10315, 37.0643844, -21.6222142, 4.38020705
10316, 37.0646241, -21.6205515, -4.38207675
10317, 36.7484408, -21.468475, -4.52460262
10318, 36.2520963, -23.090041, 4.48942801
10319, 36.219807, -22.8919715, 4.612377
10320, 37.0303654, -21.247842, 4.52362292
10321, 18.0663532, -19.221711, -8.86026624
10322, 36.2508317, -23.256746, 4.3323821
10323, 36.0764499, -23.2445358, 4.48628155
10324, 36.5657823, -22.9022959, 4.32957133
10325, 36.5500368, -22.7307539, 4.49424041
10326, 36.408167, -22.9180345, 4.48956125
10327, 35.4272513, -23.7774508, -4.49521098
10328, 35.2520405, -23.6991522, -4.60461112
10329, 37.0275004, -21.2366321, -4.51858755
10330, 33.2032989, -16.8196245, -8.79128647
10331, 36.2517074, -23.2550649, -4.3343996
10332, 36.0759117, -23.2436908, -4.48784692
10333, 36.2521744, -23.0891643, -4.49009641
10334, 36.5661136, -22.9007453, -4.32842405
10335, 36.4080732, -22.9167478, -4.48956402
10336, 36.5450236, -22.7286883, -4.48842876
10337, 36.8789001, -21.6482783, 4.49790116
10338, 36.6666039, -21.6504706, 4.52469874
10339, 36.3710341, -22.7321633, 4.6250952
10340, 36.6656583, -21.6484135, -4.52666025
10341, 36.8807466, -21.6424816, -4.50012668
10342, 38.2810266, 8.50131031, -2.19983906
10343, 36.356358, -22.723932, -4.61658463
10344, 35.2482373, -23.7017261, 4.60405932
10345, 35.4265032, -23.7759565, 4.49457185
10346, 36.2226386, -22.8875718, -4.61244987
10347, 32.9829008, -17.0798682, 8.92476017
10348, 34.2574965, -15.1810312, 8.40783334
10349, 20.0584451, -24.8835224, -3.56195347
10350, 38.2590191, 5.00135858, -7.18340257
10351, 35.2326831, -23.9032304, 4.50867849
10352, 35.5759172, -23.8087506, 4.34353649
10353, 35.5788351, -23.8064546, -4.34308308
10354, 34.008455, -14.8729596, -8.32432272
10355, 33.9468152, -15.1448059, -8.32429697
10356, 34.7680467, -13.7876309, -8.48614486
10357, 35.2318336, -23.9037274, -4.50975232
10358, 37.2132822, -21.5561027, 4.22321184
10359, 37.2141243, -21.5525247, -4.22521772
10360, 12.2584069, -18.717393, -6.99563256
10361, 38.2877239, 8.20250882, -3.03396608
10362, 17.7849292, -17.2763058, 7.53754907
10363, 37.3796998, -20.9775294, 4.50936195
10364, 37.5269449, -20.9006293, 4.35241696
10365, 37.4329449, -20.7630159, 4.51491969
10366, 37.3755948, -20.9784859, -4.50474165
10367, 37.4308369, -20.7611778, -4.50715228
10368, 37.5243541, -20.9016978, -4.35358099
10369, 32.2452969, -18.678014, 7.79827613
10370, 37.2521427, -20.8293543, 4.63619016
10371, 37.2563376, -20.823758, -4.62853098
10372, 37.4797167, -20.2970338, 4.50533379
10373, 37.4765372, -20.300178, -4.50130526
10374, 19.7517734, -24.8817636, 3.47572601
10375, 33.854594, -24.4168615, 4.24452502
10376, 33.8575735, -24.4169566, -4.24645944
10377, 34.5596967, -24.3237441, 4.34539393
10378, 38.2355389, 8.36916033, -4.47792013
10379, 34.5608285, -24.3209733, -4.34608462
10380, 31.2374178, -18.4827172, 8.42594147
10381, 33.8602468, -15.4096829, -8.32421752
10382, 33.7494806, -15.665368, -8.32413852
10383, 37.0505655, -20.8606151, 4.65351655
10384, 37.0581391, -20.8575038, -4.64902548
10385, 37.2902447, -20.6175826, 4.61026087
10386, 37.290552, -20.6126954, -4.60257978
10387, 38.2800008, 8.33933288, -2.77431188
10388, 38.2277096, 0.320396711, 9.48597508
10389, 38.2333979, 0.315489478, -9.48624803
10390, 38.2346497, 5.00720251, -8.06344076
10391, 38.2370595, 8.37191914, 4.47237647
10392, 38.2461963, 5.01287783, 8.06149735
10393, 38.2335684, 9.48643351, -0.317605329
10394, 32.2282366, -18.2223767, 7.85057978
10395, 37.3179963, -20.3973934, -4.61169693
10396, 38.2854136, 8.43840977, -2.49427821
10397, 36.9861705, -22.3571763, 4.44118174
10398, 36.9860375, -22.3557974, -4.44321561
10399, 37.3216173, -20.4003859, 4.61806918
10400, 37.4665673, -20.5238751, -4.50255121
10401, 37.4709828, -20.5236186, 4.50801752
10402, 38.2869448, 8.18941759, 3.04194077
10403, 38.2602189, 8.07817108, 3.33821391
10404, 32.8060902, -17.2950881, 8.92473567
10405, 38.2512512, 0.305220656, -8.71979083
10406, 31.4668318, -18.3244003, 8.42579808
10407, 38.2561313, 0.268737019, 8.7146636
10408, 36.4159306, -23.0852721, 4.33073371
10409, 36.4166515, -23.0833515, -4.33128858
10410, 38.27301, 8.44752271, 2.48136533
10411, 38.2785856, 8.32530994, 2.77715924
10412, 35.381183, -23.9370719, 4.34509847
10413, 35.3820446, -23.9372401, -4.34565677
10414, 37.5870694, -20.4277897, 4.35144253
10415, 37.5852721, -20.4268775, -4.34810962
10416, 17.2166125, -19.0049071, 9.48330741
10417, 35.1800123, -24.0746798, 4.36361843
10418, 35.180711, -24.0736814, -4.36366732
10419, 37.547814, -20.6608701, 4.35143115
10420, 37.546362, -20.6593476, -4.3465124
10421, 37.1220649, -21.7761168, 4.22196577
10422, 37.1231411, -21.7726818, -4.22448272
10423, 37.2806241, -21.327003, 4.22415209
10424, 36.8633987, -22.5575032, 4.44593408
10425, 36.8630956, -22.5564809, -4.44483557
10426, 37.2813584, -21.3233186, -4.22534978
10427, 36.9953581, -21.0414328, -4.16729826
10428, 33.3708195, -24.4903615, 4.24030197
10429, 33.3708163, -24.4900088, -4.24272477
10430, 34.4546802, -24.406945, 4.16591434
10431, 34.4541607, -24.4055299, -4.16755618
10432, 37.5900944, -20.7972648, 4.16695214
10433, 37.5890656, -20.8030513, -4.16784984
10434, 31.6805325, -18.145267, 8.42574731
10435, 17.5056712, -18.7483411, -8.73205588
10436, 17.2037509, -19.0049288, -9.48322559
10437, 37.6272846, -17.0281872, 4.50755486
10438, 37.6303439, -17.0232702, -4.50773884
10439, 37.9951236, 0.277124264, 9.48301819
10440, 37.1856326, -22.0536925, 4.25099897
10441, 37.185528, -22.0528691, -4.25196812
10442, 38.2787551, -0.0233670442, -8.76542219
10443, 37.9951196, 0.297035315, -9.48269966
10444, 38.7317062, 2.96237922, 6.7050551
10445, 14.83058, -18.2607076, -7.06424451
10446, 14.6363018, -18.5314395, -6.83108582
10447, 16.2784278, -18.7445643, -8.63759251
10448, 25.0701796, -16.8819792, -0.985318981
10449, 25.041708, -17.9318329, -1.03036784
10450, 9.98011024, -18.5441709, -1.04171939
10451, 10.0125196, -18.2745938, -1.3101267
10452, 9.97400969, -18.0238396, -1.01824991
10453, 25.0686613, -17.9203863, 1.20318346
10454, 25.0844568, -18.2090522, 1.05397857
10455, 38.2441645, 1.26443102, 8.65134307
10456, 40.0572079, 7.58231464, -0.970196628
10457, 38.9381096, 7.51614112, -1.03018949
10458, 40.0387494, -7.55424836, -0.991756244
10459, 38.9711367, -7.51415507, -1.013502
10460, 38.6924327, 7.54046111, 1.05409457
10461, 38.7151727, 7.47002566, -1.24812014
10462, 38.4789681, 7.55409801, -1.02072396
10463, 38.2553931, 1.21676174, -8.63816271
10464, 38.7450827, 2.65597652, -6.98291049
10465, 38.5230529, 2.84903865, -6.74941384
10466, 38.0500053, -2.99876272, -7.58439294
10467, 38.0381653, -8.07537685, 0.980180157
10468, 32.023249, -18.2797308, -5.7051728
10469, 32.2372943, -18.1001867, -5.70461583
10470, 32.4338972, -17.9018039, -5.70390842
10471, 32.4346515, -17.9015147, -8.07791631
10472, 32.6115939, -17.6863686, -8.07770925
10473, 32.6110363, -17.6865773, -5.7038745
10474, 31.2974883, -18.6859115, -8.07854316
10475, 33.6151539, -15.9103894, -5.94910461
10476, 33.6155011, -15.9096508, -8.32404084
10477, 34.0446323, -14.5964777, -8.3243166
10478, 33.4991452, -16.5467952, 8.27297087
10479, 33.7884343, -16.0731822, 5.89753718
10480, 30.9925676, -18.6192205, 6.05085472
10481, 39.9413763, 0.00072668055, -3.94686579
10482, 37.0413976, -8.11598806, -3.12150943
10483, 8.8599095, -18.7735668, 3.92605788
10484, 13.890537, -18.769604, 7.88301673
10485, 38.7502795, 7.14615025, -1.72936351
10486, 39.0511258, 7.37943591, -1.46989507
10487, 8.85922034, -18.7738449, -3.92516465
10488, 34.7596831, -19.9617798, 2.44330177
10489, 38.0302125, 2.50609744, 3.63580656
10490, 37.5426972, 3.32971025, 3.52674005
10491, 20.1505755, -17.2307142, -7.04448714
10492, 39.4554827, 1.92468362, -6.4983521
10493, 23.5788791, -18.0489138, 1.81913929
10494, 37.2471692, -3.1959344, -4.69798061
10495, 39.8963279, -2.66381278, -7.04056744
10496, 15.9642449, -18.757118, -8.57934461
10497, 21.8990017, -21.354646, 3.85391524
10498, 38.759902, 2.97932061, 6.30509081
10499, 14.5452221, -18.2343376, -6.65446223
10500, 30.9209224, -23.087528, 3.25919936
10501, 39.7345517, -5.77976238, -1.6150499
10502, 34.2315518, -17.8803029, 2.51823413
10503, 34.3889696, -17.6502354, 2.51927585
10504, 34.5608798, -17.4614852, 2.50468875
10505, 37.7617847, 6.49532457, -3.83602872
10506, 29.3866784, -21.9708265, -3.01707071
10507, 17.9089036, -18.2277457, -4.07010676
10508, 35.4412393, -1.85521791, -2.87197562
10509, 34.2795749, -1.94004276, -3.21599484
10510, 35.0192801, -22.317681, 1.93469364
10511, 35.9788485, -13.9046345, -5.82185757
10512, 22.2443298, -18.0371264, 1.78770162
10513, 35.9744569, 7.20355413, 5.09581231
10514, 37.1527237, 4.66932741, 6.57061424
10515, 35.0285864, 2.62791268, 7.41990236
10516, 34.1348711, -23.6043535, 4.52789996
10517, 34.1369536, -23.6035862, -4.52811107
10518, 32.9604515, -19.0932709, 2.30478916
10519, 32.7472341, -19.2723103, 2.30425715
10520, 33.3509397, -18.7294627, 4.98725991
10521, 33.5653512, -18.5506635, 4.98712477
10522, 34.153865, -22.3853343, 2.06274851
10523, 34.1557254, -22.3868258, -2.20088914
10524, 35.5394049, -20.6928102, 2.05715582
10525, 37.5213612, -17.7061509, 3.51362124
10526, 35.0599479, -16.7524943, 4.87882137
10527, 11.651918, -19.1003069, 5.20587916
10528, 38.2254393, 3.60176708, 7.85965234
10529, 27.8790046, -20.5518558, -0.155813404
10530, 38.9814878, -0.316532392, -3.90927299
10531, 15.6964873, -18.4741199, 5.94401632
10532, 18.4976517, -19.1926157, 8.62157825
10533, 35.694669, -16.2111098, 2.00516509
10534, 35.7064545, -16.2042701, 4.38747307
10535, 35.7011515, -16.4865993, 8.66591883
10536, 35.9829024, 8.00038029, 4.00029355
10537, 36.8283519, -16.8002393, -6.60013662
10538, 11.4561305, -18.0293554, 1.82645121
10539, 9.21183469, -18.7963699, 1.06700037
10540, 34.7615117, -19.965732, -2.58503138
10541, 29.9240533, -21.8024091, -0.621258778
10542, 33.7630143, -18.3578996, 2.61389475
10543, 33.7623356, -18.3528967, 4.98773163
10544, 14.5173014, -19.7138545, -2.08449367
10545, 32.5183174, -19.4308906, 2.30238472
10546, 33.1185292, -18.8858488, 4.99183456
10547, 13.7213467, -19.5471069, 7.77231076
10548, 20.7654345, -19.0806913, -1.86520135
10549, 20.3162926, -18.5214964, -6.79180384
10550, 20.3109603, -18.7901966, -7.66730127
10551, 35.8210094, -15.946492, 4.37179294
10552, 30.0526578, -19.2772834, -5.98383103
10553, 31.3019412, -24.5678558, -3.20906448
10554, 33.9413017, -18.1375596, -4.99326001
10555, 38.2423791, 1.53335008, -8.57972097
10556, 38.2269813, 8.63977882, 3.92679903
10557, 34.3880657, -17.6496087, 4.88998239
10558, 33.9400303, -18.1435564, 2.61351561
10559, 37.5509093, -17.6592276, 3.54132597
10560, 10.9757474, -20.7671439, 3.07224897
10561, 34.4469703, -24.3933394, 2.13698107
10562, 38.2283878, 8.63823914, -3.93055152
10563, 39.9628832, 2.75602935, 2.65157333
10564, 31.0557695, -20.0514684, 2.50037533
10565, 39.0737994, 6.10107632, -1.27060119
10566, 35.9819434, -13.9223492, 2.14345125
10567, 27.9978364, -19.6375447, 7.12815377
10568, 35.0582997, -24.1396932, 2.13277517
10569, 38.9434744, -0.00951132007, -4.21872664
10570, 39.0009519, 5.14632741, 2.49677059
10571, 35.0595621, -24.1394887, -2.13258014
10572, 34.7897782, -18.6625868, -7.87995128
10573, 34.753922, -19.229341, -7.27247202
10574, 34.8721233, -19.2211482, -8.85574863
10575, 38.2158796, -2.41045957, 8.37470129
10576, 36.9943438, 3.0172389, 7.6728796
10577, 35.8993346, -15.689663, -4.37932756
10578, 34.0550251, -14.5965634, -8.3243432
10579, 8.91992867, -18.7272873, -1.57684845
10580, 9.162839, -18.8246392, -0.153872425
10581, 9.21545197, -18.8249121, -0.683477304
10582, 8.96893839, -18.7114381, -1.91222872
10583, 36.2082758, -17.6859533, 8.66524286
10584, 14.7435068, -17.0581836, 2.64976329
10585, 35.985902, 6.33238826, -6.1859563
10586, 35.9873424, 6.12815764, -6.41842284
10587, 38.2497826, 6.33008257, -5.93127191
10588, 29.121225, -21.9993731, -0.629556668
10589, 35.9918408, 6.35034199, 6.26367654
10590, 37.1303711, 5.85361107, 5.59851509
10591, 35.9933491, 5.41488221, 7.07568003
10592, 35.984919, 7.00324942, 5.34317591
10593, 36.6588332, -22.8141052, -2.12988963
10594, 13.4131393, -24.16552, -2.13130891
10595, 33.1214106, -18.8887655, -4.99076888
10596, 19.8755584, -18.7493996, -8.39723222
10597, 18.000489, -18.7921396, -8.14299948
10598, 35.9879675, 5.89429181, -6.62116363
10599, 36.0382877, -5.84833407, 7.68685549
10600, 36.0966325, 8.58321147, -0.615759113
10601, 36.2677642, 9.02297173, -0.942434792
10602, 37.5588798, -20.7968197, 2.1383616
10603, 36.9665183, 3.07636796, -8.01652439
10604, 34.9591037, -19.137866, -6.64179822
10605, 14.7447393, -19.9584518, -2.79380269
10606, 36.7910251, 7.96353545, -3.49066074
10607, 34.499477, -19.1010733, -8.85664053
10608, 33.9533803, -13.7766181, 7.12510883
10609, 20.4611829, -23.4361156, -4.57376499
10610, 34.9780032, -13.5212457, 7.1299948
10611, 29.2777217, -19.0905198, 7.12549777
10612, 29.0066771, -19.1544117, 7.12533666
10613, 29.6668229, -20.1329139, 5.87871694
10614, 37.7309118, 6.60390931, 4.3747629
10615, 36.7352318, -14.3041203, -6.00503174
10616, 35.9757365, 6.98943532, -5.66826773
10617, 38.2352237, 8.2853615, 1.08474939
10618, 32.6750005, -18.2232956, 8.87244379
10619, 32.6391002, -18.425929, 8.87254446
10620, 32.6091363, -18.6260104, 8.87264923
10621, 35.5127906, -21.7760143, -2.07303799
10622, 24.3875229, -17.9639746, -1.79462571
10623, 10.8885718, -16.9867165, -1.45072735
10624, 20.1849376, -24.4811944, -3.83461048
10625, 19.8693577, -24.4727402, 3.72927604
10626, 31.29763, -19.9281963, 5.90927517
10627, 31.0453832, -20.0426405, 5.91048298
10628, 37.7562587, 1.30180477, 8.58504688
10629, 25.2207563, -18.9993702, -3.42281269
10630, 33.7414958, -19.2325766, -5.92622721
10631, 35.3789916, -16.8230712, -6.07510397
10632, 37.1571701, -16.0293211, -6.47798762
10633, 30.5219824, -20.1985504, 4.86947964
10634, 37.8146228, -17.8264783, -3.48063942
10635, 38.2695911, 8.5798145, -1.57827102
10636, 38.2056904, 8.33865386, -0.13808475
10637, 38.1847582, 8.29202792, -0.685243159
10638, 38.2856676, 8.53289655, -1.91087885
10639, 37.736406, 6.41238172, 4.59736672
10640, 30.5247554, -20.1983144, -4.8693258
10641, 29.5163906, -20.1994477, -5.82889432
10642, 30.7837494, -20.1339274, 5.91106396
10643, 35.593504, -16.9382054, 6.02473347
10644, 36.2780561, -22.5543393, 4.63810249
10645, 36.2660847, -22.5208889, -4.63442397
10646, 37.5490701, -17.6376469, -3.50192371
10647, 37.5193993, -17.684202, -3.47308641
10648, 33.2397332, -24.6638448, 4.65747412
10649, 33.0991029, -24.4523346, -4.72641587
10650, 33.2406096, -24.66435, -4.65729303
10651, 16.9659329, -19.2143395, -8.83044842
10652, 37.7802101, 0.541571063, -8.85051092
10653, 12.7707066, -20.2529542, -7.67382853
10654, 11.8514426, -20.2536171, -7.02096575
10655, 9.12056957, -20.2515133, -3.24667509
10656, 20.6531716, -19.540312, -8.88285149
10657, 20.393947, -19.2387982, -8.39219684
10658, 14.8806724, -20.265448, 8.64371025
10659, 8.73381058, -20.263943, -2.23282761
10660, 18.0827444, -19.8502677, 8.84884822
10661, 13.2479487, -20.2599466, 7.88835765
10662, 37.5836572, -18.7284854, -4.52937481
10663, 11.0409819, -19.2328146, -5.49210568
10664, 13.7504199, -20.2576524, -8.21081961
10665, 15.3491185, -20.2558871, -8.86564082
10666, 9.94004515, -20.2718964, -4.27226995
10667, 10.2504278, -20.2630875, -5.37849769
10668, 11.9836071, -18.7730585, -7.72268043
10669, 11.9704618, -18.7538737, 7.71685978
10670, 8.6108737, -20.5042822, -0.889318176
10671, 17.516693, -18.8012834, -8.33542968
10672, 15.9734398, -20.2518352, -8.9867955
10673, 11.2696191, -20.2618753, 6.50695335
10674, 11.8803536, -19.0999039, 5.41515717
10675, 38.537043, -2.69281157, 7.05118777
10676, 38.0593736, -1.22958966, 7.3645116
10677, 20.3791442, -19.0047353, 6.75415754
10678, 20.492971, -18.9975281, 6.21073085
10679, 34.831239, -19.3645612, 8.64894472
10680, 37.0399453, -15.9299592, 8.66615192
10681, 38.9592695, 6.05806105, 1.82976322
10682, 39.464462, 6.91460108, 1.79950047
10683, 38.5146498, -7.52913621, -1.02200069
10684, 39.0975863, -7.44053322, -1.39727631
10685, 38.3564159, -1.43087203, -6.91989997
10686, 37.2529448, -15.6482908, -6.36958145
10687, 20.4313469, -17.2356119, -6.57663407
10688, 20.4578005, -18.2357482, -6.59487905
10689, 9.5967277, -20.2610189, 4.31804265
10690, 26.341943, -18.9779468, 0.86694183
10691, 25.6432666, -18.9465977, 3.10559165
10692, 37.5827484, -18.7289277, 4.52913014
10693, 33.4590944, -16.1410889, -5.94897435
10694, 33.7579628, -20.238237, -8.25043312
10695, 33.661152, -20.4467806, 8.25029091
10696, 32.7709229, -17.4279744, 5.88630155
10697, 10.7161468, -19.5979112, 5.45687204
10698, 39.4903456, -6.48178262, -3.04466085
10699, 34.2559677, -15.1854879, 6.0335692
10700, 33.0173763, -17.2471314, -9.04196275
10701, 14.0154819, -19.5504932, 7.87831397
10702, 14.0133033, -20.1772107, 7.86661905
10703, 33.0007082, -19.9808839, -8.6985172
10704, 36.655969, -17.0892336, -8.84937643
10705, 34.3950957, -16.2033523, 8.27351509
10706, 30.0995156, -19.1439436, 8.4260194
10707, 35.0603683, -16.7516485, -4.8763665
10708, 34.581865, -16.02909, -5.87852728
10709, 35.5121949, -21.7736415, 1.93608788
10710, 36.2264105, -20.2967974, -4.53695978
10711, 38.219165, -2.41918851, -8.41911818
10712, 33.1563839, -18.8954799, 2.30541897
10713, 32.9827415, -17.0805908, 6.54964357
10714, 37.0046824, 2.7289139, 7.7804719
10715, 36.3973246, -20.1021422, -4.52707668
10716, 35.2802778, -18.8609192, -8.52324837
10717, 36.5433127, -14.5134781, 5.79928736
10718, 35.9818714, 7.17631263, -5.41094353
10719, 35.2155443, -16.864867, -8.95627692
10720, 28.89709, -20.7359153, -6.10966599
10721, 37.2621844, 3.34499963, -7.03925666
10722, 34.9646351, -19.0952087, -8.52218791
10723, 33.4593761, -16.1405684, -8.3238493
10724, 33.2625058, -17.239119, -6.90115881
10725, 30.3072911, -19.1640425, -5.98463869
10726, 32.5939656, -17.642759, 8.26023869
10727, 39.4667842, -5.09685601, -5.04575705
10728, 14.3106286, -19.5519139, 7.98762364
10729, 9.92470326, -16.9362425, -0.975978419
10730, 38.2395848, 8.2282066, 1.36795636
10731, 14.5683206, -18.9898972, -7.44324204
10732, 39.6986787, -4.99074548, -1.27143541
10733, 10.6124268, -17.9568319, -1.80282583
10734, 10.6033114, -16.9889961, -1.85138542
10735, 30.8255041, -18.8565618, -8.92715998
10736, 37.0050257, 2.4346433, 7.89192683
10737, 9.27250503, -18.7907395, 1.35154787
10738, 35.7789158, -14.9487856, 4.75637987
10739, 38.0257446, 2.93377147, -7.42993287
10740, 35.39192, -16.1057187, 4.8441249
10741, 35.3925103, -16.1035405, -4.83799134
10742, 35.9205433, -14.2948901, -4.64513449
10743, 38.9577877, 0.510889828, -3.96138954
10744, 9.15694786, -18.8081751, 0.151110355
10745, 38.0316075, 4.9178066, -4.39078758
10746, 24.7003782, -19.0319032, 3.66279146
10747, 28.1093786, -23.4031739, -4.49242395
10748, 34.9306285, -13.7960876, 7.12968829
10749, 35.9492124, -13.7973353, 5.75518082
10750, 32.609929, -17.4930108, 8.92470464
10751, 32.3979978, -17.8404977, 8.26033405
10752, 30.848867, -19.3328345, 6.16400357
10753, 31.1119771, -19.2427543, 6.16354698
10754, 38.2302854, 8.34435898, 0.17102836
10755, 33.1026258, -24.4534551, 4.72466497
10756, 20.4380387, -20.7562386, -8.28900038
10757, 14.0946586, -20.8899243, 8.26465538
10758, 13.5259042, -20.2615552, 8.02703821
10759, 13.8042695, -20.2629464, 8.16588332
10760, 13.2124627, -19.9929757, -7.0778955
10761, 9.79667766, -20.2612155, -3.99851953
10762, 8.5631778, -21.0668416, -0.445293225
10763, 19.4364935, -18.2674265, -6.27529299
10764, 15.6657221, -20.2293625, -8.92834382
10765, 18.7825184, -18.741612, 5.81070366
10766, 25.0270317, -18.5873028, 1.25355289
10767, 36.9465297, -16.3106049, 6.29189597
10768, 36.6972902, -16.0459924, 8.66617401
10769, 39.4317305, 7.42045936, 1.51059498
10770, 19.5779775, -17.2621758, -6.26175493
10771, 18.7542064, -17.3153617, -6.27757479
10772, 20.1698655, -18.2883663, -7.0724168
10773, 33.7577055, -20.5087341, -8.87533325
*ELEMENT, TYPE=C3D10, ELSET=EALL
4965, 3713, 3683, 3650, 6842, 3891, 3890, 3805, 6905, 6907, 6906
4966, 2857, 3286, 3277, 3293, 6908, 3346, 6909, 6910, 3348, 3347
4967, 1800, 1952, 5364, 6903, 6911, 5379, 6912, 6913, 6915, 6914
4968, 3292, 3291, 3279, 3282, 3358, 3355, 3356, 3341, 3352, 6916
4969, 3291, 3285, 2859, 3278, 3354, 6917, 6918, 3353, 3351, 6919
4970, 5789, 5592, 5795, 5617, 6920, 6921, 5844, 6922, 5685, 6923
4971, 5593, 5965, 5969, 5618, 6924, 6038, 6925, 5663, 6927, 6926
4972, 5355, 5357, 5356, 6887, 5385, 5415, 5425, 6928, 6930, 6929
4973, 6455, 6454, 6452, 6885, 6769, 6768, 6770, 6931, 6933, 6932
4974, 3202, 3195, 3362, 1056, 3223, 6934, 6935, 6936, 6938, 6937
4975, 6043, 5798, 5791, 5797, 6939, 5845, 6940, 6941, 5864, 5849
4976, 5362, 5359, 4541, 6851, 5419, 6942, 6943, 6944, 6946, 6945
4977, 3364, 3500, 3494, 3496, 6947, 3538, 6948, 6949, 3568, 3567
4978, 94, 801, 3415, 3404, 811, 6950, 6951, 6952, 6953, 3432
4979, 4681, 6884, 6865, 6896, 6954, 6955, 6956, 6957, 6959, 6958
4980, 1190, 1405, 1222, 138, 6960, 4241, 4027, 4026, 1406, 1223
4981, 135, 1300, 160, 1285, 6961, 1302, 4017, 4016, 4220, 1287
4982, 1305, 1195, 158, 1282, 6962, 4071, 1306, 4221, 4072, 1283
4983, 140, 1400, 1225, 1191, 1402, 4240, 1227, 4031, 6963, 4030
4984, 1270, 1325, 154, 1194, 4225, 1326, 1271, 4063, 6964, 4062
4985, 144, 1380, 1237, 1192, 1382, 4236, 1239, 4040, 6965, 4039
4986, 1193, 1345, 1258, 150, 6966, 4229, 4054, 4053, 1346, 1259
4987, 1360, 1193, 1249, 148, 6967, 4048, 4232, 1362, 4049, 1251
4988, 3286, 1028, 2857, 3277, 6968, 6969, 6908, 3346, 6970, 6909
4989, 5797, 6043, 5798, 5787, 6941, 6939, 5864, 5863, 6971, 5862
4990, 4674, 4661, 4694, 6884, 4799, 4741, 4800, 6972, 6974, 6973
4991, 335, 1952, 5364, 1800, 1959, 5379, 5375, 6975, 6911, 6912
4992, 4543, 5367, 1577, 6846, 6976, 6977, 4550, 6978, 6980, 6979
4993, 1834, 5546, 6821, 6849, 6981, 6982, 6983, 6984, 6986, 6985
4994, 3197, 2836, 3198, 2861, 6987, 6988, 3256, 6989, 2929, 6990
4995, 4690, 4659, 4691, 6833, 4732, 4792, 4791, 6991, 6993, 6992
4996, 1412, 5876, 5879, 4265, 6994, 5900, 6995, 4269, 6997, 6996
4997, 6481, 6480, 6442, 6854, 6726, 6727, 6511, 6998, 7000, 6999
4998, 1834, 6821, 5021, 6849, 6983, 7001, 5041, 6984, 6985, 7002
4999, 5546, 1834, 347, 6849, 6981, 7003, 5552, 6986, 6984, 7004
5000, 6456, 6442, 6491, 6133, 6508, 6725, 6724, 7005, 7007, 7006
5001, 309, 5021, 1834, 6821, 5042, 5041, 1838, 7008, 7001, 6983
5002, 264, 265, 4660, 4538, 1691, 4719, 4718, 7009, 7011, 7010
5003, 5433, 5598, 5440, 5429, 7012, 7013, 5476, 5495, 7014, 5457
5004, 2276, 2264, 97, 3110, 2355, 7015, 7016, 7017, 7019, 7018
5005, 1950, 5969, 5965, 5618, 7020, 6038, 7021, 7022, 6926, 6927
5006, 3279, 2859, 979, 978, 7023, 2953, 3317, 3318, 2920, 985
5007, 5610, 6043, 1752, 5797, 7024, 7025, 7026, 7027, 6941, 7028
5008, 6470, 6455, 6452, 6862, 6771, 6770, 6761, 7029, 7031, 7030
5009, 3155, 2270, 3156, 877, 7032, 7033, 3167, 7034, 7036, 7035
5010, 6111, 6096, 6102, 6820, 6249, 6334, 6336, 7037, 7039, 7038
5011, 6102, 6130, 6111, 1803, 6350, 6291, 6336, 7040, 7042, 7041
5012, 3199, 3195, 3362, 3208, 3266, 6934, 7043, 3259, 3269, 7044
5013, 4958, 4963, 6865, 6884, 5014, 7045, 7046, 7047, 7048, 6955
5014, 5437, 5615, 1965, 1964, 7049, 5701, 5483, 5484, 5676, 1971
5015, 5792, 5795, 5786, 5596, 5857, 5856, 5835, 7050, 7052, 7051
5016, 6425, 6429, 6431, 6819, 6652, 6655, 6654, 7053, 7055, 7054
5017, 3497, 1045, 3506, 2862, 7056, 7057, 3574, 7058, 7060, 7059
5018, 2857, 3290, 976, 977, 7061, 3310, 2951, 2910, 3309, 983
5019, 4958, 4961, 4963, 6884, 5013, 5015, 5014, 7047, 7062, 7048
5020, 2850, 117, 3493, 110, 7063, 3510, 7064, 7065, 3591, 7066
5021, 2850, 117, 108, 3493, 7063, 1152, 2885, 7064, 3510, 3509
5022, 4543, 5359, 5367, 6846, 7067, 5423, 6976, 6978, 7068, 6980
5023, 3115, 1056, 3153, 6886, 3122, 7069, 7070, 7071, 7073, 7072
5024, 6810, 6865, 6859, 6884, 7074, 7075, 7076, 7077, 6955, 7078
5025, 1962, 5438, 1963, 5613, 5478, 5477, 1969, 5699, 7079, 5666
5026, 5960, 5964, 5970, 6045, 6032, 6027, 6033, 7080, 7082, 7081
5027, 5356, 5361, 5355, 6887, 5403, 5426, 5425, 6929, 7083, 6928
5028, 2850, 117, 3494, 108, 7063, 3511, 7084, 2885, 1152, 3512
5029, 335, 1952, 1800, 6836, 1959, 6911, 6975, 7085, 7087, 7086
5030, 2857, 3286, 3293, 1029, 6908, 3348, 6910, 7088, 7090, 7089
5031, 6429, 6434, 6432, 6827, 6676, 6675, 6674, 7091, 7093, 7092
5032, 5596, 5792, 5798, 5787, 7050, 5861, 7094, 7095, 5832, 5862
5033, 6847, 6859, 4967, 6904, 7096, 7097, 7098, 7099, 7101, 7100
5034, 2264, 111, 97, 3110, 7102, 7103, 7015, 7019, 3117, 7018
5035, 6463, 6498, 6473, 6862, 6766, 6743, 6638, 7104, 7106, 7105
5036, 4958, 6865, 4662, 6884, 7046, 7107, 7108, 7047, 6955, 7109
5037, 2843, 2859, 3285, 3278, 3026, 6917, 7110, 7111, 6919, 3351
5038, 6810, 6865, 6884, 6896, 7074, 6955, 7077, 7112, 6958, 6959
5039, 6449, 6486, 6469, 6862, 6753, 6665, 6756, 7113, 7115, 7114
5040, 6117, 6101, 6092, 4891, 6318, 6317, 6243, 7116, 7118, 7117
5041, 5437, 1437, 1436, 1417, 7119, 1446, 7120, 7121, 4284, 4281
5042, 1056, 3195, 3362, 3199, 6938, 6934, 6937, 7122, 3266, 7043
5043, 6357, 1042, 3073, 3074, 7123, 3100, 7124, 7125, 3081, 3085
5044, 6443, 6482, 6431, 6819, 6688, 6656, 6686, 7126, 7127, 7054
5045, 1056, 3202, 3195, 3193, 6936, 3223, 6938, 7128, 3216, 3265
5046, 2283, 3150, 2263, 2280, 7129, 7130, 2367, 2514, 7131, 2495
5047, 1045, 3071, 1046, 6901, 3106, 3105, 1052, 7132, 7134, 7133
5048, 1058, 3197, 3198, 2861, 7135, 3256, 7136, 7137, 6989, 6990
5049, 2047, 5792, 5786, 5596, 5830, 5835, 5834, 5712, 7050, 7051
5050, 2280, 2283, 3150, 6857, 2514, 7129, 7131, 7138, 7140, 7139
5051, 1950, 5358, 5367, 6890, 5404, 5409, 5408, 7141, 7143, 7142
5052, 3286, 2857, 1028, 1029, 6908, 6969, 6968, 7090, 7088, 1035
5053, 4960, 6859, 6847, 6865, 7144, 7096, 7145, 7146, 7075, 7147
5054, 4681, 6865, 4682, 6896, 6956, 7148, 4810, 6957, 6958, 7149
5055, 2284, 2285, 2264, 6857, 2517, 2400, 2358, 7150, 7152, 7151
5056, 6361, 1627, 6365, 6849, 6411, 6381, 6412, 7153, 7155, 7154
5057, 3288, 3278, 1033, 3281, 3339, 7156, 7157, 3305, 3350, 7158
5058, 5963, 1433, 2085, 2084, 7159, 5654, 6000, 6001, 5655, 2091
5059, 5359, 5367, 5358, 4293, 5423, 5409, 5417, 7160, 7162, 7161
5060, 4967, 6859, 1802, 6904, 7097, 7163, 5007, 7100, 7101, 7164
5061, 3503, 1047, 3494, 3496, 7165, 7166, 3520, 3554, 7167, 3567
5062, 3278, 3285, 2843, 3281, 3351, 7110, 7111, 3350, 3323, 7168
5063, 4682, 4688, 4669, 6896, 4841, 4831, 4840, 7149, 7170, 7169
5064, 2854, 3202, 3362, 1056, 7171, 6935, 7172, 7173, 6936, 6937
5065, 3717, 3663, 3698, 6874, 3899, 3938, 3943, 7174, 7176, 7175
5066, 6443, 6471, 6482, 6819, 6666, 6643, 6688, 7126, 7177, 7127
5067, 3071, 6867, 1046, 6901, 7178, 7179, 3105, 7134, 7180, 7133
5068, 898, 3200, 966, 967, 7181, 3236, 2925, 2871, 3235, 973
5069, 3707, 3650, 3683, 6842, 3888, 3890, 3889, 7182, 6906, 6907
5070, 3112, 1058, 1057, 6894, 3142, 1064, 3143, 7183, 7185, 7184
5071, 5357, 4685, 5356, 6887, 7186, 7187, 5415, 6930, 7188, 6929
5072, 5021, 6869, 6849, 6871, 7189, 7190, 7002, 7191, 7193, 7192
5073, 2046, 5792, 5596, 5787, 5831, 7050, 5711, 5827, 5832, 7095
5074, 6433, 6444, 6443, 6839, 6695, 6694, 6687, 7194, 7196, 7195
5075, 1439, 5788, 2049, 2050, 7197, 5840, 5681, 5632, 5839, 2056
5076, 4662, 6865, 4681, 6884, 7107, 6956, 4809, 7109, 6955, 6954
5077, 3364, 3500, 3496, 3507, 6947, 3568, 6949, 7198, 3560, 3571
5078, 1045, 1046, 6860, 6901, 1052, 7199, 7200, 7132, 7133, 7201
5079, 1056, 6830, 111, 6857, 7202, 7203, 1062, 7204, 7206, 7205
5080, 6846, 6883, 6810, 6904, 7207, 7208, 7209, 7210, 7212, 7211
5081, 1800, 6836, 1952, 6903, 7086, 7087, 6911, 6913, 7213, 6915
5082, 6498, 6446, 6473, 6839, 6742, 6734, 6743, 7214, 7216, 7215
5083, 5966, 5969, 5959, 5597, 6030, 6029, 6011, 7217, 7219, 7218
5084, 5791, 1752, 6043, 5797, 7220, 7025, 6940, 5849, 7028, 6941
5085, 3150, 2263, 89, 2283, 7130, 7221, 7222, 7129, 2367, 7223
5086, 1964, 1437, 5437, 5615, 5671, 7119, 5484, 5676, 5675, 7049
5087, 3115, 3153, 1056, 6857, 7070, 7069, 3122, 7224, 7225, 7204
5088, 1834, 5021, 6823, 6849, 5041, 7226, 7227, 6984, 7002, 7228
5089, 3706, 3693, 3667, 6842, 3864, 3885, 3907, 7229, 7231, 7230
5090, 2288, 2257, 2287, 6855, 2510, 2332, 2512, 7232, 7234, 7233
5091, 4967, 6847, 4964, 6859, 7098, 7235, 5010, 7097, 7096, 7236
5092, 99, 899, 3415, 94, 909, 7237, 7238, 890, 2752, 6951
5093, 2838, 3195, 3205, 3208, 7239, 3226, 7240, 7241, 3269, 3270
5094, 5610, 1752, 289, 5784, 7026, 1758, 7242, 7243, 7245, 7244
5095, 6426, 6429, 6425, 6819, 6653, 6652, 6644, 7246, 7055, 7053
5096, 6455, 6489, 6476, 6885, 6777, 6722, 6775, 6931, 7248, 7247
5097, 3279, 896, 895, 798, 7249, 905, 7250, 7251, 2769, 2767
5098, 796, 895, 797, 3284, 2766, 2765, 806, 7252, 7254, 7253
5099, 3495, 892, 1015, 1014, 7255, 2898, 3521, 3522, 2899, 1021
5100, 1032, 2859, 1033, 3278, 7256, 7257, 1039, 7258, 6919, 7156
5101, 6847, 6859, 6810, 6865, 7096, 7076, 7259, 7147, 7075, 7074
5102, 3492, 3500, 2839, 3507, 3537, 7260, 7261, 3561, 3560, 7262
5103, 4663, 4691, 4677, 6816, 4816, 4815, 4813, 7263, 7265, 7264
5104, 4659, 4692, 4691, 6834, 4794, 4793, 4792, 7266, 7268, 7267
5105, 3674, 3676, 3675, 6891, 3979, 3978, 3972, 7269, 7271, 7270
5106, 3657, 3654, 3688, 6895, 3911, 3908, 3912, 7272, 7274, 7273
5107, 2109, 6883, 6846, 6904, 7275, 7207, 7276, 7277, 7212, 7210
5108, 3648, 3645, 3647, 6817, 3865, 3860, 3866, 7278, 7280, 7279
5109, 3285, 2859, 2843, 2864, 6917, 3026, 7110, 7281, 2956, 2959
5110, 6434, 6435, 6432, 6827, 6692, 6691, 6675, 7093, 7282, 7092
5111, 5359, 5362, 4541, 4293, 5419, 6943, 6942, 7160, 7284, 7283
5112, 3707, 3683, 3671, 6842, 3889, 3968, 3954, 7182, 6907, 7285
5113, 3072, 1047, 3154, 6863, 3082, 7286, 7287, 7288, 7290, 7289
5114, 6429, 6432, 6431, 6827, 6674, 6673, 6655, 7091, 7092, 7291
5115, 4674, 4694, 6838, 6884, 4800, 7292, 7293, 6972, 6973, 7294
5116, 6108, 6101, 6095, 6868, 6328, 6330, 6329, 7295, 7297, 7296
5117, 4960, 4963, 6859, 6865, 5002, 7298, 7144, 7146, 7045, 7075
5118, 4964, 4967, 4960, 6847, 5010, 5009, 5017, 7235, 7098, 7145
5119, 2264, 97, 111, 6857, 7015, 7103, 7102, 7151, 7299, 7205
5120, 6361, 6365, 452, 6849, 6412, 7300, 7301, 7153, 7154, 7302
5121, 2854, 1056, 1117, 6830, 7173, 7303, 7304, 7305, 7202, 7306
5122, 3290, 796, 2857, 1029, 7307, 7308, 7061, 7309, 7310, 7088
5123, 1440, 5884, 187, 1420, 7311, 7312, 1450, 4270, 7313, 4266
5124, 1420, 5884, 187, 186, 7313, 7312, 4266, 1430, 7314, 1431
5125, 5436, 5439, 1577, 5429, 5460, 7315, 7316, 5497, 5453, 7317
5126, 5959, 2087, 5966, 5597, 6010, 6006, 6011, 7218, 5760, 7217
5127, 3033, 3071, 6889, 6901, 7318, 7319, 7320, 7321, 7134, 7322
5128, 1577, 5367, 2108, 6846, 6977, 7323, 7324, 6979, 6980, 7325
5129, 2260, 110, 96, 6863, 7326, 7327, 7328, 7329, 7331, 7330
5130, 2256, 2298, 2271, 6889, 2505, 2417, 2507, 7332, 7334, 7333
5131, 4688, 6865, 6851, 6896, 7335, 7336, 7337, 7170, 6958, 7338
5132, 498, 32, 30, 6843, 502, 503, 2236, 7339, 7341, 7340
5133, 6435, 6492, 6466, 6827, 6707, 6706, 6693, 7282, 7343, 7342
5134, 4688, 4682, 6865, 6896, 4841, 7148, 7335, 7170, 7149, 6958
5135, 1754, 5789, 5795, 5617, 7344, 5844, 7345, 7346, 6922, 6923
5136, 489, 498, 30, 6843, 2237, 2236, 493, 7347, 7339, 7340
5137, 5964, 5959, 5970, 5595, 6014, 6028, 6027, 7348, 7350, 7349
5138, 5355, 4685, 5357, 6887, 7351, 7186, 5385, 6928, 7188, 6930
5139, 801, 899, 94, 3415, 2756, 2752, 811, 6950, 7237, 6951
5140, 6821, 5021, 6849, 6871, 7001, 7002, 6985, 7352, 7191, 7192
5141, 1117, 3153, 1056, 6886, 7353, 7069, 7303, 7354, 7072, 7073
5142, 5362, 4541, 4678, 6851, 6943, 7355, 7356, 6944, 6945, 7357
5143, 896, 3279, 978, 2859, 7249, 3318, 2916, 2919, 7023, 2920
5144, 3154, 1047, 3072, 6888, 7286, 3082, 7287, 7358, 7360, 7359
5145, 2260, 96, 110, 3074, 7328, 7327, 7326, 7361, 7362, 3077
5146, 6454, 6496, 6485, 6885, 6776, 6683, 6773, 6933, 7364, 7363
5147, 1440, 5884, 5872, 2076, 7311, 5929, 7365, 5625, 5896, 5926
5148, 3290, 894, 977, 2857, 7366, 2908, 3309, 7061, 2911, 2910
5149, 6454, 6455, 6476, 6885, 6769, 6775, 6774, 6933, 6931, 7247
5150, 1058, 6866, 1057, 6894, 7367, 7368, 1064, 7185, 7369, 7184
5151, 1435, 1963, 5438, 5613, 5665, 5477, 7370, 5667, 5666, 7079
5152, 2282, 2262, 2270, 6863, 2522, 2484, 2422, 7371, 7373, 7372
5153, 851, 2256, 3069, 2261, 7374, 7375, 7376, 7377, 2450, 7378
5154, 4538, 264, 265, 4855, 7009, 1691, 7011, 7379, 4859, 4863
5155, 3199, 1056, 3195, 3193, 7122, 6938, 3266, 3241, 7128, 3265
5156, 1028, 3286, 3280, 3277, 6968, 3326, 7380, 6970, 3346, 3345
5157, 3279, 3285, 2859, 3291, 3322, 6917, 7023, 3355, 3354, 6918
5158, 1056, 2854, 3202, 3193, 7173, 7171, 6936, 7128, 7381, 3216
5159, 3674, 3673, 3711, 6848, 3970, 3975, 3974, 7382, 7384, 7383
5160, 4541, 4543, 1574, 6851, 4552, 4563, 4582, 6945, 7386, 7385
5161, 6446, 6445, 6473, 6839, 6730, 6735, 6734, 7216, 7387, 7215
5162, 4889, 6810, 4893, 6834, 7388, 7389, 4953, 7390, 7392, 7391
5163, 6485, 6496, 6430, 6885, 6683, 6680, 6681, 7363, 7364, 7393
5164, 6444, 6483, 6443, 6839, 6728, 6669, 6694, 7196, 7394, 7195
5165, 2131, 134, 1208, 6468, 2133, 1209, 6794, 6558, 6557, 7395
5166, 4661, 6838, 4694, 6884, 7396, 7292, 4741, 6974, 7294, 6973
5167, 2859, 2843, 1033, 3278, 3026, 7397, 7257, 6919, 7111, 7156
5168, 1440, 5884, 2076, 187, 7311, 5896, 5625, 1450, 7312, 5623
5169, 3112, 1057, 1115, 6894, 3143, 7398, 7399, 7183, 7184, 7400
5170, 4544, 6846, 238, 6883, 7401, 7402, 4565, 7403, 7207, 7404
5171, 2751, 3411, 3408, 3420, 7405, 3479, 7406, 7407, 3467, 3489
5172, 1047, 3364, 3494, 3496, 7408, 6948, 7166, 7167, 6949, 3567
5173, 4544, 1574, 6846, 6883, 4564, 7409, 7401, 7403, 7410, 7207
5174, 6481, 6442, 6828, 6854, 6511, 7411, 7412, 6998, 6999, 7413
5175, 1028, 2842, 2857, 3277, 7414, 3025, 6969, 6970, 7415, 6909
5176, 6431, 6433, 6443, 6827, 6684, 6687, 6686, 7291, 7417, 7416
5177, 6445, 6444, 6433, 6839, 6696, 6695, 6697, 7387, 7196, 7194
5178, 4676, 4661, 4697, 6884, 4803, 4801, 4805, 7418, 6974, 7419
5179, 4967, 362, 6847, 6904, 7420, 7421, 7098, 7100, 7422, 7099
5180, 3657, 3659, 3656, 6845, 3919, 3918, 3910, 7423, 7425, 7424
5181, 5443, 5615, 5432, 5437, 7426, 7427, 5509, 5510, 7049, 5488
5182, 4689, 4542, 4660, 4696, 7428, 7429, 4720, 4798, 7430, 4796
5183, 4662, 4682, 4681, 6865, 4811, 4810, 4809, 7107, 7148, 6956
5184, 5594, 5797, 5794, 5787, 7431, 5850, 7432, 7433, 5863, 5829
5185, 4960, 4963, 4961, 6859, 5002, 5015, 5016, 7144, 7298, 7434
5186, 2264, 2285, 97, 6857, 2400, 7435, 7015, 7151, 7152, 7299
5187, 6482, 6425, 6431, 6819, 6642, 6654, 6656, 7127, 7053, 7054
5188, 2280, 2258, 2283, 6857, 2513, 2364, 2514, 7138, 7436, 7140
5189, 1834, 6849, 6823, 6887, 6984, 7228, 7227, 7437, 7439, 7438
5190, 335, 5607, 1952, 6836, 7440, 7441, 1959, 7085, 7442, 7087
5191, 338, 358, 186, 5869, 2098, 7443, 7444, 5887, 5886, 7445
5192, 6473, 6421, 6463, 6853, 6635, 6636, 6638, 7446, 7448, 7447
5193, 4964, 1802, 4967, 6859, 4984, 5007, 5010, 7236, 7163, 7097
5194, 1072, 1071, 3154, 6863, 1078, 3184, 3183, 7449, 7450, 7289
5195, 4664, 4961, 4958, 6884, 7451, 5013, 7452, 7453, 7062, 7047
5196, 3362, 2838, 3195, 3202, 7454, 7239, 6934, 6935, 7455, 3223
5197, 3028, 6855, 3112, 6894, 7456, 7457, 7458, 7459, 7460, 7183
5198, 3153, 1117, 1073, 6886, 7353, 7461, 3188, 7072, 7354, 7462
5199, 2256, 2298, 6889, 6902, 2505, 7334, 7332, 7463, 7465, 7464
5200, 238, 6846, 2109, 6883, 7402, 7276, 7466, 7404, 7207, 7275
5201, 1800, 5364, 335, 1832, 6912, 5375, 6975, 7467, 7469, 7468
5202, 5367, 6852, 1950, 6890, 7470, 7471, 5408, 7142, 7472, 7141
5203, 3205, 3362, 2838, 3208, 7473, 7454, 7240, 3270, 7044, 7241
5204, 4543, 6846, 1574, 6851, 6978, 7409, 4563, 7386, 7474, 7385
5205, 3112, 3028, 1115, 6893, 7458, 7475, 7399, 7476, 7478, 7477
5206, 1194, 6820, 1330, 6868, 7479, 7480, 7481, 7482, 7484, 7483
5207, 899, 99, 3415, 1006, 909, 7238, 7237, 2869, 2867, 3427
5208, 5610, 5586, 5794, 5784, 5767, 7485, 7486, 7243, 7487, 5810
5209, 6847, 6851, 6846, 6865, 7488, 7474, 7489, 7147, 7336, 7490
5210, 5964, 5960, 5971, 6045, 6032, 5999, 6015, 7082, 7080, 7491
5211, 6361, 6365, 6356, 470, 6412, 6413, 6416, 7492, 7494, 7493
5212, 3706, 3667, 3653, 6895, 3907, 3906, 3876, 7495, 7497, 7496
5213, 4671, 4698, 4664, 6815, 4789, 4753, 4806, 7498, 7500, 7499
5214, 6423, 6426, 6425, 6819, 6645, 6644, 6640, 7501, 7246, 7053
5215, 4669, 4681, 4682, 6896, 4838, 4810, 4840, 7169, 6957, 7149
5216, 2106, 1952, 6836, 6903, 7502, 7087, 7503, 7504, 6915, 7213
5217, 1047, 3494, 110, 3503, 7166, 7505, 1054, 7165, 3520, 7506
5218, 6422, 6482, 6471, 6819, 6641, 6643, 6602, 7507, 7127, 7177
5219, 6361, 6362, 1627, 6849, 6410, 6373, 6411, 7153, 7508, 7155
5220, 1072, 6837, 1071, 6863, 7509, 7510, 1078, 7449, 7511, 7450
5221, 1951, 5354, 1952, 6847, 5411, 5410, 1958, 7512, 7514, 7513
5222, 2088, 5959, 5964, 5595, 6009, 6014, 6013, 5763, 7350, 7348
5223, 3494, 3500, 3364, 2860, 3538, 6947, 6948, 7515, 7517, 7516
5224, 5873, 5876, 5881, 4265, 5936, 5932, 5951, 7518, 6997, 7519
5225, 5354, 6846, 6851, 6865, 7520, 7474, 7521, 7522, 7490, 7336
5226, 452, 6362, 6361, 6849, 7523, 6410, 7301, 7302, 7508, 7153
5227, 6436, 6426, 6423, 6819, 6646, 6645, 6584, 7524, 7246, 7501
5228, 2295, 2267, 3153, 3115, 2467, 7525, 7526, 7527, 7528, 7070
5229, 4964, 6847, 4960, 6859, 7235, 7145, 5017, 7236, 7096, 7144
5230, 6116, 3665, 130, 1170, 7529, 3818, 6141, 6142, 3817, 1173
5231, 793, 3411, 3420, 1071, 7530, 3467, 7531, 7532, 7534, 7533
5232, 5357, 5355, 4675, 4685, 5385, 7535, 7536, 7186, 7351, 4852
5233, 2857, 2842, 2863, 3277, 3025, 2950, 2952, 6909, 7415, 7537
5234, 5970, 5597, 5959, 6852, 7538, 7218, 6028, 7539, 7541, 7540
5235, 4687, 4696, 4660, 6816, 4797, 4796, 4723, 7542, 7544, 7543
5236, 3197, 3198, 3191, 1058, 3256, 3255, 3247, 7135, 7136, 7545
5237, 111, 6830, 2855, 6857, 7203, 7546, 7547, 7205, 7206, 7548
5238, 3644, 3693, 3706, 6817, 3811, 3864, 3863, 7549, 7551, 7550
5239, 3112, 2279, 3028, 6893, 7552, 7553, 7458, 7476, 7554, 7478
5240, 1927, 5271, 5272, 6815, 5279, 5282, 5275, 7555, 7557, 7556
5241, 96, 2260, 2704, 3074, 7328, 7558, 2706, 7362, 7361, 7559
5242, 6810, 6847, 6846, 6904, 7259, 7489, 7209, 7211, 7099, 7210
5243, 295, 4890, 1752, 6859, 7560, 4928, 7561, 7562, 7564, 7563
5244, 1802, 362, 4967, 6904, 7565, 7420, 5007, 7164, 7422, 7100
5245, 5440, 5598, 5604, 5429, 7013, 5696, 7566, 5457, 7014, 7567
5246, 2269, 2303, 6867, 6888, 2502, 7568, 7569, 7570, 7572, 7571
5247, 4673, 4668, 4677, 6856, 4836, 4823, 4837, 7573, 7575, 7574
5248, 4667, 4665, 4666, 6856, 4817, 4709, 4818, 7576, 7578, 7577
5249, 6362, 469, 6355, 1491, 7579, 7580, 6409, 6371, 7581, 6375
5250, 4893, 6834, 6810, 6859, 7391, 7392, 7389, 7582, 7583, 7076
5251, 1577, 4543, 191, 5367, 4550, 4549, 4548, 6977, 6976, 7584
5252, 1112, 3154, 1047, 6863, 7585, 7286, 7586, 7587, 7289, 7290
5253, 1582, 2109, 283, 6883, 7588, 7589, 7590, 7591, 7275, 7592
5254, 5588, 6042, 6844, 6897, 7593, 7594, 7595, 7596, 7598, 7597
5255, 3364, 2839, 3500, 3507, 7599, 7260, 6947, 7198, 7262, 3560
5256, 4265, 5879, 5869, 5876, 6996, 5893, 7600, 6997, 5900, 5937
5257, 5795, 5592, 5786, 5596, 6921, 7601, 5856, 7052, 5715, 7051
5258, 3415, 899, 1006, 3407, 7237, 2869, 3427, 3448, 7602, 3445
5259, 6097, 6102, 6096, 6820, 6335, 6334, 6314, 7603, 7038, 7039
5260, 1028, 1114, 6867, 6901, 7604, 7605, 7606, 7607, 7608, 7180
5261, 4676, 6834, 4661, 6884, 7609, 7610, 4803, 7418, 7611, 6974
5262, 4669, 4688, 4667, 6896, 4831, 4830, 4828, 7169, 7170, 7612
5263, 4961, 4964, 4960, 6859, 4986, 5017, 5016, 7434, 7236, 7144
5264, 5969, 5966, 5593, 5597, 6030, 7613, 6925, 7219, 7217, 5762
5265, 3677, 3676, 3674, 6874, 3980, 3979, 3981, 7614, 7616, 7615
5266, 1951, 6846, 5354, 6847, 7617, 7520, 5411, 7512, 7489, 7514
5267, 3659, 3657, 3719, 6845, 3919, 3924, 3923, 7425, 7423, 7618
5268, 1113, 6860, 1046, 6901, 7619, 7199, 7620, 7621, 7201, 7133
5269, 1114, 1046, 6867, 6901, 7622, 7179, 7605, 7608, 7133, 7180
5270, 1454, 5356, 4685, 6887, 7623, 7187, 7624, 7625, 6929, 7188
5271, 5354, 6847, 6846, 6865, 7514, 7489, 7520, 7522, 7147, 7490
5272, 6422, 6423, 6425, 6819, 6582, 6640, 6639, 7507, 7501, 7053
5273, 2844, 3416, 1074, 6830, 7626, 7627, 7628, 7629, 7631, 7630
5274, 3112, 1115, 1057, 6893, 7399, 7398, 3143, 7476, 7477, 7632
5275, 4885, 4659, 4690, 6833, 7633, 4732, 7634, 7635, 6993, 6991
5276, 2288, 6855, 2287, 6898, 7232, 7233, 2512, 7636, 7638, 7637
5277, 3645, 3644, 3647, 6817, 3815, 3861, 3860, 7280, 7549, 7279
5278, 6432, 6435, 6466, 6827, 6691, 6693, 6690, 7092, 7282, 7342
5279, 6045, 5964, 5970, 5595, 7082, 6027, 7081, 7639, 7348, 7349
5280, 3153, 3115, 2267, 6857, 7070, 7528, 7525, 7225, 7224, 7640
5281, 4662, 4671, 4664, 6884, 4807, 4806, 4756, 7109, 7641, 7453
5282, 4889, 6810, 6834, 6883, 7388, 7392, 7390, 7642, 7208, 7643
5283, 4539, 4678, 4541, 6851, 7644, 7355, 4555, 7645, 7357, 6945
5284, 1581, 6100, 6114, 6104, 7646, 6347, 7647, 7648, 6308, 6277
5285, 6810, 6846, 1574, 6883, 7209, 7409, 7649, 7208, 7207, 7410
5286, 4662, 4664, 4958, 6884, 4756, 7452, 7108, 7109, 7453, 7047
5287, 5433, 5429, 5436, 6899, 5495, 5497, 5496, 7650, 7652, 7651
5288, 6103, 6099, 6122, 6840, 6341, 6346, 6345, 7653, 7655, 7654
5289, 85, 111, 2264, 3110, 7656, 7102, 7657, 7658, 3117, 7019
5290, 1964, 1437, 1436, 5437, 5671, 1446, 5672, 5484, 7119, 7120
5291, 4202, 6118, 6125, 1580, 7659, 6212, 7660, 7661, 7663, 7662
5292, 3279, 3289, 3292, 895, 3319, 3357, 3356, 7250, 7665, 7664
5293, 5367, 1577, 2108, 6890, 6977, 7324, 7323, 7142, 7667, 7666
5294, 3278, 2843, 1033, 3281, 7111, 7397, 7156, 3350, 7168, 7158
5295, 2299, 95, 3028, 6893, 7668, 7669, 7670, 7671, 7672, 7478
5296, 3660, 3656, 3659, 6825, 3920, 3918, 3921, 7673, 7675, 7674
5297, 1072, 3154, 1112, 6863, 3183, 7585, 7676, 7449, 7289, 7587
5298, 2260, 96, 2262, 6863, 7328, 7677, 2392, 7329, 7330, 7373
5299, 1112, 1047, 3154, 6888, 7586, 7286, 7585, 7678, 7360, 7358
5300, 4667, 6851, 4665, 6856, 7679, 7680, 4817, 7576, 7681, 7578
5301, 2107, 5367, 1951, 6846, 7682, 5407, 7683, 7684, 6980, 7617
5302, 3693, 3650, 3667, 6842, 3808, 3886, 3885, 7231, 6906, 7230
5303, 6498, 6448, 6446, 6839, 6741, 6740, 6742, 7214, 7685, 7216
5304, 4886, 4892, 4893, 6884, 4948, 4951, 4950, 7686, 7688, 7687
5305, 1804, 186, 159, 1300, 7689, 7690, 7691, 7692, 7693, 1301
5306, 4691, 4677, 6816, 6856, 4815, 7264, 7265, 7694, 7574, 7695
5307, 1059, 1058, 3111, 6855, 1065, 3145, 3144, 7696, 7698, 7697
5308, 3656, 3654, 3657, 6895, 3895, 3911, 3910, 7699, 7274, 7272
5309, 5358, 5367, 191, 4293, 5409, 7584, 7700, 7161, 7162, 4310
5310, 6112, 6101, 4891, 6868, 6332, 7118, 7701, 7702, 7297, 7703
5311, 1582, 4544, 2109, 6883, 4566, 7704, 7588, 7591, 7403, 7275
5312, 4686, 4674, 4694, 6838, 4790, 4800, 4744, 7705, 7293, 7292
5313, 3698, 3678, 3717, 6874, 3997, 3998, 3943, 7175, 7706, 7174
5314, 4691, 6816, 6833, 6834, 7265, 7707, 6992, 7267, 7709, 7708
5315, 1059, 6855, 3111, 6898, 7696, 7697, 3144, 7710, 7638, 7711
5316, 4659, 4884, 4692, 6834, 7712, 7713, 4794, 7266, 7714, 7268
5317, 6422, 6425, 6482, 6819, 6639, 6642, 6641, 7507, 7053, 7127
5318, 2260, 849, 2704, 3074, 7715, 2710, 7558, 7361, 7716, 7559
5319, 3153, 2295, 3115, 6886, 7526, 7527, 7070, 7072, 7717, 7071
5320, 4892, 6834, 4893, 6884, 7718, 7391, 4951, 7688, 7611, 7687
5321, 3703, 3658, 3648, 6825, 3879, 3867, 3877, 7719, 7721, 7720
5322, 2047, 5786, 5592, 5596, 5834, 7601, 5714, 5712, 7051, 5715
5323, 3706, 3647, 3644, 6817, 3862, 3861, 3863, 7550, 7279, 7549
5324, 1574, 6851, 6810, 6856, 7385, 7722, 7649, 7723, 7681, 7724
5325, 2296, 3071, 3033, 6867, 7725, 7318, 7726, 7727, 7178, 7728
5326, 4674, 4686, 4658, 6815, 4790, 4747, 4787, 7729, 7731, 7730
5327, 646, 647, 6357, 1042, 652, 6397, 6396, 7732, 7733, 7123
5328, 4855, 4854, 1723, 6816, 4862, 4865, 4864, 7734, 7736, 7735
5329, 3641, 3689, 3712, 6845, 3745, 3848, 3847, 7737, 7739, 7738
5330, 6131, 6093, 4178, 6840, 6197, 7740, 7741, 7742, 7744, 7743
5331, 4697, 4661, 4674, 6884, 4801, 4799, 4802, 7419, 6974, 6972
5332, 3195, 2838, 3362, 3208, 7239, 7454, 6934, 3269, 7241, 7044
5333, 1033, 2859, 1032, 6894, 7257, 7256, 1039, 7745, 7747, 7746
5334, 1574, 6846, 6810, 6851, 7409, 7209, 7649, 7385, 7474, 7722
5335, 5367, 5358, 191, 6890, 5409, 7700, 7584, 7142, 7143, 7748
5336, 1194, 154, 1330, 6820, 4062, 1332, 7481, 7479, 7749, 7480
5337, 1194, 289, 6820, 6868, 7750, 7751, 7479, 7482, 7752, 7484
5338, 5969, 5618, 1950, 6852, 6926, 7022, 7020, 7753, 7754, 7471
5339, 5367, 2107, 1951, 6852, 7682, 7683, 5407, 7470, 7756, 7755
5340, 109, 95, 6867, 6893, 7757, 7758, 7759, 7760, 7672, 7761
5341, 4202, 6113, 6118, 1581, 7762, 6209, 7659, 7763, 7765, 7764
5342, 1058, 3112, 6855, 6894, 3142, 7457, 7698, 7185, 7183, 7460
5343, 109, 3028, 95, 6893, 3035, 7669, 7757, 7760, 7478, 7672
5344, 2269, 6867, 95, 6893, 7569, 7758, 7766, 7767, 7761, 7672
5345, 117, 2850, 3494, 110, 7063, 7084, 3511, 3591, 7065, 7505
5346, 6834, 6856, 6816, 6883, 7768, 7695, 7709, 7643, 7770, 7769
5347, 2265, 3029, 836, 2271, 7771, 7772, 7773, 2416, 7775, 7774
5348, 3492, 2839, 3500, 1018, 7261, 7260, 3537, 3532, 3007, 3536
5349, 6092, 4891, 6101, 6820, 7117, 7118, 6317, 7776, 7778, 7777
5350, 95, 2268, 2687, 6867, 7779, 7780, 2689, 7758, 7782, 7781
5351, 4543, 1577, 2108, 6846, 4550, 7324, 7783, 6978, 6979, 7325
5352, 2270, 878, 3155, 6863, 7784, 7785, 7032, 7372, 7787, 7786
5353, 1045, 6889, 3071, 6901, 7788, 7319, 3106, 7132, 7322, 7134
5354, 6096, 6092, 6097, 6820, 6246, 6315, 6314, 7039, 7776, 7603
5355, 6043, 5797, 5594, 5787, 6941, 7431, 7789, 6971, 5863, 7433
5356, 3698, 3699, 3679, 6874, 3940, 4001, 3996, 7175, 7791, 7790
5357, 5359, 191, 4543, 5367, 7792, 4549, 7067, 5423, 7584, 6976
5358, 3279, 896, 978, 895, 7249, 2916, 3318, 7250, 905, 2915
5359, 3671, 3668, 3707, 6842, 3953, 3949, 3954, 7285, 7793, 7182
5360, 4691, 4887, 4659, 6834, 7794, 7795, 4792, 7267, 7796, 7266
5361, 4691, 4659, 4887, 6833, 4792, 7795, 7794, 6992, 6993, 7797
5362, 6082, 2109, 6846, 6904, 6088, 7276, 7798, 7799, 7277, 7210
5363, 4291, 190, 1453, 6849, 4307, 1456, 4308, 7800, 7802, 7801
5364, 2857, 1028, 1029, 6901, 6969, 1035, 7088, 7803, 7607, 7804
5365, 4677, 4696, 4687, 6856, 4825, 4797, 4814, 7574, 7806, 7805
5366, 4962, 5023, 5366, 6903, 7807, 7808, 7809, 7810, 7812, 7811
5367, 4691, 4663, 4690, 6833, 4816, 4729, 4791, 6992, 7813, 6991
5368, 6043, 2062, 5798, 5787, 6076, 7814, 6939, 6971, 7815, 5862
5369, 3663, 3696, 3646, 6875, 3871, 3787, 3869, 7816, 7818, 7817
5370, 3363, 1116, 6866, 6894, 3399, 7819, 7820, 7821, 7822, 7369
5371, 6092, 6101, 6097, 6820, 6317, 6316, 6315, 7776, 7777, 7603
5372, 4672, 6851, 4688, 6865, 7823, 7337, 4847, 7824, 7336, 7335
5373, 4672, 4679, 4688, 6851, 4782, 4832, 4847, 7823, 7825, 7337
5374, 4893, 6810, 4889, 6904, 7389, 7388, 4953, 7826, 7211, 7827
5375, 4541, 1574, 4539, 6851, 4582, 4560, 4555, 6945, 7385, 7645
5376, 4962, 5366, 6865, 6903, 7809, 7828, 7829, 7810, 7811, 7830
5377, 1435, 1436, 5438, 1963, 1445, 7831, 7370, 5665, 5664, 5477
5378, 6846, 6847, 6810, 6851, 7489, 7259, 7209, 7474, 7488, 7722
5379, 3668, 3670, 3669, 6892, 3951, 3950, 3916, 7832, 7834, 7833
5380, 6131, 6122, 6093, 6840, 6323, 6322, 6197, 7742, 7654, 7744
5381, 3290, 2857, 3277, 3293, 7061, 6909, 3311, 3349, 6910, 3347
5382, 2269, 2255, 2303, 6888, 2500, 2503, 2502, 7570, 7835, 7572
5383, 6439, 2022, 2273, 6363, 7836, 7837, 7838, 7839, 6391, 7840
5384, 4541, 5362, 4678, 4293, 6943, 7356, 7355, 7283, 7284, 7841
5385, 4691, 6816, 6834, 6856, 7265, 7709, 7267, 7694, 7695, 7768
5386, 4694, 271, 4888, 4661, 4739, 7842, 7843, 4741, 4737, 7844
5387, 1574, 4665, 6851, 6856, 7845, 7680, 7385, 7723, 7578, 7681
5388, 6111, 6102, 1803, 6820, 6336, 7040, 7041, 7037, 7038, 7846
5389, 4694, 4661, 4888, 6838, 4741, 7844, 7843, 7292, 7396, 7847
5390, 2851, 3494, 2860, 2831, 7848, 7515, 3014, 3013, 7849, 3010
5391, 2022, 6439, 6843, 6885, 7836, 7850, 7851, 7852, 7854, 7853
5392, 3071, 2296, 3033, 6889, 7725, 7726, 7318, 7319, 7855, 7320
5393, 6445, 6433, 6466, 6827, 6697, 6689, 6698, 7856, 7417, 7342
5394, 4691, 6816, 4663, 6833, 7265, 7263, 4816, 6992, 7707, 7813
5395, 110, 2851, 1047, 6863, 7857, 7858, 1054, 7331, 7859, 7290
5396, 4663, 4677, 4687, 6816, 4813, 4814, 4726, 7263, 7264, 7542
5397, 3653, 3667, 3655, 6895, 3906, 3905, 3904, 7496, 7497, 7860
5398, 3366, 2842, 2833, 6901, 7861, 2974, 7862, 7863, 7865, 7864
5399, 5593, 5966, 2087, 5597, 7613, 6006, 5759, 5762, 7217, 5760
5400, 1072, 1112, 6837, 6863, 7676, 7866, 7509, 7449, 7587, 7511
5401, 6361, 6365, 461, 452, 6412, 7867, 7868, 7301, 7300, 2210
5402, 3506, 2862, 1045, 6860, 7059, 7060, 7057, 7869, 7870, 7200
5403, 6362, 452, 189, 6849, 7523, 7871, 7872, 7508, 7302, 7873
5404, 6810, 6851, 6847, 6865, 7722, 7488, 7259, 7074, 7336, 7147
5405, 1948, 1212, 5361, 5356, 7874, 7875, 5398, 5402, 7876, 5403
5406, 1057, 6866, 1116, 6894, 7368, 7819, 7877, 7184, 7369, 7822
5407, 299, 1802, 4964, 6859, 7878, 4984, 7879, 7880, 7163, 7236
5408, 3651, 3703, 3648, 6895, 3878, 3877, 3872, 7881, 7883, 7882
5409, 5354, 6846, 5359, 6851, 7520, 7068, 5420, 7521, 7474, 6946
5410, 5354, 1952, 6847, 6903, 5410, 7513, 7514, 7884, 6915, 7885
5411, 1072, 1112, 3154, 6888, 7676, 7585, 3183, 7886, 7678, 7358
5412, 4685, 6824, 1453, 6849, 7887, 7888, 7889, 7890, 7891, 7801
5413, 2258, 2285, 2284, 6857, 2515, 2517, 2361, 7436, 7152, 7150
5414, 5792, 5596, 5798, 6844, 7050, 7094, 5861, 7892, 7894, 7893
5415, 188, 211, 125, 6831, 1484, 4340, 1485, 7895, 7897, 7896
5416, 6491, 6442, 6480, 6133, 6725, 6727, 6617, 7006, 7007, 7898
5417, 2861, 3198, 1058, 6866, 6990, 7136, 7137, 7899, 7900, 7367
5418, 274, 1927, 5272, 6815, 1928, 5275, 5274, 7901, 7555, 7556
5419, 3647, 3706, 3653, 6895, 3862, 3876, 3875, 7902, 7495, 7496
5420, 1574, 6856, 6810, 6883, 7723, 7724, 7649, 7410, 7770, 7208
5421, 5367, 5359, 191, 4293, 5423, 7792, 7584, 7162, 7160, 4310
5422, 5440, 5619, 5598, 5433, 7903, 5698, 7013, 5476, 7904, 7012
5423, 6851, 6865, 6810, 6896, 7336, 7074, 7722, 7338, 6958, 7112
5424, 211, 124, 125, 6831, 1488, 1164, 4340, 7897, 7905, 7896
5425, 2851, 3494, 2831, 2850, 7848, 7849, 3013, 2901, 7084, 2889
5426, 3366, 6860, 1114, 6901, 7906, 7907, 3388, 7863, 7201, 7608
5427, 1658, 1654, 6849, 6871, 4635, 7908, 7909, 7910, 7911, 7192
5428, 3028, 1033, 6855, 6894, 3041, 7912, 7456, 7459, 7745, 7460
5429, 4539, 1574, 4665, 6851, 4560, 7845, 7913, 7645, 7385, 7680
5430, 3641, 3710, 3681, 6892, 3846, 3845, 3748, 7914, 7916, 7915
5431, 1752, 2111, 297, 6859, 7917, 7918, 7919, 7563, 7921, 7920
5432, 452, 461, 6361, 6362, 2210, 7868, 7301, 7523, 7922, 6410
5433, 1952, 5971, 5960, 6045, 7923, 5999, 7924, 7925, 7491, 7080
5434, 4893, 6859, 6810, 6904, 7582, 7076, 7389, 7826, 7101, 7211
5435, 2843, 3363, 2832, 6894, 7926, 7927, 2979, 7928, 7821, 7929
5436, 211, 210, 124, 6831, 1483, 4341, 1488, 7897, 7930, 7905
5437, 3685, 3686, 3709, 6891, 3857, 3984, 3853, 7931, 7933, 7932
5438, 4688, 6851, 4667, 6896, 7337, 7679, 4830, 7170, 7338, 7612
5439, 2854, 2830, 3202, 3193, 3011, 7934, 7171, 7381, 7935, 3216
5440, 1801, 6836, 1800, 6903, 7936, 7086, 1807, 7937, 7213, 6913
5441, 4544, 1574, 238, 6846, 4564, 1576, 4565, 7401, 7409, 7402
5442, 2269, 6888, 6867, 6893, 7570, 7571, 7569, 7767, 7938, 7761
5443, 4691, 4692, 4673, 6834, 4793, 4850, 4851, 7267, 7268, 7939
5444, 2111, 1802, 297, 6859, 7940, 7941, 7918, 7921, 7163, 7920
5445, 2121, 6479, 348, 6138, 6578, 6577, 2125, 6261, 7942, 6255
5446, 6834, 6859, 4893, 6884, 7583, 7582, 7391, 7611, 7078, 7687
5447, 4665, 4678, 4539, 6851, 4706, 7644, 7913, 7680, 7357, 7645
5448, 3112, 3028, 2279, 6855, 7458, 7553, 7552, 7457, 7456, 7943
5449, 1753, 285, 1754, 6883, 7944, 7945, 1760, 7946, 7948, 7947
5450, 2843, 2859, 1033, 6894, 3026, 7257, 7397, 7928, 7747, 7745
5451, 6364, 3661, 1618, 6900, 7949, 7950, 6370, 7951, 7953, 7952
5452, 3362, 2838, 3202, 2854, 7454, 7455, 6935, 7172, 2985, 7171
5453, 4543, 4541, 191, 5359, 4552, 4546, 4549, 7067, 6942, 7792
5454, 5357, 4675, 4695, 4685, 7536, 4778, 7954, 7186, 4852, 4769
5455, 2071, 5602, 1432, 4265, 5649, 5648, 5624, 7955, 7956, 4271
5456, 2846, 1001, 2751, 891, 2893, 7957, 7958, 2892, 2868, 2757
5457, 5433, 5598, 5429, 6899, 7012, 7014, 5495, 7650, 7959, 7652
5458, 2288, 2287, 2259, 6898, 2512, 2335, 2518, 7636, 7637, 7960
5459, 191, 1577, 5367, 6890, 4548, 6977, 7584, 7748, 7667, 7142
5460, 4886, 4893, 6859, 6884, 4950, 7582, 7961, 7686, 7687, 7078
5461, 3667, 3650, 3707, 6842, 3886, 3888, 3887, 7230, 6906, 7182
5462, 295, 1752, 297, 6859, 7561, 7919, 1791, 7562, 7563, 7920
5463, 297, 1802, 299, 6859, 7941, 7878, 1794, 7920, 7163, 7880
5464, 840, 2300, 2279, 3028, 7962, 2439, 7963, 7964, 7965, 7553
5465, 5357, 1455, 5353, 5356, 7966, 7967, 5388, 5415, 7968, 5414
5466, 5594, 5596, 5787, 2046, 5713, 7095, 7433, 5709, 5711, 5827
5467, 1712, 5362, 5353, 4293, 5389, 5391, 5387, 7969, 7284, 7970
5468, 1686, 6823, 1682, 6849, 7971, 7972, 4656, 7973, 7228, 7974
5469, 6139, 6812, 245, 6825, 7975, 7976, 7977, 7978, 7980, 7979
5470, 5599, 6042, 5588, 6897, 7981, 7593, 5735, 7982, 7598, 7596
5471, 3073, 2272, 6357, 3074, 7983, 7984, 7124, 3085, 7985, 7125
5472, 4661, 6834, 4892, 6884, 7610, 7718, 7986, 6974, 7611, 7688
5473, 4855, 1723, 265, 6816, 4864, 1724, 4863, 7734, 7735, 7987
5474, 3155, 2270, 645, 3156, 7032, 7988, 7989, 3167, 7033, 7990
5475, 4667, 6851, 6856, 6896, 7679, 7681, 7576, 7612, 7338, 7991
5476, 3700, 3029, 1029, 1030, 7992, 3061, 7993, 7994, 3060, 1036
5477, 4889, 4893, 4887, 6834, 4953, 4952, 4916, 7390, 7391, 7796
5478, 1028, 2857, 2842, 6901, 6969, 3025, 7414, 7607, 7803, 7865
5479, 1951, 2107, 6846, 6847, 7683, 7684, 7617, 7512, 7995, 7489
5480, 2111, 1802, 6859, 6904, 7940, 7163, 7921, 7996, 7164, 7101
5481, 6447, 6446, 6448, 6839, 6732, 6740, 6739, 7997, 7216, 7685
5482, 6430, 6441, 6474, 6885, 6678, 6651, 6597, 7393, 7999, 7998
5483, 6496, 6454, 6476, 6885, 6776, 6774, 6723, 7364, 6933, 7247
5484, 3507, 989, 3492, 6860, 8000, 8001, 3561, 8002, 8004, 8003
5485, 3688, 3712, 3657, 6892, 3926, 3925, 3912, 8005, 8007, 8006
5486, 4679, 5360, 5362, 6851, 8008, 5394, 8009, 7825, 8010, 6944
5487, 6430, 6496, 6441, 6885, 6680, 6679, 6678, 7393, 7364, 7999
5488, 4685, 1686, 6824, 6849, 4701, 8011, 7887, 7890, 7973, 7891
5489, 4886, 6859, 6838, 6884, 7961, 8012, 8013, 7686, 7078, 7294
5490, 107, 116, 3405, 94, 1138, 3422, 3421, 8014, 8016, 8015
5491, 1951, 1952, 2106, 6847, 1958, 7502, 8017, 7512, 7513, 8018
5492, 6474, 6441, 6424, 6885, 6651, 6650, 6594, 7998, 7999, 8019
5493, 3688, 3654, 3655, 6895, 3908, 3903, 3909, 7273, 7274, 7860
5494, 4538, 265, 4660, 6816, 7011, 4719, 7010, 8020, 7987, 7543
5495, 4671, 6815, 4664, 6884, 7498, 7499, 4806, 7641, 8021, 7453
5496, 3028, 840, 2300, 6855, 7964, 7962, 7965, 7456, 8023, 8022
5497, 2270, 3156, 877, 552, 7033, 7035, 7036, 2421, 8025, 8024
5498, 1682, 6823, 1678, 6849, 7972, 8026, 4653, 7974, 7228, 8027
5499, 328, 462, 6365, 307, 8028, 8029, 8030, 1862, 8032, 8031
5500, 4673, 4668, 6856, 6896, 4836, 7575, 7573, 8033, 8034, 7991
5501, 3154, 2297, 3072, 6863, 8035, 8036, 7287, 7289, 8037, 7288
5502, 5600, 5883, 1803, 6829, 8038, 8039, 8040, 8041, 8043, 8042
5503, 3073, 849, 2272, 3074, 8044, 8045, 7983, 3085, 7716, 7985
5504, 1678, 6823, 1674, 6849, 8026, 8046, 4650, 8027, 7228, 8047
5505, 4542, 4689, 4680, 4696, 7428, 4714, 8048, 7430, 4798, 4827
5506, 2299, 3028, 2279, 6893, 7670, 7553, 2387, 7671, 7478, 7554
5507, 6455, 6452, 6862, 6885, 6770, 7030, 7031, 6931, 6932, 8049
5508, 6462, 6420, 6488, 6818, 6535, 6630, 6629, 8050, 8052, 8051
5509, 6432, 6433, 6431, 6827, 6685, 6684, 6673, 7092, 7417, 7291
5510, 1710, 5355, 4675, 5357, 5381, 7535, 4776, 5383, 5385, 7536
5511, 2109, 6844, 6042, 6897, 8053, 7594, 6073, 8054, 7597, 7598
5512, 1952, 5960, 1951, 6045, 7924, 8055, 1958, 7925, 7080, 8056
5513, 5869, 5873, 5880, 4265, 5935, 5916, 5897, 7600, 7518, 8057
5514, 3112, 2279, 2300, 6855, 7552, 2439, 8058, 7457, 7943, 8022
5515, 1577, 5436, 5429, 6899, 7316, 5497, 7317, 8059, 7651, 7652
5516, 6445, 6446, 6444, 6839, 6730, 6729, 6696, 7387, 7216, 7196
5517, 4664, 6815, 4961, 6884, 7499, 8060, 7451, 7453, 8021, 7062
5518, 1033, 1032, 6855, 6894, 1039, 8061, 7912, 7745, 7746, 7460
5519, 1952, 5607, 2106, 6836, 7441, 8062, 7502, 7087, 7442, 7503
5520, 6355, 6361, 470, 6362, 6417, 7492, 8063, 6409, 6410, 8064
5521, 1952, 5616, 5971, 6045, 8065, 8066, 7923, 7925, 8067, 7491
5522, 6838, 6859, 6815, 6884, 8012, 8068, 8069, 7294, 7078, 8021
5523, 6133, 6828, 6442, 6854, 8070, 7411, 7007, 8071, 7413, 6999
5524, 3191, 3199, 1057, 3208, 3244, 8072, 8073, 3257, 3259, 8074
5525, 6108, 6841, 6101, 6868, 8075, 8076, 6328, 7295, 8077, 7297
5526, 1801, 2106, 6836, 6903, 8078, 7503, 7936, 7937, 7504, 7213
5527, 460, 188, 211, 6362, 8079, 1484, 8080, 8081, 8083, 8082
5528, 6444, 6447, 6483, 6839, 6731, 6733, 6728, 7196, 7997, 7394
5529, 5360, 5354, 5359, 6851, 5421, 5420, 5422, 8010, 7521, 6946
5530, 4667, 4666, 4668, 6856, 4818, 4822, 4821, 7576, 7577, 7575
5531, 3671, 3683, 3673, 6848, 3968, 3967, 3966, 8084, 8085, 7384
5532, 5360, 5354, 6851, 6865, 5421, 7521, 8010, 8086, 7522, 7336
5533, 3364, 3494, 2860, 1047, 6948, 7515, 7516, 7408, 7166, 8087
5534, 4892, 6838, 4661, 6884, 8088, 7396, 7986, 7688, 7294, 6974
5535, 189, 461, 452, 6362, 8089, 2210, 7871, 7872, 7922, 7523
5536, 329, 2018, 2022, 6809, 2019, 5565, 5564, 8090, 8092, 8091
5537, 6095, 6101, 6112, 6868, 6330, 6332, 6331, 7296, 7297, 7702
5538, 6113, 4196, 6094, 6850, 8093, 8094, 6206, 8095, 8097, 8096
5539, 2282, 646, 2262, 6863, 8098, 8099, 2522, 7371, 8100, 7373
5540, 1029, 2271, 3029, 649, 8101, 7775, 3061, 8102, 8104, 8103
5541, 4676, 4697, 6834, 6884, 4805, 8105, 7609, 7418, 7419, 7611
5542, 380, 4685, 389, 6887, 8106, 8107, 2155, 8108, 7188, 8109
5543, 4130, 4894, 1757, 6868, 8110, 4924, 8111, 8112, 8114, 8113
5544, 6101, 6117, 6112, 4891, 6318, 6239, 6332, 7118, 7116, 7701
5545, 6846, 6847, 6082, 6904, 7489, 8115, 7798, 7210, 7099, 7799
5546, 3719, 3657, 3689, 6845, 3924, 3927, 3928, 7618, 7423, 7739
5547, 6365, 6361, 461, 470, 6412, 7868, 7867, 7494, 7492, 2219
5548, 340, 308, 339, 6861, 5542, 2000, 2001, 8116, 8118, 8117
5549, 3695, 3669, 3670, 6892, 3955, 3950, 3956, 8119, 7833, 7834
5550, 5969, 5959, 5597, 6852, 6029, 7218, 7219, 7753, 7540, 7541
5551, 3154, 2278, 2297, 6863, 8120, 2463, 8035, 7289, 8121, 8037
5552, 2271, 3032, 2277, 6889, 8122, 8123, 2431, 7333, 8125, 8124
5553, 2297, 3154, 3072, 6888, 8035, 7287, 8036, 8126, 7358, 7359
5554, 4166, 6127, 6110, 1755, 8127, 6191, 8128, 8129, 8131, 8130
5555, 5792, 5795, 5596, 6844, 5857, 7052, 7050, 7892, 8132, 7894
5556, 3651, 3648, 3647, 6895, 3872, 3866, 3873, 7881, 7882, 7902
5557, 2270, 3155, 793, 6863, 7032, 8133, 8134, 7372, 7786, 8135
5558, 5876, 5873, 5869, 4265, 5936, 5935, 5937, 6997, 7518, 7600
5559, 2282, 2270, 793, 6863, 2422, 8134, 8136, 7371, 7372, 8135
5560, 2851, 1112, 2860, 1047, 8137, 8138, 3014, 7858, 7586, 8087
5561, 1046, 6867, 3068, 6888, 7179, 8139, 3108, 8140, 7571, 8141
5562, 1113, 1046, 1114, 6901, 7620, 7622, 1120, 7621, 7133, 7608
5563, 4671, 4658, 4698, 6815, 4786, 4750, 4789, 7498, 7730, 7500
5564, 2860, 3494, 2851, 1047, 7515, 7848, 3014, 8087, 7166, 7858
5565, 3112, 2300, 865, 6855, 8058, 8142, 8143, 7457, 8022, 8144
5566, 4698, 274, 275, 4959, 4748, 1701, 4749, 8145, 8147, 8146
5567, 213, 216, 122, 6875, 1497, 1614, 4602, 8148, 8150, 8149
5568, 3032, 2277, 836, 2271, 8123, 8151, 8152, 8122, 2431, 7774
5569, 3676, 3677, 3678, 6874, 3980, 3990, 3989, 7616, 7614, 7706
5570, 1419, 5790, 5788, 5800, 8153, 5865, 8154, 8155, 5826, 5842
5571, 1116, 1115, 1057, 6894, 1122, 7398, 7877, 7822, 7400, 7184
5572, 1577, 5429, 5598, 6899, 7317, 7014, 8156, 8059, 7652, 7959
5573, 6355, 470, 469, 6362, 8063, 473, 7580, 6409, 8064, 7579
5574, 1033, 1032, 3027, 6855, 1039, 3067, 3066, 7912, 8061, 8157
5575, 1752, 2111, 5610, 6820, 7917, 8158, 7026, 8159, 8161, 8160
5576, 3285, 2864, 3281, 980, 7281, 8162, 3323, 3320, 2955, 3300
5577, 341, 308, 340, 6861, 5541, 5542, 2002, 8163, 8118, 8116
5578, 3287, 2842, 1114, 3280, 8164, 8165, 8166, 3301, 8168, 8167
5579, 3070, 647, 850, 2286, 8169, 8170, 8171, 8172, 8174, 8173
5580, 5366, 5023, 5364, 6903, 7808, 8175, 5397, 7811, 7812, 6914
5581, 6489, 6440, 6476, 6885, 6721, 6718, 6722, 7248, 8176, 7247
5582, 5362, 5359, 5353, 4293, 5419, 5418, 5391, 7284, 7160, 7970
5583, 4667, 6856, 4668, 6896, 7576, 7575, 4821, 7612, 7991, 8034
5584, 1965, 5432, 5615, 5437, 5487, 7427, 5701, 5483, 5488, 7049
5585, 2269, 2255, 6888, 6893, 2500, 7835, 7570, 7767, 8177, 7938
5586, 347, 340, 339, 6861, 5953, 2001, 2014, 8178, 8116, 8117
5587, 4112, 6095, 4118, 6841, 8179, 8180, 8181, 8182, 8184, 8183
5588, 3402, 3420, 3411, 1071, 3468, 3467, 3454, 8185, 7533, 7534
5589, 3703, 3651, 3656, 6895, 3878, 3894, 3896, 7883, 7881, 7699
5590, 3283, 3293, 3286, 1029, 3359, 3348, 3329, 8186, 7089, 7090
5591, 4679, 4678, 4665, 6851, 4784, 4706, 4819, 7825, 7357, 7680
5592, 4112, 6121, 6095, 6841, 8187, 6170, 8179, 8182, 8188, 8184
5593, 213, 122, 123, 6875, 4602, 1162, 1490, 8148, 8149, 8189
5594, 4672, 5360, 4679, 6851, 8190, 8008, 4782, 7823, 8010, 7825
5595, 3675, 3709, 3686, 6891, 3985, 3984, 3986, 7270, 7932, 7933
5596, 4959, 4664, 4698, 6815, 8191, 4753, 8145, 8192, 7499, 7500
5597, 2022, 6843, 6809, 6885, 7851, 8193, 8091, 7852, 7853, 8194
5598, 3681, 3710, 3695, 6892, 3845, 3959, 3856, 7915, 7916, 8119
5599, 2265, 524, 37, 3700, 2313, 527, 2314, 8195, 3775, 3774
5600, 6886, 6888, 2255, 6893, 8196, 7835, 8197, 8198, 7938, 8177
5601, 5965, 5967, 5969, 1950, 5995, 6039, 6038, 7021, 8199, 7020
5602, 3403, 1074, 3409, 3416, 8200, 8201, 3463, 3470, 7627, 3471
5603, 6810, 6859, 6847, 6904, 7076, 7096, 7259, 7211, 7101, 7099
5604, 5884, 1440, 5872, 1420, 7311, 7365, 5929, 7313, 4270, 8202
5605, 3410, 3419, 3402, 1072, 3466, 3465, 3457, 8203, 8205, 8204
5606, 6100, 6090, 6104, 6826, 6307, 6226, 6308, 8206, 8208, 8207
5607, 2279, 3028, 2300, 6855, 7553, 7965, 2439, 7943, 7456, 8022
5608, 4538, 4854, 4855, 6816, 8209, 4862, 7379, 8020, 7736, 7734
5609, 5973, 5962, 5956, 1948, 6016, 5989, 6017, 8210, 8212, 8211
5610, 335, 1800, 1412, 6836, 6975, 8213, 8214, 7085, 7086, 8215
5611, 462, 471, 6365, 461, 2215, 8216, 8029, 465, 2218, 7867
5612, 2855, 2854, 2845, 6830, 3012, 2989, 2937, 7546, 7305, 8217
5613, 5362, 1712, 4678, 4293, 5389, 4768, 7356, 7284, 7969, 7841
5614, 6107, 6122, 6099, 6850, 6321, 6346, 6343, 8218, 8220, 8219
5615, 329, 331, 6356, 1875, 1867, 8221, 8222, 5082, 5083, 6384
5616, 2106, 1952, 5616, 5607, 7502, 8065, 8223, 8062, 7441, 5770
5617, 6429, 6431, 6819, 6827, 6655, 7054, 7055, 7091, 7291, 8224
5618, 4889, 6834, 4887, 6883, 7390, 7796, 4916, 7642, 7643, 8225
5619, 470, 6361, 461, 6362, 7492, 7868, 2219, 8064, 6410, 7922
5620, 4889, 6810, 6883, 6904, 7388, 7208, 7642, 7827, 7211, 7212
5621, 461, 471, 6365, 470, 2218, 8216, 7867, 2219, 474, 7494
5622, 3069, 2256, 6889, 6902, 7375, 7332, 8226, 8227, 7463, 7464
5623, 4961, 6815, 4964, 6859, 8060, 8228, 4986, 7434, 8068, 7236
5624, 5790, 150, 1350, 1757, 8229, 1352, 8230, 8231, 8233, 8232
5625, 1212, 1454, 371, 372, 8234, 8235, 6800, 6803, 8236, 375
5626, 2107, 2108, 5367, 6846, 2114, 7323, 7682, 7684, 7325, 6980
5627, 1627, 6849, 6362, 6878, 7155, 7508, 6373, 8237, 8239, 8238
5628, 4892, 4886, 6838, 6884, 4948, 8013, 8088, 7688, 7686, 7294
5629, 5616, 5964, 5971, 6045, 8240, 6015, 8066, 8067, 7082, 7491
5630, 5359, 4541, 191, 4293, 6942, 4546, 7792, 7160, 7283, 4310
5631, 1417, 1400, 140, 1191, 8241, 1402, 8242, 4258, 6963, 4031
5632, 1195, 1305, 158, 1420, 6962, 1306, 4071, 4247, 8244, 8243
5633, 5367, 1951, 1950, 6852, 5407, 1957, 5408, 7470, 7755, 7471
5634, 6113, 6094, 6114, 6850, 6206, 6324, 6279, 8095, 8096, 8245
5635, 2263, 57, 89, 2283, 2365, 821, 7221, 2367, 2363, 7223
5636, 4890, 6859, 4893, 6904, 7564, 7582, 4949, 8246, 7101, 7826
5637, 6108, 6095, 6841, 6868, 6329, 8184, 8075, 7295, 7296, 8077
5638, 5597, 5959, 2088, 5595, 7218, 6009, 5761, 5727, 7350, 5763
5639, 6441, 6440, 6424, 6885, 6649, 6648, 6650, 7999, 8176, 8019
5640, 3698, 3679, 3678, 6874, 3996, 3992, 3997, 7175, 7790, 7706
5641, 979, 3285, 2859, 3279, 3321, 6917, 2953, 3317, 3322, 7023
5642, 283, 2109, 1582, 6826, 7589, 7588, 7590, 8247, 8249, 8248
5643, 3418, 3410, 3403, 1073, 3472, 3460, 3473, 8250, 8252, 8251
5644, 2297, 2278, 3072, 6863, 2463, 8253, 8036, 8037, 8121, 7288
5645, 4855, 265, 4538, 6816, 4863, 7011, 7379, 7734, 7987, 8020
5646, 3418, 3361, 1073, 6830, 8254, 8255, 8250, 8256, 8258, 8257
5647, 5437, 1437, 1417, 5615, 7119, 4284, 7121, 7049, 5675, 8259
5648, 4885, 268, 4690, 4659, 8260, 4728, 7634, 7633, 4730, 4732
5649, 4660, 4696, 4542, 6816, 4796, 7430, 7429, 7543, 7544, 8261
5650, 2279, 865, 3112, 2300, 8262, 8143, 7552, 2439, 8142, 8058
5651, 2269, 95, 2299, 6893, 7766, 7668, 2385, 7767, 7672, 7671
5652, 5272, 275, 274, 4959, 5273, 1701, 5274, 8263, 8146, 8147
5653, 6498, 6839, 6473, 6862, 7214, 7215, 6743, 7106, 8264, 7105
5654, 6812, 6825, 6139, 6858, 7980, 7978, 7975, 8265, 8267, 8266
5655, 4890, 4893, 4889, 6904, 4949, 4953, 4937, 8246, 7826, 7827
5656, 6480, 6481, 6484, 6854, 6726, 6621, 6716, 7000, 6998, 8268
5657, 461, 469, 6362, 460, 2217, 7579, 7922, 464, 2216, 8081
5658, 469, 461, 6362, 470, 2217, 7922, 7579, 473, 2219, 8064
5659, 4672, 4688, 4682, 6865, 4847, 4841, 4848, 7824, 7335, 7148
5660, 3632, 6888, 6886, 6893, 8269, 8196, 8270, 8271, 7938, 8198
5661, 614, 838, 3031, 3030, 8272, 8273, 8274, 8275, 8276, 3053
5662, 6466, 6433, 6432, 6827, 6689, 6685, 6690, 7342, 7417, 7092
5663, 5359, 5362, 5360, 6851, 5419, 5394, 5422, 6946, 6944, 8010
5664, 4889, 285, 1753, 6883, 8277, 7944, 4914, 7642, 7948, 7946
5665, 4118, 6841, 6095, 6868, 8183, 8184, 8180, 8278, 8077, 7296
5666, 6453, 6486, 6450, 6862, 6663, 6754, 6759, 8279, 7115, 8280
5667, 285, 4887, 6833, 6883, 8281, 7797, 8282, 7948, 8225, 8283
5668, 4672, 5360, 6851, 6865, 8190, 8010, 7823, 7824, 8086, 7336
5669, 5608, 5878, 5871, 5885, 8284, 5922, 8285, 8286, 5946, 5945
5670, 6431, 6443, 6819, 6827, 6686, 7126, 7054, 7291, 7416, 8224
5671, 2863, 2857, 3277, 3290, 2952, 6909, 7537, 8287, 7061, 3311
5672, 1192, 1417, 1418, 6840, 4259, 1427, 4261, 8288, 8290, 8289
5673, 4681, 4671, 4662, 6884, 4808, 4807, 4809, 6954, 7641, 7109
5674, 1966, 5599, 5620, 5432, 5706, 5707, 5703, 5486, 8292, 8291
5675, 4697, 4681, 4670, 6884, 4845, 4839, 4844, 7419, 6954, 8293
5676, 1634, 6821, 1630, 6849, 8294, 8295, 4617, 8296, 6985, 8297
5677, 3068, 6867, 2274, 6888, 8139, 8298, 8299, 8141, 7571, 8300
5678, 1753, 1752, 6043, 5791, 1759, 7025, 8301, 8302, 7220, 6940
5679, 5967, 5970, 1951, 5960, 6034, 8303, 8304, 5998, 6033, 8055
5680, 1113, 1114, 6860, 6901, 1120, 7907, 7619, 7621, 7608, 7201
5681, 3684, 3720, 3701, 6891, 3850, 4005, 4004, 8305, 8307, 8306
5682, 1927, 5284, 5283, 6815, 5288, 5293, 5292, 7555, 8309, 8308
5683, 4684, 1686, 4685, 6887, 4716, 4701, 4770, 8310, 8311, 7188
5684, 1686, 6849, 4685, 6887, 7973, 7890, 4701, 8311, 7439, 7188
5685, 5284, 1930, 5283, 6815, 5287, 5291, 5293, 8309, 8312, 8308
5686, 5602, 1800, 5881, 6836, 8313, 8314, 8315, 8316, 7086, 8317
5687, 4697, 4670, 6834, 6884, 4844, 8318, 8105, 7419, 8293, 7611
5688, 1461, 192, 1566, 4293, 1463, 4531, 4532, 4313, 4311, 8319
5689, 1839, 1704, 305, 5023, 5268, 5267, 1841, 5027, 8320, 5024
5690, 6488, 6470, 6451, 6862, 6631, 6762, 6763, 8321, 7029, 8322
5691, 2274, 6867, 2303, 6888, 8298, 7568, 2460, 8300, 7571, 7572
5692, 115, 3152, 6886, 6888, 8323, 8324, 8325, 8326, 8327, 8196
5693, 793, 3411, 2751, 3420, 7530, 7405, 2755, 7531, 3467, 7407
5694, 6429, 6478, 6434, 6854, 6657, 6677, 6676, 8328, 8330, 8329
5695, 3655, 3667, 3668, 6842, 3905, 3914, 3913, 8331, 7230, 7793
5696, 4675, 4685, 5355, 6887, 4852, 7351, 7535, 8332, 7188, 6928
5697, 5362, 4678, 4679, 6851, 7356, 4784, 8009, 6944, 7357, 7825
5698, 2298, 796, 2271, 6889, 8333, 8334, 2417, 7334, 8335, 7333
5699, 4588, 243, 1453, 6849, 4594, 8336, 8337, 8338, 8339, 7801
5700, 4894, 1781, 4130, 4136, 4922, 8340, 8110, 8341, 8343, 8342
5701, 1059, 775, 6855, 6898, 8344, 8345, 7696, 7710, 8346, 7638
5702, 3642, 3720, 3684, 6891, 3851, 3850, 3760, 8347, 8307, 8305
5703, 1072, 3365, 3419, 6837, 8348, 8349, 8205, 7509, 8351, 8350
5704, 2076, 1440, 5600, 5872, 5625, 5690, 5689, 5926, 7365, 8352
5705, 1113, 1114, 3366, 6860, 1120, 3388, 3384, 7619, 7907, 7906
5706, 3632, 109, 6867, 6893, 8353, 7759, 8354, 8271, 7760, 7761
5707, 3406, 3414, 3419, 2852, 3441, 3483, 3482, 8355, 8357, 8356
5708, 5359, 5358, 5353, 4293, 5417, 5416, 5418, 7160, 7161, 7970
5709, 6102, 6097, 6129, 6841, 6335, 6339, 6338, 8358, 8360, 8359
5710, 4667, 4679, 4665, 6851, 4820, 4819, 4817, 7679, 7825, 7680
5711, 1194, 1419, 1420, 6820, 4263, 1429, 4264, 7479, 8362, 8361
5712, 3033, 109, 95, 6867, 3036, 7757, 8363, 7728, 7759, 7758
5713, 2257, 2266, 2291, 6864, 2508, 2511, 2329, 8364, 8366, 8365
5714, 894, 3290, 796, 2857, 7366, 7307, 2762, 2911, 7061, 7308
5715, 864, 2299, 3112, 6893, 8367, 8368, 8369, 8370, 7671, 7476
5716, 1419, 289, 5611, 6820, 8371, 8372, 8373, 8362, 7751, 8374
5717, 5355, 5363, 4675, 6887, 5382, 8375, 7535, 6928, 8376, 8332
5718, 2863, 2842, 3287, 3277, 2950, 8164, 8377, 7537, 7415, 3308
5719, 1454, 1455, 5357, 5356, 1458, 7966, 8378, 7623, 7968, 5415
5720, 5284, 273, 1930, 6815, 5286, 1931, 5287, 8309, 8379, 8312
5721, 1638, 6821, 1634, 6849, 8380, 8294, 4620, 8381, 6985, 8296
5722, 5798, 2062, 5596, 5787, 7814, 5740, 7094, 5862, 7815, 7095
5723, 6108, 6095, 6121, 6841, 6329, 6170, 6309, 8075, 8184, 8188
5724, 3112, 2299, 2279, 6893, 8368, 2387, 7552, 7476, 7671, 7554
5725, 2268, 3071, 2296, 6867, 8382, 7725, 2427, 7782, 7178, 7727
5726, 4130, 6105, 4894, 6868, 8383, 8384, 8110, 8112, 8385, 8114
5727, 5870, 1803, 5875, 5883, 8386, 8387, 5912, 5940, 8039, 5941
5728, 115, 6886, 3632, 6888, 8325, 8270, 3634, 8326, 8196, 8269
5729, 6816, 6856, 4540, 6883, 7695, 8388, 8389, 7769, 7770, 8390
5730, 3070, 850, 851, 2261, 8171, 857, 8391, 8392, 8393, 7377
5731, 5607, 5587, 5606, 335, 5769, 5645, 5657, 7440, 8395, 8394
5732, 6097, 6101, 6108, 6841, 6316, 6328, 6337, 8360, 8076, 8075
5733, 1045, 3501, 3497, 3506, 8396, 3550, 7056, 7057, 3575, 3574
5734, 3113, 866, 2304, 6898, 8397, 8398, 8399, 8400, 8402, 8401
5735, 2839, 3492, 3507, 989, 7261, 3561, 7262, 2961, 8001, 8000
5736, 1113, 1114, 1046, 6867, 1120, 7622, 7620, 8403, 7605, 7179
5737, 5359, 5354, 5367, 6846, 5420, 5412, 5423, 7068, 7520, 6980
5738, 2109, 6826, 1754, 6844, 8249, 8404, 8405, 8053, 8407, 8406
5739, 5876, 1412, 5881, 4265, 6994, 8408, 5932, 6997, 4269, 7519
5740, 1642, 1646, 6821, 6849, 4626, 8409, 8410, 8411, 8412, 6985
5741, 1757, 5790, 1756, 1350, 8231, 8413, 1763, 8232, 8230, 8414
5742, 6099, 6090, 6100, 6826, 6305, 6307, 6306, 8415, 8208, 8206
5743, 2279, 2299, 95, 3028, 2387, 7668, 8416, 7553, 7670, 7669
5744, 3492, 2841, 2839, 1018, 8417, 2971, 7261, 3532, 3005, 3007
5745, 5432, 5615, 5443, 6897, 7427, 7426, 5509, 8418, 8420, 8419
5746, 1642, 6821, 1638, 6849, 8410, 8380, 4623, 8411, 6985, 8381
5747, 4692, 4884, 4693, 4676, 7713, 8421, 4795, 4849, 8422, 4804
5748, 2858, 2859, 2843, 6894, 2921, 3026, 3017, 8423, 7747, 7928
5749, 4130, 4894, 4136, 1757, 8110, 8341, 8342, 8111, 4924, 8424
5750, 5617, 5795, 1754, 6844, 6923, 7345, 7346, 8425, 8132, 8406
5751, 3115, 1056, 111, 6857, 3122, 1062, 3118, 7224, 7204, 7205
5752, 3279, 896, 798, 2859, 7249, 2769, 7251, 7023, 2919, 8426
5753, 6847, 6865, 5354, 6903, 7147, 7522, 7514, 7885, 7830, 7884
5754, 6047, 281, 5444, 336, 8427, 5448, 8428, 8429, 1960, 5449
5755, 2111, 5610, 6820, 6829, 8158, 8160, 8161, 8430, 8432, 8431
5756, 3706, 6817, 3693, 6842, 7550, 7551, 3864, 7229, 8433, 7231
5757, 1962, 5619, 5433, 6899, 5695, 7904, 5474, 8434, 8435, 7650
5758, 6810, 6856, 6834, 6883, 7724, 7768, 7392, 7208, 7770, 7643
5759, 3657, 3712, 3689, 6845, 3925, 3848, 3927, 7423, 7738, 7739
5760, 407, 416, 1834, 6849, 2175, 8436, 8437, 8438, 8439, 6984
5761, 6364, 1618, 2290, 6900, 6370, 8440, 8441, 7951, 7952, 8442
5762, 97, 2267, 3115, 6857, 8443, 7528, 8444, 7299, 7640, 7224
5763, 1114, 2842, 3366, 6901, 8165, 7861, 3388, 7608, 7865, 7863
5764, 3205, 1116, 3208, 6866, 8445, 8446, 3270, 8447, 7819, 8448
5765, 6463, 6488, 6451, 6862, 6764, 6763, 6765, 7104, 8321, 8322
5766, 3679, 3692, 3676, 6874, 3993, 3983, 3991, 7790, 8449, 7616
5767, 2260, 2272, 849, 3074, 2443, 8045, 7715, 7361, 7985, 7716
5768, 6082, 6846, 2107, 6847, 7798, 7684, 6086, 8115, 7489, 7995
5769, 4673, 6856, 6834, 6896, 7573, 7768, 7939, 8033, 7991, 8450
5770, 1927, 274, 5284, 6815, 1928, 5285, 5288, 7555, 7901, 8309
5771, 3198, 3191, 1058, 6866, 3255, 7545, 7136, 7900, 8451, 7367
5772, 3646, 3662, 3663, 6900, 3868, 3870, 3869, 8452, 8454, 8453
5773, 6082, 6847, 362, 6904, 8115, 7421, 6084, 7799, 7099, 7422
5774, 3405, 2751, 3411, 3408, 8455, 7405, 3451, 3478, 7406, 3479
5775, 1031, 3030, 614, 3031, 3065, 8275, 8456, 3062, 3053, 8274
5776, 3028, 109, 1115, 6893, 3035, 8457, 7475, 7478, 7760, 7477
5777, 6359, 2273, 2022, 6363, 8458, 7837, 6387, 6400, 7840, 6391
5778, 330, 6357, 6356, 516, 6389, 6388, 6385, 8459, 8461, 8460
5779, 4696, 4666, 4680, 6856, 4826, 4711, 4827, 7806, 7577, 8462
5780, 5598, 1577, 2108, 5429, 8156, 7324, 8463, 7014, 7317, 8464
5781, 4960, 4967, 1801, 6847, 5009, 5008, 5000, 7145, 7098, 8465
5782, 4963, 4962, 6865, 6903, 5004, 7829, 7045, 8466, 7810, 7830
5783, 3706, 6842, 3667, 6895, 7229, 7230, 3907, 7495, 8467, 7497
5784, 2111, 297, 1802, 6820, 7918, 7941, 7940, 8161, 8469, 8468
5785, 4958, 4963, 4962, 6865, 5014, 5004, 4975, 7046, 7045, 7829
5786, 135, 1300, 186, 160, 6961, 7693, 4243, 4017, 1302, 8470
5787, 2836, 964, 3198, 2840, 2944, 3229, 6988, 2945, 2942, 8471
5788, 61, 2734, 6477, 552, 8472, 8473, 6551, 554, 8474, 6553
5789, 3363, 1115, 1116, 6894, 3393, 1122, 3399, 7821, 7400, 7822
5790, 1046, 1113, 6867, 6888, 7620, 8403, 7179, 8140, 8475, 7571
5791, 4130, 4124, 6105, 6868, 8476, 8477, 8383, 8112, 8478, 8385
5792, 2255, 880, 3152, 6886, 8479, 8480, 8481, 8197, 8482, 8324
5793, 4670, 6884, 4681, 6896, 8293, 6954, 4839, 8483, 6959, 6957
5794, 3494, 110, 2851, 1047, 7505, 7857, 7848, 7166, 1054, 7858
5795, 1752, 297, 2111, 6820, 7919, 7918, 7917, 8159, 8469, 8161
5796, 3420, 3408, 2751, 2846, 3489, 7406, 7407, 8484, 8485, 7958
5797, 4124, 6128, 6105, 6868, 8486, 6176, 8477, 8478, 8487, 8385
5798, 5601, 6820, 5610, 6829, 8488, 8160, 5745, 8489, 8431, 8432
5799, 1952, 2106, 6847, 6903, 7502, 8018, 7513, 6915, 7504, 7885
5800, 2018, 2022, 6809, 6885, 5565, 8091, 8092, 8490, 7852, 8194
5801, 2260, 2262, 646, 6863, 2392, 8099, 8491, 7329, 7373, 8100
5802, 2842, 2857, 2856, 6901, 3025, 2912, 3022, 7865, 7803, 8492
5803, 1802, 2111, 362, 6904, 7940, 2118, 7565, 7164, 7996, 7422
5804, 1070, 3411, 793, 1071, 8493, 7530, 8494, 1077, 7534, 7532
5805, 6867, 6888, 3632, 6893, 7571, 8269, 8354, 7761, 7938, 8271
5806, 3362, 1117, 2854, 1056, 3401, 7304, 7172, 6937, 7303, 7173
5807, 3152, 2255, 6886, 6888, 8481, 8197, 8324, 8327, 7835, 8196
5808, 2844, 3407, 1006, 899, 8495, 3445, 2933, 2934, 7602, 2869
5809, 2111, 6043, 1752, 5610, 6081, 7025, 7917, 8158, 7024, 7026
5810, 6095, 6128, 4118, 6868, 6173, 8496, 8180, 7296, 8487, 8278
5811, 4959, 4961, 4664, 6815, 4980, 7451, 8191, 8192, 8060, 7499
5812, 341, 307, 308, 6861, 2003, 1830, 5541, 8163, 8497, 8118
5813, 237, 4666, 4665, 6856, 4710, 4709, 4703, 8498, 7577, 7578
5814, 6130, 1825, 6111, 1803, 6290, 6250, 6291, 7042, 4985, 7041
5815, 6118, 4202, 1581, 1580, 7659, 7763, 7764, 7663, 7661, 1587
5816, 6810, 6859, 6834, 6884, 7076, 7583, 7392, 7077, 7078, 7611
5817, 2843, 1115, 3363, 6894, 8499, 3393, 7926, 7928, 7400, 7821
5818, 4676, 4884, 4693, 4661, 8422, 8421, 4804, 4803, 8500, 4738
5819, 5343, 1723, 5342, 6816, 5346, 5350, 5352, 8501, 7735, 8502
5820, 6446, 6447, 6444, 6839, 6732, 6731, 6729, 7216, 7997, 7196
5821, 6418, 6484, 6481, 6828, 6619, 6621, 6514, 8503, 8504, 7412
5822, 5343, 5342, 1941, 6816, 5352, 5351, 5347, 8501, 8502, 8505
5823, 3208, 3362, 3199, 1116, 7044, 7043, 3259, 8446, 3398, 8506
5824, 2851, 2847, 1112, 6837, 2896, 8507, 8137, 8508, 8509, 7866
5825, 1117, 3114, 1056, 1057, 8510, 3141, 7303, 8511, 3140, 1063
5826, 3703, 6825, 3648, 6895, 7719, 7720, 3877, 7883, 8512, 7882
5827, 3646, 3663, 6875, 6900, 3869, 7816, 7817, 8452, 8453, 8513
5828, 347, 346, 1834, 5546, 2013, 8514, 7003, 5552, 5557, 6981
5829, 243, 4588, 1453, 244, 4594, 8337, 8336, 1607, 4595, 8515
5830, 4660, 264, 4542, 4689, 4718, 8516, 7429, 4720, 4713, 7428
5831, 85, 111, 748, 2264, 7656, 8517, 749, 7657, 7102, 8518
5832, 1581, 6114, 6100, 6850, 7647, 6347, 7646, 8519, 8245, 8520
5833, 4964, 6815, 299, 6859, 8228, 8521, 7879, 7236, 8068, 7880
5834, 1949, 5358, 1455, 5356, 5405, 8522, 8523, 5401, 5406, 7968
5835, 3288, 1033, 1115, 3281, 7157, 8524, 8525, 3305, 7158, 8526
5836, 6480, 6133, 6442, 6854, 7898, 7007, 6727, 7000, 8071, 6999
5837, 110, 2260, 646, 6863, 7326, 8491, 8527, 7331, 7329, 8100
5838, 4960, 6865, 6847, 6903, 7146, 7147, 7145, 8528, 7830, 7885
5839, 469, 478, 6355, 1491, 2221, 8529, 7580, 7581, 8530, 6375
5840, 1047, 3068, 1112, 1046, 3107, 8531, 7586, 1053, 3108, 8532
5841, 5363, 5355, 5365, 6887, 5382, 5427, 5396, 8376, 6928, 8533
5842, 4667, 4688, 4679, 6851, 4830, 4832, 4820, 7679, 7337, 7825
5843, 354, 334, 343, 6832, 5571, 2007, 2031, 8534, 8536, 8535
5844, 299, 1802, 297, 6820, 7878, 7941, 1794, 8537, 8468, 8469
5845, 2293, 3073, 647, 850, 8538, 8539, 8540, 8541, 8542, 8170
5846, 6462, 6488, 6463, 6818, 6629, 6764, 6637, 8050, 8051, 8543
5847, 2255, 2275, 6886, 6893, 2492, 8544, 8197, 8177, 8545, 8198
5848, 1057, 1117, 3114, 6893, 8511, 8510, 3140, 7632, 8547, 8546
5849, 4658, 4686, 273, 6815, 4747, 4743, 4745, 7730, 7731, 8379
5850, 238, 2109, 4544, 6883, 7466, 7704, 4565, 7404, 7275, 7403
5851, 4691, 6833, 4887, 6834, 6992, 7797, 7794, 7267, 7708, 7796
5852, 3661, 3646, 1615, 6900, 3782, 8548, 8549, 7953, 8452, 8550
5853, 5357, 4675, 1710, 4695, 7536, 4776, 5383, 7954, 4778, 4777
5854, 6433, 6443, 6827, 6839, 6687, 7416, 7417, 7194, 7195, 8551
5855, 2862, 3497, 1045, 6902, 7058, 7056, 7060, 8552, 8554, 8553
5856, 238, 1574, 4543, 6846, 1576, 4563, 4562, 7402, 7409, 6978
5857, 5607, 335, 1412, 6836, 7440, 8214, 8555, 7442, 7085, 8215
5858, 3405, 3413, 2751, 3408, 3428, 8556, 8455, 3478, 3435, 7406
5859, 3642, 3685, 3709, 6891, 3757, 3853, 3852, 8347, 7931, 7932
5860, 2273, 6495, 6439, 6363, 8557, 6550, 7838, 7840, 8558, 7839
5861, 4674, 4658, 4671, 6884, 4787, 4786, 4788, 6972, 8559, 7641
5862, 3497, 1044, 1045, 6902, 8560, 1051, 7056, 8554, 8561, 8553
5863, 7, 388, 5, 6858, 391, 2150, 396, 8562, 8564, 8563
5864, 5, 388, 379, 6858, 2150, 2151, 382, 8563, 8564, 8565
5865, 6136, 6100, 6114, 6850, 6349, 6347, 6325, 8566, 8520, 8245
5866, 5343, 265, 1723, 6816, 5345, 1724, 5346, 8501, 7987, 7735
5867, 6453, 6450, 6452, 6862, 6759, 6757, 6760, 8279, 8280, 7030
5868, 2298, 796, 6889, 6902, 8333, 8335, 7334, 7465, 8567, 7464
5869, 5798, 2110, 6043, 5791, 8568, 6079, 6939, 5845, 8569, 6940
5870, 3660, 3703, 3656, 6825, 3922, 3896, 3920, 7673, 7719, 7675
5871, 10, 6481, 6442, 6828, 6509, 6511, 6507, 8570, 7412, 7411
5872, 6109, 6098, 6103, 6826, 6232, 6340, 6342, 8571, 8573, 8572
5873, 3668, 3667, 3707, 6842, 3914, 3887, 3949, 7793, 7230, 7182
5874, 3648, 6817, 3647, 6895, 7278, 7279, 3866, 7882, 8574, 7902
5875, 4292, 4291, 1453, 6824, 4333, 4308, 4318, 8575, 8576, 7888
5876, 1593, 6125, 6118, 1580, 6276, 6212, 6281, 4587, 7662, 7663
5877, 2268, 95, 2269, 6867, 7779, 7766, 2383, 7782, 7758, 7569
5878, 6426, 6478, 6429, 6854, 6658, 6657, 6653, 8577, 8330, 8328
5879, 1802, 5874, 5882, 5870, 8578, 5938, 8579, 8580, 5909, 5939
5880, 646, 647, 1042, 794, 652, 7733, 7732, 8581, 8583, 8582
5881, 5784, 356, 5586, 5794, 5801, 5634, 7487, 5810, 5808, 7485
5882, 5881, 5602, 5873, 4265, 8315, 8584, 5951, 7519, 7956, 7518
5883, 3683, 3713, 3691, 6831, 3891, 3802, 3977, 8585, 8587, 8586
5884, 3496, 3501, 1046, 3507, 3553, 8588, 8589, 3571, 3572, 8590
5885, 2261, 2290, 6360, 2286, 2524, 8591, 8592, 2446, 2411, 8593
5886, 6360, 215, 6358, 2286, 6377, 6378, 6380, 8593, 8595, 8594
5887, 3418, 1073, 3403, 6830, 8250, 8251, 3473, 8256, 8257, 8596
5888, 5022, 1834, 5021, 6823, 5048, 5041, 5065, 8597, 7227, 7226
5889, 3696, 1615, 3646, 6875, 8598, 8548, 3787, 7818, 8599, 7817
5890, 1581, 6100, 6104, 6826, 7646, 6308, 7648, 8600, 8206, 8207
5891, 5363, 1944, 1832, 5365, 5372, 8601, 8602, 5396, 5377, 8603
5892, 646, 2260, 110, 3074, 8491, 7326, 8527, 8604, 7361, 3077
5893, 1057, 1115, 1116, 6893, 7398, 1122, 7877, 7632, 7477, 8605
5894, 1951, 2106, 2107, 6847, 8017, 2113, 7683, 7512, 8018, 7995
5895, 648, 3069, 2256, 2261, 8606, 7375, 8607, 8608, 7378, 2450
5896, 343, 327, 342, 6832, 5545, 5544, 2006, 8535, 8610, 8609
5897, 2838, 2840, 3205, 963, 2943, 8611, 7240, 2939, 2941, 3225
5898, 6441, 6496, 6476, 6885, 6679, 6723, 6719, 7999, 7364, 7247
5899, 2270, 2262, 878, 6863, 2484, 8612, 7784, 7372, 7373, 7787
5900, 1032, 3027, 6855, 6864, 3067, 8157, 8061, 8613, 8615, 8614
5901, 2268, 853, 3071, 6867, 8616, 8617, 8382, 7782, 8618, 7178
5902, 4686, 6815, 4674, 6838, 7731, 7729, 4790, 7705, 8069, 7293
5903, 6815, 6859, 4961, 6884, 8068, 7434, 8060, 8021, 7078, 7062
5904, 5367, 5354, 1951, 6846, 5412, 5411, 5407, 6980, 7520, 7617
5905, 4887, 4659, 4885, 6833, 7795, 7633, 4910, 7797, 6993, 7635
5906, 1114, 3632, 109, 6867, 3637, 8353, 8619, 7605, 8354, 7759
5907, 6101, 6841, 6820, 6868, 8076, 8620, 7777, 7297, 8077, 7484
5908, 5432, 5443, 5435, 6897, 5509, 5501, 5508, 8418, 8419, 8621
5909, 6810, 6856, 6851, 6896, 7724, 7681, 7722, 7112, 7991, 7338
5910, 97, 2285, 2267, 6857, 7435, 2401, 8443, 7299, 7152, 7640
5911, 3155, 3154, 1071, 6863, 3170, 3184, 3181, 7786, 7289, 7450
5912, 2261, 6360, 648, 2286, 8592, 6407, 8608, 2446, 8593, 8622
5913, 1046, 3068, 1112, 6888, 3108, 8531, 8532, 8140, 8141, 7678
5914, 6447, 6448, 6449, 6862, 6739, 6745, 6744, 8623, 8624, 7113
5915, 115, 3152, 1073, 6886, 8323, 3185, 8625, 8325, 8324, 7462
5916, 5970, 2107, 5960, 6045, 8626, 8627, 6033, 7081, 6063, 7080
5917, 327, 343, 334, 6832, 5545, 2007, 1871, 8610, 8535, 8536
5918, 6490, 6470, 6420, 6843, 6633, 6632, 6627, 8628, 8630, 8629
5919, 2299, 864, 3112, 2279, 8367, 8369, 8368, 2387, 8631, 7552
5920, 1755, 4160, 6127, 6126, 8632, 8633, 8131, 8634, 8635, 6188
5921, 1781, 4130, 6105, 4894, 8340, 8383, 6179, 4922, 8110, 8384
5922, 97, 3115, 111, 6857, 8444, 3118, 7103, 7299, 7224, 7205
5923, 1400, 4202, 139, 1580, 4205, 4204, 1401, 8636, 7661, 8637
5924, 2282, 646, 2260, 2262, 8098, 8491, 2521, 2522, 8099, 2392
5925, 801, 3409, 1075, 1074, 8638, 8639, 8640, 8641, 8201, 1081
5926, 5599, 2109, 6042, 6897, 8642, 6073, 7981, 7982, 8054, 7598
5927, 1577, 5598, 6890, 6899, 8156, 8643, 7667, 8059, 7959, 8644
5928, 6810, 6884, 6834, 6896, 7077, 7611, 7392, 7112, 6959, 8450
5929, 2841, 3504, 2837, 1017, 8645, 8646, 3006, 3004, 3527, 3003
5930, 4696, 6816, 4687, 6856, 7544, 7542, 4797, 7806, 7695, 7805
5931, 1190, 1416, 1405, 138, 4255, 8647, 6960, 4026, 8648, 1406
5932, 4674, 6815, 4658, 6884, 7729, 7730, 4787, 6972, 8021, 8559
5933, 2277, 2256, 2271, 6889, 2454, 2507, 2431, 8124, 7332, 7333
5934, 4130, 1340, 152, 6868, 4133, 1342, 4134, 8112, 8650, 8649
5935, 6046, 2108, 5589, 6890, 6068, 8651, 8652, 8653, 7666, 8654
5936, 3153, 2267, 881, 6857, 7525, 8655, 8656, 7225, 7640, 8657
5937, 3672, 3673, 3674, 6848, 3965, 3970, 3969, 8658, 7384, 7382
5938, 280, 6816, 4540, 6883, 8659, 8389, 8660, 8661, 7769, 8390
5939, 6834, 6884, 4670, 6896, 7611, 8293, 8318, 8450, 6959, 8483
5940, 3685, 3643, 3686, 6835, 3754, 3858, 3857, 8662, 8664, 8663
5941, 1832, 1833, 5363, 5365, 1836, 8665, 8602, 8603, 8666, 5396
5942, 328, 342, 327, 6832, 2005, 5544, 1861, 8667, 8609, 8610
5943, 3155, 878, 3154, 6863, 7785, 8668, 3170, 7786, 7787, 7289
5944, 6470, 6490, 6455, 6843, 6633, 6781, 6771, 8630, 8628, 8669
5945, 6046, 5589, 6852, 6890, 8652, 8670, 8671, 8653, 8654, 7472
5946, 245, 6139, 244, 6812, 7977, 8672, 1608, 7976, 7975, 8673
5947, 3666, 3703, 3660, 6825, 3934, 3922, 3935, 8674, 7719, 7673
5948, 6109, 6103, 6110, 6840, 6342, 6352, 6284, 8675, 7653, 8676
5949, 763, 49, 867, 3109, 2677, 8677, 8678, 8679, 8681, 8680
5950, 3655, 3668, 3669, 6892, 3913, 3916, 3915, 8682, 7832, 7833
5951, 3028, 3027, 840, 6855, 3057, 8683, 7964, 7456, 8157, 8023
5952, 4673, 4670, 4668, 6896, 4835, 4834, 4836, 8033, 8483, 8034
5953, 3679, 3676, 3678, 6874, 3991, 3989, 3992, 7790, 7616, 7706
5954, 1117, 6886, 3114, 6893, 7354, 8684, 8510, 8547, 8198, 8546
5955, 6110, 6131, 4172, 6840, 6194, 8685, 8686, 8676, 7742, 8687
5956, 299, 1803, 1802, 6820, 8688, 1809, 7878, 8537, 7846, 8468
5957, 2257, 6855, 2266, 6864, 7234, 8689, 2508, 8364, 8614, 8366
5958, 850, 647, 2293, 2286, 8170, 8540, 8541, 8173, 8174, 2410
5959, 1454, 1462, 1453, 4685, 4332, 4317, 1457, 7624, 8690, 7889
5960, 3632, 6867, 1113, 6888, 8354, 8403, 3636, 8269, 7571, 8475
5961, 6817, 6808, 6842, 6895, 8691, 8692, 8433, 8574, 8693, 8467
5962, 2109, 2110, 6883, 6904, 2116, 8694, 7275, 7277, 8695, 7212
5963, 751, 2276, 52, 3110, 8696, 2350, 2680, 8697, 7017, 8698
5964, 4887, 285, 4889, 6883, 8281, 8277, 4916, 8225, 7948, 7642
5965, 266, 5343, 1941, 6816, 5344, 5347, 1942, 8699, 8501, 8505
5966, 2263, 89, 736, 3150, 7221, 737, 8700, 7130, 7222, 8701
5967, 1618, 517, 2290, 6900, 8702, 2305, 8440, 7952, 8703, 8442
5968, 3648, 6825, 6817, 6895, 7720, 8704, 7278, 7882, 8512, 8574
5969, 6421, 6462, 6463, 6818, 6532, 6637, 6636, 8705, 8050, 8543
5970, 140, 4202, 1400, 1581, 4206, 4205, 1402, 8706, 7763, 8707
5971, 1948, 1187, 1414, 1413, 8708, 4251, 8709, 8710, 4250, 1423
5972, 4673, 4692, 4676, 6834, 4850, 4849, 4843, 7939, 7268, 7609
5973, 334, 354, 333, 6832, 5571, 2029, 1870, 8536, 8534, 8711
5974, 2272, 2260, 646, 3074, 2443, 8491, 8712, 7985, 7361, 8604
5975, 2293, 3073, 2272, 6357, 8538, 7983, 2408, 8713, 7124, 7984
5976, 4202, 1400, 1581, 1580, 4205, 8707, 7763, 7661, 8636, 1587
5977, 5271, 4959, 5272, 6815, 8714, 8263, 5282, 7557, 8192, 7556
5978, 760, 50, 49, 3109, 2681, 540, 2682, 8715, 8716, 8681
5979, 373, 1211, 372, 6887, 6796, 6804, 376, 8717, 8719, 8718
5980, 5882, 6041, 1802, 6829, 8720, 8721, 8579, 8722, 8724, 8723
5981, 1114, 1028, 2842, 6901, 7604, 7414, 8165, 7608, 7607, 7865
5982, 2843, 3285, 2864, 3281, 7110, 7281, 2959, 7168, 3323, 8162
5983, 2273, 2022, 515, 6359, 7837, 8725, 2309, 8458, 6387, 8726
5984, 3069, 648, 2256, 6902, 8606, 8607, 7375, 8227, 8727, 7463
5985, 1833, 5363, 5365, 6887, 8665, 5396, 8666, 8728, 8376, 8533
5986, 273, 5284, 274, 6815, 5286, 5285, 1700, 8379, 8309, 7901
5987, 4890, 4886, 4893, 6859, 4930, 4950, 4949, 7564, 7961, 7582
5988, 2268, 2296, 3071, 853, 2427, 7725, 8382, 8616, 8729, 8617
5989, 2288, 2266, 2257, 6855, 2509, 2508, 2510, 7232, 8689, 7234
5990, 271, 5306, 272, 6838, 5308, 5307, 1698, 8730, 8732, 8731
5991, 4697, 4670, 4676, 6834, 4844, 4842, 4805, 8105, 8318, 7609
5992, 1752, 289, 4891, 6820, 1758, 4917, 4923, 8159, 7751, 7778
5993, 6817, 6825, 6808, 6895, 8704, 8733, 8691, 8574, 8512, 8693
5994, 1033, 1115, 2843, 6894, 8524, 8499, 7397, 7745, 7400, 7928
5995, 3112, 3111, 1058, 6855, 3132, 3145, 3142, 7457, 7697, 7698
5996, 1803, 6102, 6130, 6882, 7040, 6350, 7042, 8734, 8736, 8735
5997, 2842, 1028, 1114, 3280, 7414, 7604, 8165, 8168, 7380, 8167
5998, 6122, 6840, 6099, 6850, 7654, 7655, 6346, 8220, 8737, 8219
5999, 2843, 1115, 1033, 3281, 8499, 8524, 7397, 7168, 8526, 7158
6000, 215, 6355, 6358, 516, 6374, 6379, 6378, 8738, 8740, 8739
6001, 271, 272, 4694, 6838, 1698, 4740, 4739, 8730, 8731, 7292
6002, 2256, 852, 3069, 6889, 8741, 8742, 7375, 7332, 8743, 8226
6003, 6440, 6439, 6424, 6885, 6647, 6591, 6648, 8176, 7854, 8019
6004, 2297, 854, 3072, 2278, 8744, 8745, 8036, 2463, 8746, 8253
6005, 2849, 1115, 2843, 3281, 8747, 8499, 2957, 8748, 8526, 7168
6006, 3674, 6874, 3676, 6891, 7615, 7616, 3979, 7269, 8749, 7271
6007, 627, 614, 657, 67, 8750, 2620, 2534, 2533, 615, 658
6008, 70, 730, 92, 720, 8751, 732, 2545, 2544, 2599, 722
6009, 733, 632, 90, 717, 8752, 2589, 734, 2600, 2590, 718
6010, 790, 660, 72, 628, 2619, 662, 792, 8753, 2537, 2549
6011, 628, 781, 669, 74, 8754, 2616, 2554, 2553, 782, 670
6012, 86, 705, 745, 631, 706, 2604, 746, 2580, 2581, 8755
6013, 742, 632, 708, 88, 8756, 2584, 2603, 744, 2585, 710
6014, 76, 629, 778, 672, 2558, 8757, 780, 674, 2557, 2615
6015, 630, 757, 693, 82, 8758, 2608, 2572, 2571, 758, 694
6016, 630, 766, 80, 684, 8759, 768, 2567, 2566, 2611, 686
6017, 1211, 5365, 136, 1947, 8760, 8761, 1213, 8762, 5378, 8763
6018, 245, 6808, 6817, 6825, 8764, 8691, 8765, 7979, 8733, 8704
6019, 4687, 4660, 265, 6816, 4723, 4719, 4721, 7542, 7543, 7987
6020, 1802, 6820, 1803, 6829, 8468, 7846, 1809, 8723, 8431, 8042
6021, 5364, 5366, 1944, 5023, 5397, 5373, 5374, 8175, 7808, 8766
6022, 2267, 2295, 863, 3115, 2467, 8767, 8768, 7528, 7527, 8769
6023, 795, 648, 647, 1043, 8770, 653, 8771, 8772, 8774, 8773
6024, 3698, 6874, 3663, 6900, 7175, 7176, 3938, 8775, 8776, 8453
6025, 5353, 1461, 1455, 5357, 8777, 4335, 7967, 5388, 8778, 7966
6026, 1802, 2111, 6820, 6829, 7940, 8161, 8468, 8723, 8430, 8431
6027, 6486, 6427, 6469, 6832, 6664, 6571, 6665, 8779, 8781, 8780
6028, 1112, 2847, 2851, 2860, 8507, 2896, 8137, 8138, 2966, 3014
6029, 5603, 2106, 5616, 5607, 8782, 8223, 5722, 5652, 8062, 5770
6030, 2290, 1618, 6364, 6360, 8440, 6370, 8441, 8591, 6376, 6408
6031, 6107, 6099, 6100, 6850, 6343, 6306, 6344, 8218, 8219, 8520
6032, 146, 4166, 1370, 1755, 4170, 4169, 1372, 8783, 8129, 8784
6033, 329, 330, 515, 2022, 1866, 8785, 8786, 5564, 2023, 8725
6034, 219, 215, 1618, 517, 1501, 1620, 4605, 8787, 8788, 8702
6035, 6849, 6877, 4291, 6879, 8789, 8790, 7800, 8791, 8793, 8792
6036, 6454, 6485, 6453, 6832, 6773, 6772, 6767, 8794, 8796, 8795
6037, 1033, 3027, 3028, 6855, 3066, 3057, 3041, 7912, 8157, 7456
6038, 470, 480, 6356, 479, 2226, 8797, 7493, 2224, 483, 8798
6039, 6102, 6129, 6130, 6882, 6338, 6351, 6350, 8736, 8799, 8735
6040, 2267, 3153, 881, 2295, 7525, 8656, 8655, 2467, 7526, 8800
6041, 2842, 1114, 2848, 3287, 8165, 8801, 2948, 8164, 8166, 8802
6042, 6099, 6103, 6098, 6826, 6341, 6340, 6304, 8415, 8572, 8573
6043, 2296, 835, 3033, 6889, 8803, 8804, 7726, 7855, 8805, 7320
6044, 840, 2279, 95, 3028, 7963, 8416, 847, 7964, 7553, 7669
6045, 295, 4891, 6092, 6820, 8806, 7117, 6242, 8807, 7778, 7776
6046, 335, 1412, 1800, 1832, 8214, 8213, 6975, 7468, 8808, 7467
6047, 3027, 2266, 840, 6855, 8809, 8810, 8683, 8157, 8689, 8023
6048, 5435, 5443, 1581, 6897, 5501, 8811, 8812, 8621, 8419, 8813
6049, 3290, 3277, 2863, 976, 3311, 7537, 8287, 3310, 3306, 2947
6050, 3073, 1042, 6357, 647, 3100, 7123, 7124, 8539, 7733, 6397
6051, 2257, 2291, 42, 6864, 2329, 2325, 2327, 8364, 8365, 8814
6052, 6045, 5970, 2059, 5595, 7081, 8815, 6056, 7639, 7349, 5717
6053, 3364, 2839, 3507, 989, 7599, 7262, 7198, 3376, 2961, 8000
6054, 3111, 6855, 2294, 6898, 7697, 8816, 8817, 7711, 7638, 8818
6055, 3366, 2833, 6860, 6901, 7862, 8819, 7906, 7863, 7864, 7201
6056, 189, 188, 125, 6831, 1451, 1485, 4338, 8820, 7895, 7896
6057, 3656, 3657, 6845, 6895, 3910, 7423, 7424, 7699, 7272, 8821
6058, 4962, 4683, 5366, 5023, 8822, 8823, 7809, 7807, 8824, 7808
6059, 2282, 793, 646, 6863, 8136, 8825, 8098, 7371, 8135, 8100
6060, 881, 2280, 3150, 6857, 8826, 7131, 8827, 8657, 7138, 7139
6061, 2304, 46, 3113, 6898, 2339, 8828, 8399, 8401, 8829, 8400
6062, 163, 2119, 1812, 4966, 2122, 6152, 6151, 8830, 8831, 4991
6063, 5617, 5614, 5588, 6844, 5679, 5774, 5771, 8425, 8832, 7595
6064, 1058, 2861, 6866, 6894, 7137, 7899, 7367, 7185, 8833, 7369
6065, 3686, 3695, 3718, 6848, 3859, 3964, 3987, 8834, 8836, 8835
6066, 3675, 3672, 3674, 6848, 3971, 3969, 3972, 8837, 8658, 7382
6067, 2106, 5607, 5603, 6836, 8062, 5652, 8782, 7503, 7442, 8838
6068, 4154, 1755, 1756, 6126, 8839, 1762, 8840, 8841, 8634, 8842
6069, 1117, 1056, 3114, 6886, 7303, 3141, 8510, 7354, 7073, 8684
6070, 2263, 736, 58, 3150, 8700, 2659, 2366, 7130, 8701, 8843
6071, 4884, 4659, 4887, 6834, 7712, 7795, 4946, 7714, 7266, 7796
6072, 1212, 1949, 137, 5356, 8844, 8845, 1215, 7876, 5401, 8846
6073, 5871, 362, 5608, 5885, 8847, 8848, 8285, 5945, 8849, 8286
6074, 163, 1812, 302, 4966, 6151, 1813, 6148, 8830, 4991, 4990
6075, 3632, 1115, 109, 6893, 3638, 8457, 8353, 8271, 7477, 7760
6076, 6484, 6437, 6438, 6854, 6710, 6701, 6711, 8268, 8851, 8850
6077, 6825, 6845, 6812, 6895, 8852, 8853, 7980, 8512, 8821, 8854
6078, 215, 6360, 517, 2286, 6377, 8855, 8788, 8595, 8593, 2407
6079, 6475, 6485, 6430, 6832, 6682, 6681, 6598, 8856, 8796, 8857
6080, 130, 6116, 246, 5068, 6141, 6140, 1863, 5070, 8858, 5072
6081, 6099, 6098, 6090, 6826, 6304, 6229, 6305, 8415, 8573, 8208
6082, 3072, 2278, 96, 6863, 8253, 8859, 8860, 7288, 8121, 7330
6083, 799, 2861, 1058, 6894, 8861, 7137, 8862, 8863, 8833, 7185
6084, 2294, 6855, 2288, 6898, 8816, 7232, 2519, 8818, 7638, 7636
6085, 1045, 6860, 2862, 6901, 7200, 7870, 7060, 7132, 7201, 8864
6086, 3692, 3675, 3676, 6891, 3982, 3978, 3983, 8865, 7270, 7271
6087, 3507, 3496, 3364, 1113, 3571, 6949, 7198, 8866, 8867, 3383
6088, 4676, 4670, 4673, 6834, 4842, 4835, 4843, 7609, 8318, 7939
6089, 13, 6812, 11, 6876, 8868, 8869, 423, 8870, 8872, 8871
6090, 2294, 2300, 2288, 6855, 2476, 2525, 2519, 8816, 8022, 7232
6091, 4679, 1713, 5362, 5360, 4783, 5390, 8009, 8008, 5392, 5394
6092, 3112, 865, 3111, 6855, 8143, 8873, 3132, 7457, 8144, 7697
6093, 3692, 3679, 3701, 6891, 3993, 4000, 3999, 8865, 8874, 8306
6094, 5439, 2108, 1577, 5429, 8875, 7324, 7315, 5453, 8464, 7317
6095, 1072, 3419, 3402, 6837, 8205, 3465, 8204, 7509, 8350, 8876
6096, 3406, 3419, 115, 2852, 3482, 8877, 8878, 8355, 8356, 8879
6097, 215, 6355, 516, 517, 6374, 8740, 8738, 8788, 8880, 520
6098, 1753, 6883, 2110, 6904, 7946, 8694, 8881, 8882, 7212, 8695
6099, 3713, 6831, 3683, 6842, 8587, 8585, 3891, 6905, 8883, 6907
6100, 4884, 4676, 4692, 6834, 8422, 4849, 7713, 7714, 7609, 7268
6101, 5879, 4265, 5869, 186, 6996, 7600, 5893, 8884, 4267, 7445
6102, 451, 461, 189, 460, 2211, 8089, 8885, 2208, 464, 8886
6103, 451, 461, 452, 189, 2211, 2210, 455, 8885, 8089, 7871
6104, 5605, 6047, 2109, 5444, 8887, 6074, 8888, 8889, 8428, 8890
6105, 6437, 6434, 6438, 6854, 6700, 6702, 6701, 8851, 8329, 8850
6106, 2258, 2280, 2285, 6857, 2513, 2516, 2515, 7436, 7138, 7152
6107, 4888, 4661, 4892, 6838, 7844, 7986, 4905, 7847, 7396, 8088
6108, 3114, 3112, 1057, 6893, 3129, 3143, 3140, 8546, 7476, 7632
6109, 3154, 878, 2278, 6863, 8668, 8891, 8120, 7289, 7787, 8121
6110, 4889, 6883, 1753, 6904, 7642, 7946, 4914, 7827, 7212, 8882
6111, 3683, 3691, 3673, 6831, 3977, 3976, 3967, 8585, 8586, 8892
6112, 268, 4690, 267, 6833, 4728, 4727, 1694, 8893, 6991, 8894
6113, 4291, 1453, 6824, 6849, 4308, 7888, 8576, 7800, 7801, 7891
6114, 645, 1070, 3155, 3156, 8895, 3182, 7989, 7990, 3163, 3167
6115, 3111, 865, 2294, 6855, 8873, 8896, 8817, 7697, 8144, 8816
6116, 3500, 2839, 3364, 2860, 7260, 7599, 6947, 7517, 2963, 7516
6117, 4660, 264, 4538, 4542, 4718, 7009, 7010, 7429, 8516, 4581
6118, 5960, 2107, 1951, 6045, 8627, 7683, 8055, 7080, 6063, 8056
6119, 742, 88, 2258, 6857, 744, 8897, 8898, 8899, 8900, 7436
6120, 1714, 5366, 4683, 5023, 5370, 8823, 4772, 8901, 7808, 8824
6121, 5357, 1711, 1461, 4695, 5384, 8902, 8778, 7954, 4767, 8903
6122, 1461, 1454, 5357, 4695, 4334, 8378, 8778, 8903, 8904, 7954
6123, 3710, 3641, 3712, 6892, 3846, 3847, 3849, 7916, 7914, 8007
6124, 3700, 66, 37, 3031, 3773, 609, 3774, 8905, 8907, 8906
6125, 1412, 5881, 5602, 1800, 8408, 8315, 8908, 8213, 8314, 8313
6126, 5361, 1211, 5365, 6887, 8909, 8760, 5400, 7083, 8719, 8533
6127, 2864, 3285, 2859, 979, 7281, 6917, 2956, 2954, 3321, 2953
6128, 1950, 1414, 1949, 6890, 8910, 8911, 1956, 7141, 8913, 8912
6129, 1577, 5598, 2108, 6890, 8156, 8463, 7324, 7667, 8643, 7666
6130, 443, 442, 452, 6849, 446, 2204, 2203, 8914, 8915, 7302
6131, 452, 442, 451, 6849, 2204, 2202, 455, 7302, 8915, 8916
6132, 4677, 4687, 6816, 6856, 4814, 7542, 7264, 7574, 7805, 7695
6133, 49, 760, 3109, 81, 2682, 8715, 8681, 830, 761, 8917
6134, 3716, 6364, 2298, 2290, 8918, 8919, 8920, 8921, 8441, 2414
6135, 389, 397, 1453, 388, 2161, 8922, 8923, 392, 2158, 8924
6136, 397, 389, 1453, 398, 2161, 8923, 8922, 401, 2163, 8925
6137, 5969, 1950, 5967, 6852, 7020, 8199, 6039, 7753, 7471, 8926
6138, 5598, 5589, 2108, 6890, 5730, 8651, 8463, 8643, 8654, 7666
6139, 760, 50, 3109, 82, 2681, 8716, 8715, 762, 832, 8927
6140, 295, 1752, 4891, 6820, 7561, 4923, 8806, 8807, 8159, 7778
6141, 264, 241, 4538, 1602, 1722, 4578, 7009, 4853, 1603, 4579
6142, 2255, 2269, 2275, 6893, 2500, 2501, 2492, 8177, 7767, 8545
6143, 1658, 6877, 6849, 6879, 8928, 8789, 7909, 8929, 8793, 8791
6144, 2256, 648, 2298, 6902, 8607, 8930, 2505, 7463, 8727, 7465
6145, 3071, 852, 2296, 6889, 8931, 8932, 7725, 7319, 8743, 7855
6146, 4960, 6847, 1801, 6903, 7145, 8465, 5000, 8528, 7885, 7937
6147, 87, 742, 2258, 6857, 743, 8898, 8933, 8934, 8899, 7436
6148, 5970, 2059, 5597, 6852, 8815, 5725, 7538, 7539, 8935, 7541
6149, 4696, 4680, 4542, 6856, 4827, 8048, 7430, 7806, 8462, 8936
6150, 274, 5272, 4959, 6815, 5274, 8263, 8147, 7901, 7556, 8192
6151, 3029, 2265, 524, 2271, 7771, 2313, 8937, 7775, 2416, 2415
6152, 191, 6123, 1578, 6890, 6215, 8938, 4547, 7748, 8940, 8939
6153, 6445, 6433, 6827, 6839, 6697, 7417, 7856, 7387, 7194, 8551
6154, 3658, 6116, 5068, 6825, 8941, 8858, 8942, 7721, 8944, 8943
6155, 6136, 6114, 6094, 6850, 6325, 6324, 6326, 8566, 8245, 8096
6156, 6115, 4106, 4100, 6841, 8945, 8946, 8947, 8948, 8950, 8949
6157, 3363, 6866, 2832, 6894, 7820, 8951, 7927, 7821, 7369, 7929
6158, 5798, 5783, 1753, 5791, 5846, 8952, 8953, 5845, 5816, 8302
6159, 6360, 2290, 1618, 517, 8591, 8440, 6376, 8855, 2305, 8702
6160, 2860, 1112, 3364, 1047, 8138, 3379, 7516, 8087, 7586, 7408
6161, 4888, 271, 4694, 6838, 7842, 4739, 7843, 7847, 8730, 7292
6162, 2852, 3419, 3365, 6837, 8356, 8349, 8954, 8955, 8350, 8351
6163, 4142, 1350, 1757, 4895, 4145, 8232, 8956, 8957, 8958, 4941
6164, 3506, 3507, 3492, 6860, 3564, 3561, 3562, 7869, 8002, 8003
6165, 1117, 3632, 115, 6886, 3635, 3634, 1124, 7354, 8270, 8325
6166, 6045, 5616, 5964, 5595, 8067, 8240, 7082, 7639, 5719, 7348
6167, 4958, 4664, 4959, 4961, 7452, 8191, 4972, 5013, 7451, 4980
6168, 864, 3112, 3114, 6893, 8369, 3129, 8959, 8370, 7476, 8546
6169, 1574, 4540, 6856, 6883, 4570, 8388, 7723, 7410, 8390, 7770
6170, 3494, 2851, 110, 2850, 7848, 7857, 7505, 7084, 2901, 7065
6171, 6808, 6892, 6842, 6895, 8960, 8961, 8692, 8693, 8962, 8467
6172, 5358, 5353, 1455, 5356, 5416, 7967, 8522, 5406, 5414, 7968
6173, 268, 267, 5320, 6833, 1694, 5322, 5321, 8893, 8894, 8963
6174, 154, 4112, 4118, 6841, 4114, 8181, 4122, 8964, 8182, 8183
6175, 6819, 6827, 6443, 6839, 8224, 7416, 7126, 8965, 8551, 7195
6176, 3703, 3665, 3658, 6825, 3929, 3819, 3879, 7719, 8966, 7721
6177, 4884, 269, 4693, 270, 4897, 4733, 8421, 4896, 1696, 4734
6178, 330, 2272, 515, 6359, 8967, 2403, 8785, 6386, 8968, 8726
6179, 990, 2833, 3366, 2842, 2968, 7862, 3380, 2975, 2974, 7861
6180, 3363, 991, 2843, 2832, 3391, 2978, 7926, 7927, 2976, 2979
6181, 5599, 5588, 6042, 2061, 5735, 7593, 7981, 5734, 5732, 6071
6182, 6093, 4178, 6840, 6850, 7740, 7743, 7744, 8969, 8970, 8737
6183, 5433, 5619, 5598, 6899, 7904, 5698, 7012, 7650, 8435, 7959
6184, 3501, 3506, 1045, 6860, 3575, 7057, 8396, 8971, 7869, 7200
6185, 3412, 2853, 3418, 6830, 8972, 8973, 3480, 8974, 8975, 8256
6186, 5599, 1966, 5444, 5432, 5706, 5456, 8976, 8292, 5486, 5489
6187, 3698, 3663, 3662, 6900, 3938, 3870, 3939, 8775, 8453, 8454
6188, 793, 6837, 2851, 6863, 8977, 8508, 8978, 8135, 7511, 7859
6189, 3686, 3718, 3675, 6848, 3987, 3973, 3986, 8834, 8835, 8837
6190, 2259, 2287, 44, 6898, 2335, 2331, 2333, 7960, 7637, 8979
6191, 2282, 553, 2273, 6494, 2419, 2310, 2423, 8980, 6603, 8981
6192, 3407, 3412, 3416, 2844, 3447, 3486, 3485, 8495, 8982, 7626
6193, 4885, 4887, 4884, 4659, 4910, 4946, 4900, 7633, 7795, 7712
6194, 6093, 6122, 6107, 6850, 6322, 6321, 6320, 8969, 8220, 8218
6195, 840, 2266, 2300, 6855, 8810, 2438, 7962, 8023, 8689, 8022
6196, 1834, 408, 417, 416, 8983, 2174, 8984, 8436, 2177, 420
6197, 408, 1834, 407, 416, 8983, 8437, 411, 2177, 8436, 2175
6198, 3497, 2837, 3498, 795, 8985, 8986, 3556, 8987, 8989, 8988
6199, 2262, 2278, 878, 6863, 2394, 8891, 8612, 7373, 8121, 7787
6200, 1755, 1360, 4154, 1756, 8990, 4157, 8839, 1762, 8991, 8840
6201, 5615, 5620, 5432, 1965, 5704, 8291, 7427, 5701, 5702, 5487
6202, 1582, 6826, 2109, 6897, 8248, 8249, 7588, 8992, 8993, 8054
6203, 3109, 757, 51, 3110, 8994, 2685, 8995, 3139, 8997, 8996
6204, 3205, 2838, 3362, 992, 7240, 7454, 7473, 8998, 2981, 3396
6205, 237, 4665, 1574, 6856, 4703, 7845, 1575, 8498, 7578, 7723
6206, 801, 2855, 6830, 6857, 8999, 7546, 9000, 9001, 7548, 7206
6207, 2119, 163, 6468, 4966, 2122, 6559, 6560, 8831, 8830, 9002
6208, 3651, 3647, 3653, 6895, 3873, 3875, 3874, 7881, 7902, 7496
6209, 273, 5295, 1930, 6838, 5296, 5299, 1931, 9003, 9005, 9004
6210, 5343, 266, 265, 6816, 5344, 1692, 5345, 8501, 8699, 7987
6211, 2293, 3073, 849, 2272, 8538, 8044, 9006, 2408, 7983, 8045
6212, 1046, 1112, 1113, 6888, 8532, 1119, 7620, 8140, 7678, 8475
6213, 6358, 648, 6360, 2286, 6402, 6407, 6380, 8594, 8622, 8593
6214, 1072, 115, 3419, 3365, 9007, 8877, 8205, 8348, 3371, 8349
6215, 6834, 6856, 6810, 6896, 7768, 7724, 7392, 8450, 7991, 7112
6216, 6477, 877, 3156, 552, 9008, 7035, 9009, 6553, 8024, 8025
6217, 3664, 3680, 3687, 6858, 3730, 3836, 3944, 9010, 9012, 9011
6218, 4667, 4668, 4669, 6896, 4821, 4829, 4828, 7612, 8034, 7169
6219, 3361, 115, 3418, 1073, 3368, 9013, 8254, 8255, 8625, 8250
6220, 4962, 5366, 4683, 6865, 7809, 8823, 8822, 7829, 7828, 9014
6221, 6102, 6820, 6097, 6841, 7038, 7603, 6335, 8358, 8620, 8360
6222, 66, 610, 37, 3031, 611, 2527, 609, 8907, 9015, 8906
6223, 2022, 330, 515, 6359, 2023, 8785, 8725, 6387, 6386, 8726
6224, 6476, 6440, 6441, 6885, 6718, 6649, 6719, 7247, 8176, 7999
6225, 727, 112, 98, 3151, 9016, 9017, 9018, 9019, 3158, 9020
6226, 3632, 6886, 1117, 6893, 8270, 7354, 3635, 8271, 8198, 8547
6227, 2292, 3030, 40, 6864, 9021, 9022, 2319, 9023, 9025, 9024
6228, 2295, 863, 3115, 6886, 8767, 8769, 7527, 7717, 9026, 7071
6229, 5885, 1801, 5868, 5874, 9027, 9028, 5930, 5931, 9029, 5906
6230, 1578, 1577, 191, 6890, 1584, 4548, 4547, 8939, 7667, 7748
6231, 2260, 849, 570, 2704, 7715, 2713, 2388, 7558, 2710, 2708
6232, 1461, 5353, 1711, 5357, 8777, 5386, 8902, 8778, 5388, 5384
6233, 3654, 3656, 3651, 6895, 3895, 3894, 3892, 7274, 7699, 7881
6234, 852, 2256, 3069, 851, 8741, 7375, 8742, 858, 7374, 7376
6235, 6826, 6844, 2109, 6897, 8407, 8053, 8249, 8993, 7597, 8054
6236, 572, 851, 850, 2261, 2717, 857, 2714, 2444, 7377, 8393
6237, 3659, 6825, 3656, 6845, 7674, 7675, 3918, 7425, 8852, 7424
6238, 2062, 6043, 5594, 5787, 6076, 7789, 5737, 7815, 6971, 7433
6239, 1453, 6812, 6139, 6858, 9030, 7975, 6273, 9031, 8265, 8266
6240, 3418, 2853, 3361, 6830, 8973, 9032, 8254, 8256, 8975, 8258
6241, 6044, 5885, 1801, 6836, 9033, 9027, 9034, 9035, 9036, 7936
6242, 5363, 1709, 5355, 4675, 5369, 5380, 5382, 8375, 4773, 7535
6243, 4673, 6834, 4670, 6896, 7939, 8318, 4835, 8033, 8450, 8483
6244, 6042, 2109, 2110, 6844, 6073, 2116, 6078, 7594, 8053, 9037
6245, 6470, 6452, 6451, 6862, 6761, 6758, 6762, 7029, 7030, 8322
6246, 6492, 6467, 6419, 6853, 6624, 6523, 6625, 9038, 9040, 9039
6247, 498, 6356, 497, 516, 9041, 9042, 501, 9043, 8460, 9044
6248, 6139, 4589, 245, 244, 9045, 4597, 7977, 8672, 4596, 1608
6249, 6487, 6445, 6466, 6853, 6736, 6698, 6737, 9046, 9048, 9047
6250, 4967, 362, 1801, 6847, 7420, 9049, 5008, 7098, 7421, 8465
6251, 6045, 1952, 5616, 2106, 7925, 8065, 8067, 6059, 7502, 8223
6252, 3501, 3507, 3506, 6860, 3572, 3564, 3575, 8971, 8002, 7869
6253, 5783, 5789, 5795, 1754, 5819, 5844, 5843, 9050, 7344, 7345
6254, 4658, 273, 274, 6815, 4745, 1700, 4746, 7730, 8379, 7901
6255, 4658, 6815, 4671, 6884, 7730, 7498, 4786, 8559, 8021, 7641
6256, 5611, 5610, 5601, 6820, 5768, 5745, 5693, 8374, 8160, 8488
6257, 3690, 1591, 1578, 1579, 9051, 4551, 9052, 9053, 4584, 1585
6258, 295, 4886, 4890, 6859, 9054, 4930, 7560, 7562, 7961, 7564
6259, 5877, 5872, 5600, 5883, 5928, 8352, 9055, 5950, 5949, 8038
6260, 2255, 2275, 880, 6886, 2492, 9056, 8479, 8197, 8544, 8482
6261, 4677, 4668, 4666, 6856, 4823, 4822, 4824, 7574, 7575, 7577
6262, 6093, 6840, 6122, 6850, 7744, 7654, 6322, 8969, 8737, 8220
6263, 215, 6360, 1618, 517, 6377, 6376, 1620, 8788, 8855, 8702
6264, 111, 85, 751, 3110, 7656, 753, 9057, 3117, 7658, 8697
6265, 3695, 3710, 3669, 6892, 3959, 3958, 3955, 8119, 7916, 7833
6266, 469, 479, 6355, 478, 2225, 9058, 7580, 2221, 482, 8529
6267, 479, 469, 6355, 470, 2225, 7580, 9058, 2224, 473, 8063
6268, 6091, 4106, 6115, 6841, 9059, 8945, 6164, 9060, 8950, 8948
6269, 5608, 5885, 6044, 6836, 8286, 9033, 9061, 9062, 9036, 9035
6270, 793, 2851, 110, 6863, 8978, 7857, 9063, 8135, 7859, 7331
6271, 1420, 1804, 1803, 5875, 9064, 1810, 9065, 9066, 9067, 8387
6272, 614, 838, 3030, 39, 8272, 8276, 8275, 2528, 9069, 9068
6273, 2293, 6358, 516, 2286, 9070, 8739, 2409, 2410, 8594, 2406
6274, 6357, 2272, 330, 6359, 7984, 8967, 6389, 6390, 8968, 6386
6275, 1581, 6113, 6118, 1593, 7765, 6209, 7764, 4574, 6280, 6281
6276, 4889, 287, 1753, 285, 4913, 4912, 4914, 8277, 1750, 7944
6277, 3657, 3688, 6892, 6895, 3912, 8005, 8006, 7272, 7273, 8962
6278, 6463, 6451, 6498, 6862, 6765, 6752, 6766, 7104, 8322, 7106
6279, 2280, 3150, 2263, 881, 7131, 7130, 2495, 8826, 8827, 9071
6280, 263, 4684, 310, 6823, 4715, 9072, 9073, 9074, 9076, 9075
6281, 6357, 330, 515, 516, 6389, 8785, 9077, 8461, 8459, 519
6282, 1059, 3111, 3113, 6898, 3144, 3135, 3147, 7710, 7711, 8400
6283, 3647, 6817, 3706, 6895, 7279, 7550, 3862, 7902, 8574, 7495
6284, 5365, 5355, 5361, 6887, 5427, 5426, 5400, 8533, 6928, 7083
6285, 5614, 5599, 5588, 6897, 5773, 5735, 5774, 9078, 7982, 7596
6286, 274, 4959, 4698, 6815, 8147, 8145, 4748, 7901, 8192, 7500
6287, 1455, 137, 1949, 5356, 9079, 8845, 8523, 7968, 8846, 5401
6288, 4685, 1686, 235, 6824, 4701, 1687, 4699, 7887, 8011, 9080
6289, 6082, 2107, 2106, 6847, 6086, 2113, 6083, 8115, 7995, 8018
6290, 6358, 647, 3070, 2286, 6401, 8169, 9081, 8594, 8174, 8172
6291, 1153, 6364, 2298, 3716, 6368, 8919, 9082, 3781, 8918, 8920
6292, 274, 4698, 4658, 6815, 4748, 4750, 4746, 7901, 7500, 7730
6293, 863, 97, 2267, 3115, 869, 8443, 8768, 8769, 8444, 7528
6294, 37, 610, 38, 3031, 2527, 2526, 528, 8906, 9015, 9083
6295, 3072, 96, 110, 6863, 8860, 7327, 3076, 7288, 7330, 7331
6296, 2274, 854, 3068, 6888, 9084, 9085, 8299, 8300, 9086, 8141
6297, 2108, 5604, 5598, 5429, 9087, 5696, 8463, 8464, 7567, 7014
6298, 489, 480, 488, 6356, 2230, 2233, 492, 9088, 8797, 9089
6299, 479, 488, 480, 6356, 2232, 2233, 483, 8798, 9089, 8797
6300, 1682, 6824, 1686, 6849, 9090, 8011, 4656, 7974, 7891, 7973
6301, 5366, 5354, 6865, 6903, 5424, 7522, 7828, 7811, 7884, 7830
6302, 6813, 6827, 6819, 6839, 9091, 8224, 9092, 9093, 8551, 8965
6303, 5598, 5612, 5589, 6890, 5778, 5777, 5730, 8643, 9094, 8654
6304, 212, 189, 126, 6831, 1487, 4339, 1486, 9095, 8820, 9096
6305, 6097, 6820, 6101, 6841, 7603, 7777, 6316, 8360, 8620, 8076
6306, 2300, 2294, 865, 6855, 2476, 8896, 8142, 8022, 8816, 8144
6307, 51, 3109, 3110, 868, 8995, 3139, 8996, 9097, 9099, 9098
6308, 96, 3072, 854, 2278, 8860, 8745, 861, 8859, 8253, 8746
6309, 3287, 1114, 2848, 3280, 8166, 8801, 8802, 3301, 8167, 9100
6310, 1832, 304, 6124, 1800, 1835, 6251, 6253, 7467, 4998, 9101
6311, 304, 5023, 4962, 6903, 5025, 7807, 4995, 9102, 7812, 7810
6312, 1834, 346, 345, 5547, 8514, 2012, 9103, 9104, 5556, 5554
6313, 5354, 5364, 1952, 6903, 5413, 5379, 5410, 7884, 6914, 6915
6314, 5871, 5877, 5609, 5882, 5925, 9105, 9106, 5944, 5943, 9107
6315, 1627, 6362, 214, 6878, 6373, 6372, 1628, 8237, 8238, 9108
6316, 338, 358, 5884, 186, 2098, 5889, 5888, 7444, 7443, 7314
6317, 6365, 1627, 248, 6870, 6381, 1629, 6382, 9109, 9111, 9110
6318, 5878, 5885, 5608, 6836, 5946, 8286, 8284, 9112, 9036, 9062
6319, 6463, 6473, 6853, 6862, 6638, 7446, 7447, 7104, 7105, 9113
6320, 3632, 1113, 1112, 6888, 3636, 1119, 3633, 8269, 8475, 7678
6321, 2261, 3070, 850, 2286, 8392, 8171, 8393, 2446, 8172, 8173
6322, 1454, 1455, 1461, 5357, 1458, 4335, 4334, 8378, 7966, 8778
6323, 189, 125, 126, 6831, 4338, 1165, 4339, 8820, 7896, 9096
6324, 2290, 6364, 2298, 648, 8441, 8919, 2414, 9114, 6406, 8930
6325, 2852, 3414, 3419, 6837, 8357, 3483, 8356, 8955, 9115, 8350
6326, 1194, 1419, 289, 6868, 4263, 8371, 7750, 7482, 9116, 7752
6327, 1950, 6852, 5618, 6890, 7471, 7754, 7022, 7141, 7472, 9117
6328, 1455, 1949, 137, 6890, 8523, 8845, 9079, 9118, 8912, 9119
6329, 2275, 3114, 6886, 6893, 9120, 8684, 8544, 8545, 8546, 8198
6330, 5618, 5593, 5965, 1414, 5663, 6924, 6927, 9121, 9123, 9122
6331, 2274, 2303, 2255, 6888, 2460, 2503, 2504, 8300, 7572, 7835
6332, 2089, 5964, 5971, 5616, 6012, 6015, 5983, 5765, 8240, 8066
6333, 3418, 3412, 3406, 2853, 3480, 3444, 3481, 8973, 8972, 9124
6334, 3660, 3705, 3666, 6876, 3937, 3936, 3935, 9125, 9127, 9126
6335, 2290, 6360, 648, 2261, 8591, 6407, 9114, 2524, 8592, 8608
6336, 4963, 6865, 4960, 6903, 7045, 7146, 5002, 8466, 7830, 8528
6337, 1658, 6849, 1654, 6879, 7909, 7908, 4635, 8929, 8791, 9128
6338, 880, 2255, 3152, 879, 8479, 8481, 8480, 886, 9130, 9129
6339, 1074, 3153, 3150, 6857, 3187, 3179, 3190, 9131, 7225, 7139
6340, 2863, 2857, 3290, 976, 2952, 7061, 8287, 2947, 2951, 3310
6341, 3492, 989, 2841, 6860, 8001, 2969, 8417, 8003, 8004, 9132
6342, 5443, 5435, 1581, 5430, 5501, 8812, 8811, 5500, 5472, 9133
6343, 6092, 6096, 297, 6820, 6246, 6245, 6241, 7776, 7039, 8469
6344, 1801, 6847, 2106, 6903, 8465, 8018, 8078, 7937, 7885, 7504
6345, 5592, 5789, 1418, 5617, 6920, 9134, 9135, 5685, 6922, 9136
6346, 4696, 4677, 4666, 6856, 4825, 4824, 4826, 7806, 7574, 7577
6347, 3674, 3675, 6848, 6891, 3972, 8837, 7382, 7269, 7270, 9137
6348, 1670, 6824, 1674, 6849, 9138, 9139, 4647, 9140, 7891, 8047
6349, 6495, 6439, 36, 2273, 6550, 6549, 6546, 8557, 7838, 2308
6350, 2271, 2298, 3715, 649, 2417, 9141, 9142, 8104, 9144, 9143
6351, 3711, 3649, 3677, 6831, 3882, 3881, 3883, 9145, 9147, 9146
6352, 2833, 2842, 2856, 6901, 2974, 3022, 3021, 7864, 7865, 8492
6353, 1650, 1654, 6849, 6879, 4632, 7908, 9148, 9149, 9128, 8791
6354, 6457, 6421, 6473, 6853, 6529, 6635, 6634, 9150, 7448, 7446
6355, 1071, 3402, 3420, 6837, 8185, 3468, 7533, 7510, 8876, 9151
6356, 297, 6815, 296, 6838, 9152, 9153, 1789, 9154, 8069, 9155
6357, 3701, 3702, 3684, 6900, 4003, 3763, 4004, 9156, 9158, 9157
6358, 1756, 1350, 4142, 4895, 8414, 4145, 9159, 4942, 8958, 8957
6359, 3654, 3653, 3655, 6895, 3893, 3904, 3903, 7274, 7496, 7860
6360, 107, 116, 94, 3415, 1138, 8016, 8014, 3424, 3423, 6951
6361, 497, 489, 6356, 498, 2239, 9088, 9042, 501, 2237, 9041
6362, 489, 497, 6356, 488, 2239, 9042, 9088, 492, 2240, 9089
6363, 6082, 362, 2111, 6904, 6084, 2118, 6085, 7799, 7422, 7996
6364, 1300, 4082, 1804, 4965, 4085, 9160, 7692, 9161, 9162, 4994
6365, 3492, 3504, 2841, 1017, 3534, 8645, 8417, 3533, 3527, 3004
6366, 6450, 6486, 6449, 6862, 6754, 6753, 6748, 8280, 7115, 7113
6367, 5364, 1944, 1832, 5023, 5374, 8601, 7469, 8175, 8766, 5026
6368, 3197, 2836, 2861, 799, 6987, 2929, 6989, 9163, 9164, 8861
6369, 1678, 6824, 1682, 6849, 9165, 9090, 4653, 8027, 7891, 7974
6370, 6426, 6819, 6436, 6854, 7246, 7524, 6646, 8577, 9167, 9166
6371, 6358, 6357, 2293, 516, 6403, 8713, 9070, 8739, 8461, 2409
6372, 1574, 4542, 237, 6856, 4561, 4559, 1575, 7723, 8936, 8498
6373, 295, 6117, 6092, 4891, 6240, 6243, 6242, 8806, 7116, 7117
6374, 3154, 2297, 879, 6888, 8035, 9168, 9169, 7358, 8126, 9170
6375, 1875, 5075, 6365, 248, 5078, 9171, 6383, 1876, 5076, 6382
6376, 864, 3114, 2275, 6893, 8959, 9120, 9172, 8370, 8546, 8545
6377, 1713, 4679, 4672, 5360, 4783, 4782, 4781, 5392, 8008, 8190
6378, 3420, 3402, 3419, 6837, 3468, 3465, 3469, 9151, 8876, 8350
6379, 6785, 4, 371, 6858, 6790, 374, 6791, 9173, 9175, 9174
6380, 793, 1071, 6837, 6863, 7532, 7510, 8977, 8135, 7450, 7511
6381, 6495, 6494, 2273, 553, 6607, 8981, 8557, 6547, 6603, 2310
6382, 2856, 2862, 6901, 6902, 2914, 8864, 8492, 9176, 8552, 9177
6383, 3072, 1047, 3068, 6888, 3082, 3107, 3098, 7359, 7360, 8141
6384, 1112, 3068, 1047, 6888, 8531, 3107, 7586, 7678, 8141, 7360
6385, 835, 3032, 3033, 6889, 9178, 3044, 8804, 8805, 8125, 7320
6386, 3150, 3153, 881, 6857, 3179, 8656, 8827, 7139, 7225, 8657
6387, 3153, 880, 2295, 6886, 9179, 9180, 7526, 7072, 8482, 7717
6388, 3154, 3152, 1072, 6888, 3173, 3186, 3183, 7358, 8327, 7886
6389, 5882, 1802, 5870, 6829, 8579, 8580, 5939, 8722, 8723, 9181
6390, 1674, 6824, 1678, 6849, 9139, 9165, 4650, 8047, 7891, 8027
6391, 3667, 6842, 3655, 6895, 7230, 8331, 3905, 7497, 8467, 7860
6392, 3156, 2270, 645, 552, 7033, 7988, 7990, 8025, 2421, 9182
6393, 3071, 3068, 1046, 6867, 3097, 3108, 3105, 7178, 8139, 7179
6394, 345, 6134, 1834, 5547, 9183, 6259, 9103, 5554, 9184, 9104
6395, 1705, 4675, 5363, 6887, 4774, 8375, 9185, 9186, 8332, 8376
6396, 3661, 1615, 1618, 6900, 8549, 4604, 7950, 7953, 8550, 7952
6397, 5796, 5789, 5786, 5795, 5851, 9187, 5859, 5860, 5844, 5856
6398, 245, 6812, 6808, 6825, 7976, 9188, 8764, 7979, 7980, 8733
6399, 295, 297, 1752, 6820, 1791, 7919, 7561, 8807, 8469, 8159
6400, 1658, 1662, 6849, 6877, 4638, 9189, 7909, 8928, 9190, 8789
6401, 4178, 1380, 144, 6840, 4181, 1382, 4182, 7743, 9192, 9191
6402, 1114, 109, 3632, 1115, 8619, 8353, 3637, 1121, 8457, 3638
6403, 1072, 3152, 115, 6888, 3186, 8323, 9007, 7886, 8327, 8326
6404, 6429, 6434, 6827, 6854, 6676, 7093, 7091, 8328, 8329, 9193
6405, 3281, 2864, 2843, 980, 8162, 2959, 7168, 3300, 2955, 2958
6406, 3069, 3071, 1045, 6889, 3094, 3106, 3103, 8226, 7319, 7788
6407, 297, 299, 6815, 6859, 1794, 8521, 9152, 7920, 7880, 8068
6408, 3420, 3419, 3414, 6837, 3469, 3483, 3490, 9151, 8350, 9115
6409, 1779, 6109, 6110, 6840, 6233, 6284, 6283, 9194, 8675, 8676
6410, 1577, 6890, 1578, 6899, 7667, 8939, 1584, 8059, 8644, 9195
6411, 1662, 1666, 6849, 6877, 4641, 9196, 9189, 9190, 9197, 8789
6412, 6447, 6449, 6459, 6861, 6744, 6747, 6746, 9198, 9200, 9199
6413, 6458, 6456, 6491, 6133, 6504, 6724, 6614, 9201, 7005, 7006
6414, 2734, 877, 6477, 552, 2740, 9008, 8473, 8474, 8024, 6553
6415, 6043, 2110, 1753, 5791, 6079, 8881, 8301, 6940, 8569, 8302
6416, 3671, 6842, 3683, 6848, 7285, 6907, 3968, 8084, 9202, 8085
6417, 793, 3420, 2751, 2846, 7531, 7407, 2755, 9203, 8484, 7958
6418, 2266, 2281, 2291, 6864, 2435, 2326, 2511, 8366, 9204, 8365
6419, 3027, 2266, 6855, 6864, 8809, 8689, 8157, 8615, 8366, 8614
6420, 2257, 42, 43, 6864, 2327, 533, 2328, 8364, 8814, 9205
6421, 2843, 2832, 2858, 6894, 2979, 3018, 3017, 7928, 7929, 8423
6422, 2277, 852, 2256, 6889, 9206, 8741, 2454, 8124, 8743, 7332
6423, 1153, 2298, 6364, 648, 9082, 8919, 6368, 6404, 8930, 6406
6424, 5599, 5620, 5432, 6897, 5707, 8291, 8292, 7982, 9207, 8418
6425, 6139, 1453, 244, 6812, 6273, 8515, 8672, 7975, 9030, 8673
6426, 1580, 1592, 1593, 6125, 4585, 1596, 4587, 7662, 6213, 6276
6427, 4543, 2108, 238, 6846, 7783, 9208, 4562, 6978, 7325, 7402
6428, 1044, 648, 3069, 6902, 9209, 8606, 3104, 8561, 8727, 8227
6429, 801, 111, 2855, 6857, 9210, 7547, 8999, 9001, 7205, 7548
6430, 2293, 3073, 6357, 647, 8538, 7124, 8713, 8540, 8539, 6397
6431, 610, 38, 3031, 67, 2526, 9083, 9015, 612, 613, 9211
6432, 6091, 6115, 6129, 6841, 6164, 6313, 6312, 9060, 8948, 8359
6433, 6109, 1754, 285, 6098, 9212, 7945, 6231, 6232, 9213, 6227
6434, 1951, 5967, 1950, 6852, 8304, 8199, 1957, 7755, 8926, 7471
6435, 854, 2297, 3072, 6888, 8744, 8036, 8745, 9086, 8126, 7359
6436, 362, 6041, 1802, 5882, 6048, 8721, 7565, 9214, 8720, 8579
6437, 5602, 5878, 5881, 5873, 9215, 5952, 8315, 8584, 5919, 5951
6438, 398, 406, 407, 6849, 2168, 410, 2170, 9216, 9217, 8438
6439, 3687, 3665, 3666, 6858, 3834, 3947, 3946, 9011, 9219, 9218
6440, 1045, 1046, 3501, 6860, 1052, 8588, 8396, 7200, 7199, 8971
6441, 5871, 5609, 362, 5882, 9106, 9220, 8847, 5944, 9107, 9214
6442, 6357, 646, 2272, 6359, 6396, 8712, 7984, 6390, 6399, 8968
6443, 5791, 5784, 1752, 5797, 5813, 7245, 7220, 5849, 5848, 7028
6444, 6041, 5882, 5609, 6829, 8720, 9107, 9221, 8724, 8722, 9222
6445, 1420, 1419, 5611, 6820, 1429, 8373, 9223, 8361, 8362, 8374
6446, 3114, 1056, 3115, 6886, 3141, 3122, 3126, 8684, 7073, 7071
6447, 3418, 3406, 115, 2853, 3481, 8878, 9013, 8973, 9124, 9224
6448, 524, 3029, 2271, 649, 8937, 7775, 2415, 9225, 8103, 8104
6449, 1058, 3191, 1057, 6866, 7545, 8073, 1064, 7367, 8451, 7368
6450, 1803, 6820, 6102, 6882, 7846, 7038, 7040, 8734, 9226, 8736
6451, 1192, 1375, 144, 6840, 9227, 1376, 4040, 8288, 9228, 9191
6452, 1623, 6822, 1630, 6849, 9229, 9230, 4614, 9231, 9232, 8297
6453, 228, 6877, 1658, 6879, 9233, 8928, 1659, 9234, 8793, 8929
6454, 266, 4687, 265, 6816, 4722, 4721, 1692, 8699, 7542, 7987
6455, 1073, 3152, 3153, 6886, 3185, 3176, 3188, 7462, 8324, 7072
6456, 1826, 1804, 4082, 4965, 5012, 9160, 9235, 4992, 4994, 9162
6457, 379, 363, 1, 6858, 2144, 366, 2143, 8565, 9237, 9236
6458, 2292, 40, 2281, 6864, 2319, 2321, 2323, 9023, 9024, 9204
6459, 3695, 3686, 3643, 6835, 3859, 3858, 3855, 9238, 8663, 8664
6460, 1211, 5361, 5365, 1947, 8909, 5400, 8760, 8762, 5399, 5378
6461, 289, 1419, 1194, 6820, 8371, 4263, 7750, 7751, 8362, 7479
6462, 854, 3072, 3068, 6888, 8745, 3098, 9085, 9086, 7359, 8141
6463, 866, 2289, 2304, 6898, 9239, 2341, 8398, 8402, 9240, 8401
6464, 191, 1455, 6123, 6890, 1459, 6216, 6215, 7748, 9118, 8940
6465, 1057, 1116, 1117, 6893, 7877, 1123, 8511, 7632, 8605, 8547
6466, 1412, 5881, 4265, 5602, 8408, 7519, 4269, 8908, 8315, 7956
6467, 2269, 2303, 2268, 6867, 2502, 2459, 2383, 7569, 7568, 7782
6468, 328, 307, 341, 6861, 1862, 2003, 5543, 9241, 8497, 8163
6469, 3494, 1019, 3500, 2860, 3515, 3535, 3538, 7515, 3009, 7517
6470, 4136, 4894, 1781, 1757, 8341, 4922, 8343, 8424, 4924, 4944
6471, 1, 5, 379, 6858, 387, 382, 2143, 9236, 8563, 8565
6472, 3416, 3403, 1074, 6830, 3470, 8200, 7627, 7631, 8596, 7630
6473, 5870, 1803, 5883, 6829, 8386, 8039, 5940, 9181, 8042, 8043
6474, 5366, 1714, 1704, 5023, 5370, 4762, 9242, 7808, 8901, 8320
6475, 1114, 990, 3366, 2842, 3387, 3380, 3388, 8165, 2975, 7861
6476, 2109, 5599, 6042, 2061, 8642, 7981, 6073, 6072, 5734, 6071
6477, 991, 1115, 3363, 2843, 3392, 3393, 3391, 2978, 8499, 7926
6478, 4670, 4681, 4669, 6896, 4839, 4838, 4833, 8483, 6957, 7169
6479, 852, 3071, 3069, 6889, 8931, 3094, 8742, 8743, 7319, 8226
6480, 4683, 4662, 4958, 6865, 4759, 7108, 9243, 9014, 7107, 7046
6481, 3198, 3208, 3191, 6866, 3258, 3257, 3255, 7900, 8448, 8451
6482, 648, 2256, 2298, 2261, 8607, 2505, 8930, 8608, 2450, 2506
6483, 793, 3155, 1071, 6863, 8133, 3181, 7532, 8135, 7786, 7450
6484, 230, 231, 1670, 6881, 1549, 1671, 4643, 9244, 9246, 9245
6485, 6460, 6490, 6420, 6843, 6628, 6627, 6538, 9247, 8628, 8629
6486, 5586, 5794, 2045, 5594, 7485, 5807, 5635, 5710, 7432, 5708
6487, 2108, 2107, 6082, 6846, 2114, 6086, 6087, 7325, 7684, 7798
6488, 3071, 853, 3068, 6867, 8617, 9248, 3097, 7178, 8618, 8139
6489, 6131, 4172, 178, 6110, 8685, 4177, 6193, 6194, 8686, 6189
6490, 373, 6456, 6133, 365, 9249, 7005, 9250, 2139, 9252, 9251
6491, 258, 1670, 259, 6873, 4645, 1672, 1673, 9253, 9255, 9254
6492, 5609, 5882, 5877, 6829, 9107, 5943, 9105, 9222, 8722, 9256
6493, 3665, 6825, 3666, 6858, 8966, 8674, 3947, 9219, 8267, 9218
6494, 2262, 96, 2278, 6863, 7677, 8859, 2394, 7373, 7330, 8121
6495, 3705, 3687, 3666, 6858, 3948, 3946, 3936, 9257, 9011, 9218
6496, 1941, 5332, 266, 6833, 5335, 5334, 1942, 9258, 9260, 9259
6497, 339, 6365, 308, 6870, 9261, 9262, 2000, 9263, 9109, 9264
6498, 517, 6360, 2290, 2286, 8855, 8591, 2305, 2407, 8593, 2411
6499, 3661, 3716, 35, 6900, 3771, 3767, 3770, 7953, 9266, 9265
6500, 2062, 6042, 5588, 2061, 6070, 7593, 5733, 2068, 6071, 5732
6501, 991, 3363, 992, 2832, 3391, 3390, 998, 2976, 7927, 2977
6502, 2833, 3366, 989, 990, 7862, 3381, 2967, 2968, 3380, 996
6503, 3154, 879, 3152, 6888, 9169, 9129, 3173, 7358, 9170, 8327
6504, 2851, 793, 2847, 6837, 8978, 9267, 2896, 8508, 8977, 8509
6505, 2273, 646, 2260, 2282, 9268, 8491, 2523, 2423, 8098, 2521
6506, 3198, 3204, 964, 2836, 3230, 3228, 3229, 6988, 9269, 2944
6507, 2277, 3032, 835, 6889, 8123, 9178, 9270, 8124, 8125, 8805
6508, 3709, 3675, 3692, 6891, 3985, 3982, 3988, 7932, 7270, 8865
6509, 5618, 5965, 1950, 1414, 6927, 7021, 7022, 9121, 9122, 8910
6510, 6129, 6097, 6108, 6841, 6339, 6337, 6311, 8359, 8360, 8075
6511, 6103, 6826, 6099, 6840, 8572, 8415, 6341, 7653, 9271, 7655
6512, 3715, 3716, 2298, 523, 3827, 8920, 9141, 3826, 3766, 2412
6513, 300, 301, 4961, 6815, 1795, 4977, 4976, 9272, 9273, 8060
6514, 6456, 373, 3, 2, 9249, 377, 6499, 6500, 2138, 370
6515, 1709, 5363, 1705, 4675, 5369, 9185, 4771, 4773, 8375, 4774
6516, 3114, 863, 2275, 6886, 9274, 9275, 9120, 8684, 9026, 8544
6517, 433, 243, 442, 6849, 9276, 9277, 2193, 9278, 8339, 8915
6518, 881, 2267, 2280, 6857, 8655, 2498, 8826, 8657, 7640, 7138
6519, 6109, 6826, 6103, 6840, 8571, 8572, 6342, 8675, 9271, 7653
6520, 6110, 6122, 6131, 6840, 6353, 6323, 6194, 8676, 7654, 7742
6521, 6815, 4674, 6838, 6884, 7729, 7293, 8069, 8021, 6972, 7294
6522, 3671, 3670, 3668, 6848, 3952, 3951, 3953, 8084, 9280, 9279
6523, 6465, 6440, 6489, 6843, 6717, 6721, 6720, 9281, 9283, 9282
6524, 373, 6456, 365, 2, 9249, 9252, 2139, 2138, 6500, 369
6525, 4889, 4887, 287, 285, 4916, 4907, 4913, 8277, 8281, 1750
6526, 1966, 5605, 5599, 5444, 5628, 5705, 5706, 5456, 8889, 8976
6527, 3027, 839, 2266, 6864, 9284, 9285, 8809, 8615, 9286, 8366
6528, 2270, 645, 793, 3155, 7988, 9287, 8134, 7032, 7989, 8133
6529, 3205, 3208, 3198, 6866, 3270, 3258, 3231, 8447, 8448, 7900
6530, 2108, 6047, 5604, 5429, 6069, 9288, 9087, 8464, 9289, 7567
6531, 280, 283, 6816, 6883, 1744, 9290, 8659, 8661, 7592, 7769
6532, 5965, 1950, 1414, 1949, 7021, 8910, 9122, 9291, 1956, 8911
6533, 293, 268, 4885, 1773, 1937, 8260, 4935, 1775, 5318, 4899
6534, 6113, 1581, 6114, 1593, 7765, 7647, 6279, 6280, 4574, 6278
6535, 6426, 6429, 6819, 6854, 6653, 7055, 7246, 8577, 8328, 9167
6536, 362, 6044, 5608, 5885, 6051, 9061, 8848, 8849, 9033, 8286
6537, 6358, 2293, 6357, 647, 9070, 8713, 6403, 6401, 8540, 6397
6538, 2861, 1058, 3197, 799, 7137, 7135, 6989, 8861, 8862, 9163
6539, 4664, 4698, 275, 4959, 4753, 4749, 4751, 8191, 8145, 8146
6540, 5364, 1944, 335, 1832, 5374, 1946, 5375, 7469, 8601, 7468
6541, 3673, 3672, 3671, 6848, 3965, 3961, 3966, 7384, 8658, 8084
6542, 6489, 6455, 6464, 6843, 6777, 6779, 6778, 9282, 8669, 9292
6543, 6121, 4112, 6091, 6841, 8187, 9293, 6167, 8188, 8182, 9060
6544, 3673, 3691, 3711, 6831, 3976, 3884, 3975, 8892, 8586, 9145
6545, 3414, 3408, 3420, 2846, 3438, 3489, 3490, 9294, 8485, 8484
6546, 345, 6807, 1834, 6854, 9295, 9296, 9103, 9297, 9299, 9298
6547, 1153, 3715, 2298, 648, 3830, 9141, 9082, 6404, 9300, 8930
6548, 3361, 1117, 1073, 6830, 3375, 7461, 8255, 8258, 7306, 8257
6549, 5967, 2107, 5970, 6852, 9301, 8626, 6034, 8926, 7756, 7539
6550, 4674, 4671, 4697, 6884, 4788, 4846, 4802, 6972, 7641, 7419
6551, 4130, 152, 4124, 6868, 4134, 4126, 8476, 8112, 8649, 8478
6552, 1350, 1756, 1757, 4895, 8414, 1763, 8232, 8958, 4942, 4941
6553, 2852, 3419, 115, 3365, 8356, 8877, 8879, 8954, 8349, 3371
6554, 5878, 5608, 5871, 2073, 8284, 8285, 5922, 5917, 5753, 5921
6555, 3708, 3717, 3678, 6875, 3902, 3998, 3994, 9302, 9304, 9303
6556, 4958, 4962, 4683, 6865, 4975, 8822, 9243, 7046, 7829, 9014
6557, 4178, 6093, 4184, 6850, 7740, 9305, 9306, 8970, 8969, 9307
6558, 2106, 362, 6082, 6847, 2112, 6084, 6083, 8018, 7421, 8115
6559, 331, 2018, 329, 6809, 5567, 2019, 1867, 9308, 8092, 8090
6560, 2838, 3195, 963, 3205, 7239, 3221, 2939, 7240, 3226, 3225
6561, 3689, 3694, 3719, 6876, 3742, 3933, 3928, 9309, 9311, 9310
6562, 763, 81, 49, 3109, 765, 830, 2677, 8679, 8917, 8681
6563, 2273, 646, 2127, 6363, 9268, 6394, 9312, 7840, 6398, 6393
6564, 1420, 1439, 1440, 5611, 4287, 1449, 4270, 9223, 5687, 5686
6565, 1419, 1439, 1420, 5611, 4285, 4287, 1429, 8373, 5687, 9223
6566, 801, 800, 898, 2855, 810, 2770, 2773, 8999, 9313, 2931
6567, 6471, 6443, 6428, 6861, 6666, 6667, 6601, 9314, 9316, 9315
6568, 1003, 3414, 3406, 2852, 3436, 3441, 3440, 2997, 8357, 8355
6569, 6494, 6495, 2273, 2127, 6607, 8557, 8981, 6618, 6588, 9312
6570, 1581, 6104, 1582, 6826, 7648, 9317, 1588, 8600, 8207, 8248
6571, 4082, 1300, 160, 4965, 4085, 1302, 4086, 9162, 9161, 9318
6572, 6464, 6455, 6490, 6843, 6779, 6781, 6780, 9292, 8669, 8628
6573, 363, 364, 1454, 379, 367, 9319, 9320, 2144, 2147, 9321
6574, 1058, 1059, 3197, 799, 1065, 9322, 7135, 8862, 9323, 9163
6575, 3700, 2265, 524, 3029, 8195, 2313, 3775, 7992, 7771, 8937
6576, 2059, 6046, 2060, 5589, 6061, 6060, 2066, 5723, 8652, 5724
6577, 5295, 5294, 1930, 6838, 5304, 5303, 5299, 9005, 9324, 9004
6578, 2303, 853, 2268, 6867, 9325, 8616, 2459, 7568, 8618, 7782
6579, 8, 10, 6442, 6828, 404, 6507, 6506, 9326, 8570, 7411
6580, 3155, 878, 2270, 877, 7785, 7784, 7032, 7034, 884, 7036
6581, 345, 6813, 6807, 6819, 9327, 9328, 9295, 9329, 9092, 9330
6582, 1117, 115, 1073, 6886, 1124, 8625, 7461, 7354, 8325, 7462
6583, 82, 757, 50, 3109, 758, 2686, 832, 8927, 8994, 8716
6584, 294, 4886, 295, 6838, 9331, 9054, 1786, 9332, 8013, 9333
6585, 2285, 2280, 2267, 6857, 2516, 2498, 2401, 7152, 7138, 7640
6586, 1630, 6822, 1634, 6849, 9230, 9334, 4617, 8297, 9232, 8296
6587, 266, 4663, 4687, 6816, 4724, 4726, 4722, 8699, 7263, 7542
6588, 6785, 6135, 3682, 6858, 9335, 9336, 9337, 9173, 9339, 9338
6589, 2255, 3152, 879, 6888, 8481, 9129, 9130, 7835, 8327, 9170
6590, 478, 488, 6355, 487, 2231, 9340, 8529, 2228, 491, 9341
6591, 478, 488, 479, 6355, 2231, 2232, 482, 8529, 9340, 9058
6592, 239, 280, 4540, 6883, 1728, 8660, 4567, 9342, 8661, 8390
6593, 237, 4665, 4539, 1574, 4703, 7913, 4556, 1575, 7845, 4560
6594, 880, 881, 3153, 2295, 887, 8656, 9179, 9180, 8800, 7526
6595, 3410, 115, 3419, 1072, 9343, 8877, 3466, 8203, 9007, 8205
6596, 880, 3153, 3152, 6886, 9179, 3176, 8480, 8482, 7072, 8324
6597, 43, 44, 2287, 778, 534, 2331, 2330, 2658, 2657, 9344
6598, 6807, 6819, 6813, 6827, 9330, 9092, 9328, 9345, 8224, 9091
6599, 6044, 362, 1801, 5885, 6051, 9049, 9034, 9033, 8849, 9027
6600, 3692, 3701, 3720, 6891, 3999, 4005, 4006, 8865, 8306, 8307
6601, 3646, 6875, 1615, 6900, 7817, 8599, 8548, 8452, 8513, 8550
6602, 6100, 6826, 1581, 6850, 8206, 8600, 7646, 8520, 9346, 8519
6603, 5366, 5354, 5360, 6865, 5424, 5421, 5395, 7828, 7522, 8086
6604, 5617, 6826, 1754, 6840, 9347, 8404, 7346, 9348, 9271, 9349
6605, 6120, 1804, 4082, 1826, 9350, 9160, 9351, 6155, 5012, 9235
6606, 1839, 1832, 1833, 5363, 5063, 1836, 5062, 9352, 8602, 8665
6607, 739, 89, 57, 2283, 741, 821, 2663, 9353, 7223, 2363
6608, 1780, 4154, 1756, 6126, 9354, 8840, 4939, 6185, 8841, 8842
6609, 6095, 6112, 6128, 6868, 6331, 6333, 6173, 7296, 7702, 8487
6610, 2298, 648, 796, 6902, 8930, 9355, 8333, 7465, 8727, 8567
6611, 5587, 2089, 5971, 5616, 5643, 5983, 9356, 5766, 5765, 8066
6612, 2034, 2035, 5965, 1949, 2041, 5991, 5990, 5579, 5582, 9291
6613, 2036, 1950, 5967, 2035, 5584, 8199, 5994, 2042, 5581, 5993
6614, 1127, 1071, 3402, 1126, 3626, 8185, 3453, 1133, 3623, 3452
6615, 1705, 1839, 1840, 5363, 5269, 1842, 5263, 9185, 9352, 9357
6616, 2298, 2271, 796, 649, 2417, 8334, 8333, 9144, 8104, 9358
6617, 863, 3114, 3115, 6886, 9274, 3126, 8769, 9026, 8684, 7071
6618, 281, 6047, 5444, 238, 8427, 8428, 5448, 4868, 9360, 9359
6619, 2127, 6495, 2273, 6363, 6588, 8557, 9312, 6393, 8558, 7840
6620, 3410, 3418, 115, 1073, 3472, 9013, 9343, 8252, 8250, 8625
6621, 6364, 2290, 6360, 648, 8441, 8591, 6408, 6406, 9114, 6407
6622, 3661, 3662, 3646, 6900, 3768, 3868, 3782, 7953, 8454, 8452
6623, 3507, 3501, 1113, 6860, 3572, 9361, 8866, 8002, 8971, 7619
6624, 1365, 4160, 146, 1755, 4163, 4162, 1366, 9362, 8632, 8783
6625, 1130, 1074, 3409, 1129, 3631, 8201, 3462, 1136, 3630, 3461
6626, 1752, 4890, 1753, 6904, 4928, 4936, 1759, 9363, 8246, 8882
6627, 4885, 4690, 268, 6833, 7634, 4728, 8260, 7635, 6991, 8893
6628, 799, 798, 2861, 6894, 808, 9364, 8861, 8863, 9365, 8833
6629, 6434, 6478, 6438, 6854, 6677, 6703, 6702, 8329, 8330, 8850
6630, 623, 624, 647, 794, 635, 2593, 2592, 2628, 2627, 8583
6631, 624, 625, 647, 795, 636, 2595, 2593, 2629, 2630, 8771
6632, 623, 647, 646, 794, 2592, 652, 2594, 2628, 8583, 8581
6633, 2034, 1948, 5956, 2033, 5580, 8211, 5988, 2040, 5578, 5987
6634, 3191, 3208, 1116, 6866, 3257, 8446, 9366, 8451, 8448, 7819
6635, 1129, 1073, 3403, 1128, 3629, 8251, 3459, 1135, 3627, 3458
6636, 346, 1834, 5546, 2008, 8514, 6981, 5557, 5558, 6254, 5551
6637, 4588, 1610, 1453, 244, 4593, 6214, 8337, 4595, 4598, 8515
6638, 1127, 1128, 3410, 1072, 1134, 3456, 3455, 3625, 3628, 8203
6639, 5306, 5305, 1933, 6838, 5315, 5316, 5310, 8732, 9368, 9367
6640, 1360, 4154, 147, 1755, 4157, 4156, 1361, 8990, 8839, 9369
6641, 3642, 3709, 3720, 6891, 3852, 3854, 3851, 8347, 7932, 8307
6642, 648, 795, 647, 625, 8770, 8771, 653, 2596, 2630, 2595
6643, 1113, 3632, 1114, 6867, 3636, 3637, 1120, 8403, 8354, 7605
6644, 6487, 6473, 6445, 6853, 6738, 6735, 6736, 9046, 7446, 9048
6645, 1781, 172, 4130, 4136, 6178, 4131, 8340, 8343, 4141, 8342
6646, 1975, 1974, 1752, 5791, 1981, 5516, 5518, 5812, 5811, 7220
6647, 308, 309, 339, 6870, 1831, 5548, 2000, 9264, 9370, 9263
6648, 647, 6358, 2293, 2286, 6401, 9070, 8540, 8174, 8594, 2410
6649, 282, 6816, 283, 6833, 9371, 9290, 1742, 9372, 7707, 9373
6650, 877, 2734, 596, 552, 2740, 2738, 2742, 8024, 8474, 2378
6651, 433, 442, 443, 6849, 2193, 446, 2197, 9278, 8915, 8914
6652, 443, 434, 433, 6849, 2196, 437, 2197, 8914, 9374, 9278
6653, 6118, 1581, 1593, 1580, 7764, 4574, 6281, 7663, 1587, 4587
6654, 1143, 1045, 3501, 1142, 3601, 8396, 3549, 1149, 3599, 3548
6655, 1086, 3201, 1059, 1087, 3248, 9375, 3613, 1093, 3249, 3616
6656, 77, 775, 1059, 6898, 777, 8344, 9376, 9377, 8346, 7710
6657, 4660, 4542, 4538, 6816, 7429, 4581, 7010, 7543, 8261, 8020
6658, 517, 497, 6355, 516, 9378, 9379, 8880, 520, 9044, 8740
6659, 271, 4888, 5306, 6838, 7842, 9380, 5308, 8730, 7847, 8732
6660, 989, 3507, 3364, 1113, 8000, 7198, 3376, 3382, 8866, 3383
6661, 2301, 58, 59, 3151, 2368, 549, 2369, 9381, 9383, 9382
6662, 3205, 2840, 992, 6866, 8611, 2984, 8998, 8447, 9385, 9384
6663, 2059, 2107, 5970, 6045, 6062, 8626, 8815, 6056, 6063, 7081
6664, 110, 1047, 3072, 6863, 1054, 3082, 3076, 7331, 7290, 7288
6665, 5872, 1420, 1440, 5600, 8202, 4270, 7365, 8352, 9386, 5690
6666, 5366, 5364, 5354, 6903, 5397, 5413, 5424, 7811, 6914, 7884
6667, 1729, 1577, 1730, 5436, 4870, 4873, 1736, 5458, 7316, 5459
6668, 1839, 1833, 1840, 5363, 5062, 5064, 1842, 9352, 8665, 9357
6669, 1072, 1112, 3365, 6837, 7676, 3374, 8348, 7509, 7866, 8351
6670, 5607, 1413, 1412, 335, 9387, 1422, 8555, 7440, 9388, 8214
6671, 6110, 6103, 6122, 6840, 6352, 6345, 6353, 8676, 7653, 7654
6672, 1083, 3199, 1056, 1084, 3239, 7122, 3607, 1090, 3240, 3610
6673, 1139, 3499, 1042, 1140, 3539, 9389, 3593, 1146, 3540, 3596
6674, 1097, 3286, 1028, 1098, 3324, 6968, 3579, 1104, 3325, 3582
6675, 5365, 1211, 1833, 6887, 8760, 9390, 8666, 8533, 8719, 8728
6676, 332, 480, 489, 6356, 9391, 2230, 9392, 9393, 8797, 9088
6677, 1126, 1070, 3411, 1125, 3624, 8493, 3450, 1132, 3621, 3449
6678, 5868, 1801, 5885, 6836, 9028, 9027, 5930, 9394, 7936, 9036
6679, 1330, 4118, 153, 6868, 4121, 4120, 1331, 7483, 8278, 9395
6680, 497, 517, 6355, 496, 9378, 8880, 9379, 500, 9397, 9396
6681, 1112, 115, 3632, 6888, 1118, 3634, 3633, 7678, 8326, 8269
6682, 5598, 5612, 6890, 6899, 5778, 9094, 8643, 7959, 9398, 8644
6683, 154, 1325, 4112, 6841, 1326, 4115, 4114, 8964, 9399, 8182
6684, 6492, 6487, 6466, 6853, 6626, 6737, 6706, 9038, 9046, 9047
6685, 6, 365, 6456, 2, 2145, 9252, 6501, 386, 369, 6500
6686, 336, 5444, 6047, 5605, 5449, 8428, 8429, 5629, 8889, 8887
6687, 292, 271, 1770, 4888, 1936, 5317, 1771, 4934, 7842, 4901
6688, 3412, 3407, 1005, 2844, 3447, 3446, 3442, 8982, 8495, 3001
6689, 2296, 2277, 835, 6889, 2428, 9270, 8803, 7855, 8124, 8805
6690, 1944, 335, 1832, 5365, 1946, 7468, 8601, 5377, 5376, 8603
6691, 1070, 1071, 793, 3155, 1077, 7532, 8494, 3182, 3181, 8133
6692, 3641, 6845, 3712, 6892, 7737, 7738, 3847, 7914, 9400, 8007
6693, 284, 285, 4887, 6833, 1745, 8281, 9401, 9402, 8282, 7797
6694, 1755, 1754, 6109, 6840, 1761, 9212, 9403, 9404, 9349, 8675
6695, 3713, 3650, 126, 6842, 3805, 3804, 3800, 6905, 6906, 9405
6696, 6459, 6449, 6469, 6861, 6747, 6756, 6755, 9199, 9200, 9406
6697, 2109, 6082, 2110, 6904, 6088, 6089, 2116, 7277, 7799, 8695
6698, 801, 800, 2855, 111, 810, 9313, 8999, 9210, 9407, 7547
6699, 739, 57, 56, 2283, 2663, 547, 2664, 9353, 2363, 2362
6700, 55, 54, 745, 2284, 545, 2672, 2671, 2357, 2356, 9408
6701, 2298, 2290, 648, 2261, 2414, 9114, 8930, 2506, 2524, 8608
6702, 1638, 1634, 6822, 6849, 4620, 9334, 9409, 8381, 8296, 9232
6703, 3282, 1101, 1031, 1100, 3334, 3588, 9410, 3333, 1107, 3586
6704, 2033, 1947, 5962, 2032, 5577, 9411, 5985, 2039, 5575, 5984
6705, 3283, 1098, 1099, 1029, 3327, 1105, 3328, 8186, 3581, 3583
6706, 6100, 6136, 6107, 6850, 6349, 6348, 6344, 8520, 8566, 8218
6707, 330, 515, 2272, 6357, 8785, 2403, 8967, 6389, 9077, 7984
6708, 288, 6112, 6117, 4891, 6237, 6239, 6235, 4918, 7701, 7116
6709, 801, 6830, 1074, 6857, 9000, 7630, 8641, 9001, 7206, 9131
6710, 5363, 1705, 1839, 1709, 9185, 5269, 9352, 5369, 4771, 9412
6711, 1754, 6098, 6109, 6826, 9213, 6232, 9212, 8404, 8573, 8571
6712, 2110, 5798, 5596, 6844, 8568, 7094, 9413, 9037, 7893, 7894
6713, 3688, 3710, 3712, 6892, 3957, 3849, 3926, 8005, 7916, 8007
6714, 1085, 1084, 1057, 3191, 1091, 3609, 3612, 3243, 3242, 8073
6715, 1141, 1043, 3491, 1140, 3597, 9414, 3543, 1147, 3595, 3542
6716, 2847, 3365, 1112, 6837, 9415, 3374, 8507, 8509, 8351, 7866
6717, 962, 3202, 2838, 2830, 3213, 7455, 2938, 2874, 7934, 2940
6718, 801, 898, 899, 2855, 2773, 908, 2756, 8999, 2931, 2930
6719, 2294, 2288, 2259, 6898, 2519, 2518, 2520, 8818, 7636, 7960
6720, 3681, 3695, 3643, 6835, 3856, 3855, 3751, 9416, 9238, 8664
6721, 1390, 4190, 141, 6850, 4193, 4192, 1391, 9417, 9419, 9418
6722, 1779, 1755, 6109, 6840, 4938, 9403, 6233, 9194, 9404, 8675
6723, 1832, 1412, 1800, 6124, 8808, 8213, 7467, 6253, 9420, 9101
6724, 2290, 517, 35, 6900, 2305, 521, 2306, 8442, 8703, 9265
6725, 5602, 2072, 5878, 5873, 5746, 5918, 9215, 8584, 5914, 5919
6726, 1086, 3197, 1085, 1058, 3246, 3245, 1092, 3614, 7135, 3611
6727, 1142, 1044, 3497, 1141, 3600, 8560, 3546, 1148, 3598, 3545
6728, 6808, 6825, 6812, 6895, 8733, 7980, 9188, 8693, 8512, 8854
6729, 390, 399, 1834, 6887, 2160, 9421, 9422, 9423, 9424, 7437
6730, 1812, 6124, 1800, 1799, 6252, 9101, 4999, 5006, 9425, 1806
6731, 4671, 4681, 4697, 6884, 4808, 4845, 4846, 7641, 6954, 7419
6732, 766, 48, 47, 3113, 2673, 538, 2674, 9426, 9428, 9427
6733, 5331, 5332, 1941, 6833, 5341, 5335, 5339, 9429, 9260, 9258
6734, 3716, 3715, 2298, 1153, 3827, 9141, 8920, 3781, 3830, 9082
6735, 4892, 4886, 4888, 6838, 4948, 4933, 4905, 8088, 8013, 7847
6736, 631, 111, 86, 748, 9430, 9431, 2580, 9432, 8517, 750
6737, 5798, 2110, 2062, 6043, 8568, 6077, 7814, 6939, 6079, 6076
6738, 1812, 2119, 6124, 1799, 6152, 6286, 6252, 5006, 9433, 9425
6739, 1642, 1638, 6822, 6849, 4623, 9409, 9434, 8411, 8381, 9232
6740, 6119, 4184, 6093, 6850, 9435, 9305, 6200, 9436, 9307, 8969
6741, 496, 488, 487, 6355, 2238, 491, 2235, 9396, 9340, 9341
6742, 496, 488, 6355, 497, 2238, 9340, 9396, 500, 2240, 9379
6743, 2273, 2272, 646, 6359, 2405, 8712, 9268, 8458, 8968, 6399
6744, 5790, 1756, 1978, 1979, 8413, 5525, 5823, 5824, 5526, 1985
6745, 1951, 2036, 5960, 2037, 5583, 5996, 8055, 5585, 2043, 5997
6746, 3071, 2296, 852, 853, 7725, 8932, 8931, 8617, 8729, 859
6747, 6128, 171, 4124, 6105, 6171, 4125, 8486, 6176, 6175, 8477
6748, 6465, 6439, 6440, 6843, 6548, 6647, 6717, 9281, 7850, 9283
6749, 742, 88, 56, 2258, 744, 823, 2667, 8898, 8897, 2360
6750, 52, 53, 2276, 751, 543, 2352, 2350, 2680, 2679, 8696
6751, 6475, 6453, 6485, 6832, 6661, 6772, 6682, 8856, 8795, 8796
6752, 218, 219, 6355, 1491, 1500, 9437, 9438, 4354, 4351, 6375
6753, 794, 793, 2851, 110, 803, 8978, 9439, 9440, 9063, 7857
6754, 6121, 168, 6091, 4112, 6166, 6162, 6167, 8187, 4117, 9293
6755, 1414, 1950, 5618, 6890, 8910, 7022, 9121, 8913, 7141, 9117
6756, 1453, 415, 406, 6849, 9441, 2172, 9442, 7801, 9443, 9217
6757, 4678, 1712, 1566, 4293, 4768, 4765, 4704, 7841, 7969, 8319
6758, 150, 5790, 1350, 1193, 8229, 8230, 1352, 4053, 9445, 9444
6759, 3413, 2751, 94, 3405, 8556, 2753, 9446, 3428, 8455, 8015
6760, 3113, 3111, 866, 6898, 3135, 9447, 8397, 8400, 7711, 8402
6761, 2063, 2062, 6043, 5594, 2069, 6076, 6075, 5738, 5737, 7789
6762, 993, 3362, 2838, 992, 3395, 7454, 2982, 999, 3396, 2981
6763, 3403, 1073, 1074, 6830, 8251, 1080, 8200, 8596, 8257, 7630
6764, 1412, 1186, 1185, 136, 4248, 1197, 4246, 9448, 4020, 4019
6765, 55, 87, 742, 2258, 825, 743, 2668, 2359, 8933, 8898
6766, 2260, 2272, 646, 2273, 2443, 8712, 8491, 2523, 2405, 9268
6767, 5617, 6826, 5614, 6844, 9347, 9449, 5679, 8425, 8407, 8832
6768, 6480, 6484, 6438, 6854, 6716, 6711, 6715, 7000, 8268, 8850
6769, 344, 348, 5559, 6138, 2015, 5562, 5561, 6256, 6255, 9450
6770, 50, 757, 51, 3109, 2686, 2685, 541, 8716, 8994, 8995
6771, 1032, 3030, 3027, 6864, 3064, 3056, 3067, 8613, 9025, 8615
6772, 1071, 1072, 3402, 6837, 1078, 8204, 8185, 7510, 7509, 8876
6773, 3697, 3677, 3649, 6875, 3880, 3881, 3796, 9451, 9453, 9452
6774, 4142, 1757, 4136, 4895, 8956, 8424, 9454, 8957, 4941, 9455
6775, 801, 899, 3407, 2844, 2756, 7602, 9456, 9457, 2934, 8495
6776, 4696, 4542, 6816, 6856, 7430, 8261, 7544, 7806, 8936, 7695
6777, 4966, 302, 4076, 303, 4990, 9458, 9459, 4989, 1798, 9460
6778, 748, 53, 85, 2264, 2676, 829, 749, 8518, 2353, 7657
6779, 6355, 6356, 6357, 516, 6415, 6388, 6414, 8740, 8460, 8461
6780, 5596, 5594, 5787, 2062, 5713, 7433, 7095, 5740, 5737, 7815
6781, 1029, 796, 2271, 649, 7310, 8334, 8101, 8102, 9358, 8104
6782, 3670, 3718, 3695, 6848, 3962, 3964, 3956, 9280, 8835, 8836
6783, 794, 891, 2851, 793, 2758, 2891, 9439, 803, 2759, 8978
6784, 1413, 5607, 1412, 1432, 9387, 8555, 1422, 4272, 5647, 4273
6785, 6424, 351, 2022, 6439, 6585, 2024, 9461, 6591, 6590, 7836
6786, 5798, 2110, 5783, 6844, 8568, 9462, 5846, 7893, 9037, 9463
6787, 5973, 5956, 1414, 1948, 6017, 9464, 9465, 8210, 8211, 8709
6788, 763, 49, 48, 867, 2677, 539, 2678, 8678, 8677, 9466
6789, 5600, 5877, 5883, 6829, 9055, 5950, 8038, 8041, 9256, 8043
6790, 631, 111, 800, 801, 9430, 9407, 2641, 2642, 9210, 810
6791, 864, 2275, 2299, 6893, 9172, 2472, 8367, 8370, 8545, 7671
6792, 433, 424, 243, 6849, 2186, 9467, 9276, 9278, 9468, 8339
6793, 2300, 2266, 2288, 6855, 2438, 2509, 2525, 8022, 8689, 7232
6794, 1950, 5965, 2035, 1949, 7021, 5991, 5581, 1956, 9291, 5582
6795, 1950, 2036, 5967, 1951, 5584, 5994, 8199, 1957, 5583, 8304
6796, 1127, 1071, 1072, 3402, 3626, 1078, 3625, 3453, 8185, 8204
6797, 1415, 1414, 5618, 6890, 1424, 9121, 9469, 9470, 8913, 9117
6798, 3665, 3703, 3666, 6825, 3929, 3934, 3947, 8966, 7719, 8674
6799, 2035, 5967, 5965, 1950, 5993, 5995, 5991, 5581, 8199, 7021
6800, 3655, 6842, 3668, 6892, 8331, 7793, 3913, 8682, 8961, 7832
6801, 245, 5068, 6116, 6825, 5071, 8858, 9471, 7979, 8943, 8944
6802, 5319, 5320, 1938, 6833, 5330, 5323, 5327, 9472, 8963, 9473
6803, 794, 793, 110, 623, 803, 9063, 9440, 2628, 2626, 9474
6804, 6112, 4894, 6105, 6868, 9475, 8384, 6238, 7702, 8114, 8385
6805, 3703, 3656, 6825, 6895, 3896, 7675, 7719, 7883, 7699, 8512
6806, 6357, 515, 2272, 516, 9077, 2403, 7984, 8461, 519, 2404
6807, 2274, 2297, 854, 6888, 2462, 8744, 9084, 8300, 8126, 9086
6808, 852, 572, 2256, 851, 2715, 2449, 8741, 858, 2717, 7374
6809, 4694, 272, 4686, 6838, 4740, 4742, 4744, 7292, 8731, 7705
6810, 1130, 1074, 1075, 3409, 3631, 1081, 3622, 3462, 8201, 8639
6811, 297, 295, 6092, 6820, 1791, 6242, 6241, 8469, 8807, 7776
6812, 1951, 2107, 5970, 5967, 7683, 8626, 8303, 8304, 9301, 6034
6813, 3278, 1032, 1101, 1102, 7258, 3587, 3336, 3337, 3589, 1108
6814, 2109, 5605, 5599, 2061, 8888, 5705, 8642, 6072, 5736, 5734
6815, 991, 2849, 1115, 2843, 2980, 8747, 3392, 2978, 2957, 8499
6816, 882, 2301, 59, 3151, 9476, 2369, 9477, 9478, 9381, 9382
6817, 896, 897, 799, 2861, 906, 2772, 2768, 2918, 2917, 8861
6818, 3110, 97, 2276, 868, 7018, 7016, 7017, 9098, 875, 9479
6819, 1948, 2034, 5956, 1949, 5580, 5988, 8211, 1955, 5579, 9480
6820, 3402, 1127, 3410, 1072, 3453, 3455, 3457, 8204, 3625, 8203
6821, 3492, 2839, 2841, 989, 7261, 2971, 8417, 8001, 2961, 2969
6822, 2075, 5872, 5600, 5877, 5927, 8352, 5757, 5923, 5928, 9055
6823, 1073, 1129, 3403, 1074, 3629, 3459, 8251, 1080, 3630, 8200
6824, 3672, 3675, 3718, 6848, 3971, 3973, 3963, 8658, 8837, 8835
6825, 1073, 3410, 1128, 1072, 8252, 3456, 3627, 1079, 8203, 3628
6826, 1949, 5965, 2034, 5956, 9291, 5990, 5579, 9480, 5992, 5988
6827, 3632, 1117, 1116, 6893, 3635, 1123, 3639, 8271, 8547, 8605
6828, 1591, 1172, 131, 3690, 6145, 1176, 6146, 9051, 3822, 3821
6829, 1801, 362, 2106, 6847, 9049, 2112, 8078, 8465, 7421, 8018
6830, 748, 54, 53, 2264, 2675, 544, 2676, 8518, 2354, 2353
6831, 273, 272, 5295, 6838, 1699, 5297, 5296, 9003, 8731, 9005
6832, 5966, 5972, 5969, 5965, 6036, 6040, 6030, 9481, 6019, 6038
6833, 766, 48, 3113, 80, 2673, 9428, 9426, 768, 828, 9482
6834, 1704, 1944, 5366, 5023, 9483, 5373, 9242, 8320, 8766, 7808
6835, 1780, 1756, 1755, 6126, 4939, 1762, 4940, 6185, 8842, 8634
6836, 6357, 2272, 2293, 516, 7984, 2408, 8713, 8461, 2404, 2409
6837, 2839, 3364, 988, 989, 7599, 3377, 2960, 2961, 3376, 995
6838, 5595, 2059, 6045, 2058, 5717, 6056, 7639, 5716, 2065, 6057
6839, 1128, 3403, 3410, 1073, 3458, 3460, 3456, 3627, 8251, 8252
6840, 6115, 6091, 167, 4106, 6164, 6163, 6159, 8945, 9059, 4111
6841, 3208, 1057, 3191, 1116, 8074, 8073, 3257, 8446, 7877, 9366
6842, 742, 56, 55, 2258, 2667, 546, 2668, 8898, 2360, 2359
6843, 6123, 1415, 1578, 6890, 9484, 9485, 8938, 8940, 9470, 8939
6844, 1045, 1143, 3501, 1046, 3601, 3549, 8396, 1052, 3602, 8588
6845, 1060, 1059, 3201, 1087, 1066, 9375, 9486, 3615, 3616, 3249
6846, 416, 407, 406, 6849, 2175, 410, 2176, 8439, 8438, 9217
6847, 2266, 3027, 840, 839, 8809, 8683, 8810, 9285, 9284, 846
6848, 1754, 1753, 287, 285, 1760, 4912, 4911, 7945, 7944, 1750
6849, 6453, 6427, 6486, 6832, 6662, 6664, 6663, 8795, 8781, 8779
6850, 228, 1658, 227, 6879, 1659, 4634, 1537, 9234, 8929, 9487
6851, 263, 4684, 1840, 310, 4715, 9488, 5264, 9073, 9072, 1843
6852, 398, 390, 389, 6887, 2162, 393, 2163, 9489, 9423, 8109
6853, 398, 399, 390, 6887, 402, 2160, 2162, 9489, 9424, 9423
6854, 3507, 3501, 1046, 1113, 3572, 8588, 8590, 8866, 9361, 7620
6855, 5615, 5432, 5620, 6897, 7427, 8291, 5704, 8420, 8418, 9207
6856, 15, 6812, 13, 6876, 9490, 8868, 432, 9491, 8872, 8870
6857, 1030, 1029, 3700, 649, 1036, 7993, 7994, 9492, 8102, 9493
6858, 1084, 3199, 1056, 1057, 3240, 7122, 3610, 3609, 8072, 1063
6859, 1140, 3499, 1042, 1043, 3540, 9389, 3596, 3595, 9494, 1049
6860, 1098, 3286, 1028, 1029, 3325, 6968, 3582, 3581, 7090, 1035
6861, 6105, 172, 4130, 1781, 6174, 4131, 8383, 6179, 6178, 8340
6862, 1070, 1126, 3411, 1071, 3624, 3450, 8493, 1077, 3623, 7534
6863, 2861, 798, 2858, 6894, 9364, 9495, 2923, 8833, 9365, 8423
6864, 2061, 6047, 5604, 2060, 6065, 9288, 5729, 2067, 6066, 5728
6865, 255, 1658, 256, 6871, 4636, 1660, 1661, 9496, 7910, 9497
6866, 255, 1654, 1658, 6871, 1656, 4635, 4636, 9496, 7911, 7910
6867, 303, 1987, 5879, 1799, 5529, 5891, 9498, 1805, 5530, 9499
6868, 1170, 6135, 3682, 1171, 6262, 9336, 3832, 1174, 6263, 3831
6869, 245, 244, 6808, 6812, 1608, 9500, 8764, 7976, 8673, 9188
6870, 6128, 6112, 6105, 6868, 6333, 6238, 6176, 8487, 7702, 8385
6871, 416, 406, 415, 6849, 2176, 2172, 419, 8439, 9217, 9443
6872, 5440, 5598, 5619, 1961, 7013, 5698, 7903, 5454, 5697, 5694
6873, 3029, 3700, 1029, 649, 7992, 7993, 3061, 8103, 9493, 8102
6874, 1991, 5875, 1803, 1992, 5910, 8387, 5538, 1998, 5911, 5540
6875, 1754, 1418, 5789, 5617, 9501, 9134, 7344, 7346, 9136, 6922
6876, 227, 1658, 1654, 6879, 4634, 4635, 1655, 9487, 8929, 9128
6877, 5874, 362, 1802, 5882, 9502, 7565, 8578, 5938, 9214, 8579
6878, 47, 766, 3113, 79, 2674, 9426, 9427, 826, 767, 9503
6879, 645, 1070, 3156, 6477, 8895, 3163, 7990, 9504, 9505, 9009
6880, 2274, 3068, 854, 853, 8299, 9085, 9084, 9506, 9248, 860
6881, 523, 3716, 2298, 2290, 3766, 8920, 2412, 2307, 8921, 2414
6882, 2074, 5877, 5609, 5871, 5924, 9105, 5751, 5920, 5925, 9106
6883, 3361, 3418, 115, 2853, 8254, 9013, 3368, 9032, 8973, 9224
6884, 6358, 6355, 6357, 516, 6379, 6414, 6403, 8739, 8740, 8461
6885, 3651, 3653, 3654, 6895, 3874, 3893, 3892, 7881, 7496, 7274
6886, 3706, 6817, 6842, 6895, 7550, 8433, 7229, 7495, 8574, 8467
6887, 5970, 2107, 2059, 6852, 8626, 6062, 8815, 7539, 7756, 8935
6888, 3199, 1057, 3208, 1116, 8072, 8074, 3259, 8506, 7877, 8446
6889, 1144, 1046, 3496, 1143, 3603, 8589, 3552, 1150, 3602, 3551
6890, 3196, 1088, 1060, 1087, 3252, 3617, 9507, 3251, 1094, 3615
6891, 1991, 1802, 5870, 1990, 5539, 8580, 5908, 1997, 5536, 5907
6892, 8, 399, 10, 6828, 2159, 403, 404, 9326, 9508, 8570
6893, 399, 8, 390, 6828, 2159, 394, 2160, 9508, 9326, 9509
6894, 4682, 4662, 4683, 6865, 4811, 4759, 4812, 7148, 7107, 9014
6895, 1686, 4684, 263, 6823, 4716, 4715, 1688, 7971, 9076, 9074
6896, 5609, 6041, 362, 5882, 9221, 6048, 9220, 9107, 8720, 9214
6897, 1031, 1032, 1101, 3282, 1038, 3587, 3588, 9410, 9510, 3334
6898, 2033, 1947, 1948, 5962, 5577, 1954, 5578, 5985, 9411, 8212
6899, 1099, 3283, 1029, 1030, 3328, 8186, 3583, 3584, 9511, 1036
6900, 6449, 6469, 6861, 6862, 6756, 9406, 9200, 7113, 7114, 9512
6901, 2275, 2269, 2299, 6893, 2501, 2385, 2472, 8545, 7767, 7671
6902, 571, 572, 850, 2261, 578, 2714, 2712, 2445, 2444, 8393
6903, 6044, 2106, 5603, 6836, 6054, 8782, 9513, 9035, 7503, 8838
6904, 524, 3700, 3029, 649, 3775, 7992, 8937, 9225, 9493, 8103
6905, 4130, 4124, 171, 6105, 8476, 4125, 4135, 8383, 8477, 6175
6906, 181, 4190, 6119, 6094, 4195, 9514, 6198, 6202, 9515, 6203
6907, 299, 301, 4964, 1802, 1797, 4983, 7879, 7878, 4982, 4984
6908, 3191, 1057, 1085, 1058, 8073, 3612, 3243, 7545, 1064, 3611
6909, 1043, 1141, 3491, 1044, 3597, 3543, 9414, 1050, 3598, 9516
6910, 1566, 1712, 5353, 4293, 4765, 5387, 9517, 8319, 7969, 7970
6911, 4196, 1395, 141, 1417, 4199, 1397, 4200, 9518, 9520, 9519
6912, 1004, 3406, 3412, 2853, 3439, 3444, 3443, 2995, 9124, 8972
6913, 299, 301, 300, 6815, 1797, 1795, 4957, 8521, 9273, 9272
6914, 993, 3361, 106, 2853, 3373, 3369, 1000, 2882, 9032, 2883
6915, 41, 784, 42, 6864, 2650, 2649, 532, 9521, 9522, 8814
6916, 273, 6815, 4686, 6838, 8379, 7731, 4743, 9003, 8069, 7705
6917, 1832, 1839, 1944, 5363, 5063, 9523, 8601, 8602, 9352, 5372
6918, 2839, 3500, 1019, 2860, 7260, 3535, 3008, 2963, 7517, 3009
6919, 836, 835, 2277, 3032, 842, 9270, 8151, 8152, 9178, 8123
6920, 5366, 1714, 278, 1704, 5370, 1721, 5371, 9242, 4762, 4761
6921, 6096, 299, 297, 6820, 6244, 1794, 6245, 7039, 8537, 8469
6922, 5599, 5432, 5444, 6897, 8292, 5489, 8976, 7982, 8418, 9524
6923, 852, 2277, 2296, 6889, 9206, 2428, 8932, 8743, 8124, 7855
6924, 3403, 1074, 1129, 3409, 8200, 3630, 3459, 3463, 8201, 3461
6925, 1059, 3197, 1086, 1058, 9322, 3246, 3613, 1065, 7135, 3614
6926, 1142, 1044, 1045, 3497, 3600, 1051, 3599, 3546, 8560, 7056
6927, 1045, 6901, 2862, 6902, 7132, 8864, 7060, 8553, 9177, 8552
6928, 73, 784, 41, 6864, 785, 2650, 813, 9525, 9522, 9521
6929, 1188, 1189, 137, 1415, 1200, 4023, 4022, 4253, 4254, 9526
6930, 3281, 2843, 2849, 980, 7168, 2957, 8748, 3300, 2958, 2877
6931, 3416, 2844, 3412, 6830, 7626, 8982, 3486, 7631, 7629, 8974
6932, 1335, 4124, 152, 6868, 4127, 4126, 1336, 9527, 8478, 8649
6933, 6477, 3156, 645, 552, 9009, 7990, 9504, 6553, 8025, 9182
6934, 2848, 3367, 990, 991, 9528, 3386, 2972, 2973, 3385, 997
6935, 57, 89, 736, 2263, 821, 737, 2660, 2365, 7221, 8700
6936, 225, 6879, 6822, 6880, 9529, 9530, 9531, 9532, 9534, 9533
6937, 1074, 3150, 1075, 801, 3190, 3189, 1081, 8641, 9535, 8640
6938, 5594, 5794, 2045, 5787, 7432, 5807, 5708, 7433, 5829, 5828
6939, 1832, 335, 136, 5365, 7468, 9536, 9537, 8603, 5376, 8761
6940, 6127, 6110, 177, 4166, 6191, 6190, 6186, 8127, 8128, 4171
6941, 2846, 3420, 3414, 6837, 8484, 3490, 9294, 9538, 9151, 9115
6942, 3711, 3691, 3649, 6831, 3884, 3799, 3882, 9145, 8586, 9147
6943, 2275, 863, 3114, 864, 9275, 9274, 9120, 9172, 870, 8959
6944, 1099, 3283, 1030, 3276, 3328, 9511, 3584, 3330, 3332, 9539
6945, 798, 1032, 2859, 6894, 9540, 7256, 8426, 9365, 7746, 7747
6946, 112, 93, 98, 6477, 9541, 9542, 9017, 9543, 6552, 9544
6947, 106, 2852, 3365, 988, 2880, 8954, 3370, 994, 2881, 3372
6948, 3507, 1113, 989, 6860, 8866, 3382, 8000, 8002, 7619, 8004
6949, 6044, 2106, 2058, 5603, 6054, 6058, 6052, 9513, 8782, 5721
6950, 1979, 5790, 1756, 1757, 5824, 8413, 5526, 5517, 8231, 1763
6951, 4672, 4683, 5360, 6865, 4785, 9545, 8190, 7824, 9014, 8086
6952, 2842, 2863, 3287, 975, 2950, 8377, 8164, 2949, 2946, 3298
6953, 1412, 5603, 5607, 6836, 9546, 5652, 8555, 8215, 8838, 7442
6954, 1704, 1714, 4683, 5023, 4762, 4772, 4758, 8320, 8901, 8824
6955, 880, 2275, 2295, 6886, 9056, 2468, 9180, 8482, 8544, 7717
6956, 2847, 3365, 988, 1112, 9415, 3372, 2965, 8507, 3374, 3378
6957, 891, 794, 2851, 892, 2758, 9439, 2891, 901, 2760, 2890
6958, 1432, 1433, 1413, 5607, 1442, 4275, 4272, 5647, 5646, 9387
6959, 3680, 1, 4, 6858, 3721, 378, 3722, 9012, 9236, 9175
6960, 6139, 6825, 6116, 6858, 7978, 8944, 6223, 8266, 8267, 9547
6961, 2273, 515, 2272, 6359, 2309, 2403, 2405, 8458, 8726, 8968
6962, 1658, 228, 229, 6877, 1659, 1541, 4637, 8928, 9233, 9548
6963, 41, 787, 73, 6864, 2645, 789, 813, 9521, 9549, 9525
6964, 2033, 5956, 5962, 1948, 5987, 5989, 5985, 5578, 8211, 8212
6965, 6458, 2121, 2120, 6133, 6611, 2124, 6612, 9201, 6302, 6299
6966, 3286, 1098, 3283, 1029, 3325, 3327, 3329, 7090, 3581, 8186
6967, 4885, 268, 5320, 6833, 8260, 5321, 9550, 7635, 8893, 8963
6968, 1662, 257, 256, 6869, 1664, 1665, 4639, 9551, 9553, 9552
6969, 297, 296, 294, 6838, 1789, 1790, 4955, 9154, 9155, 9332
6970, 6447, 6449, 6839, 6862, 6744, 9554, 7997, 8623, 7113, 8264
6971, 1031, 614, 67, 3031, 8456, 615, 9555, 3062, 8274, 9211
6972, 301, 299, 1803, 1802, 1797, 8688, 4981, 4982, 7878, 1809
6973, 3411, 1126, 3402, 1071, 3450, 3452, 3454, 7534, 3623, 8185
6974, 3669, 3688, 3655, 6892, 3917, 3909, 3915, 7833, 8005, 8682
6975, 1031, 3282, 1100, 3276, 9410, 3333, 3586, 9556, 3335, 3331
6976, 4693, 4659, 4884, 4692, 4735, 7712, 8421, 4795, 4794, 7713
6977, 3193, 104, 2830, 3202, 3209, 2873, 7935, 3216, 3214, 7934
6978, 1951, 2036, 5967, 5960, 5583, 5994, 8304, 8055, 5996, 5998
6979, 40, 787, 41, 6864, 2646, 2645, 531, 9024, 9549, 9521
6980, 1415, 1434, 1435, 5618, 4277, 1444, 4279, 9469, 5659, 5658
6981, 1434, 1415, 1414, 5618, 4277, 1424, 4276, 5659, 9469, 9121
6982, 1658, 229, 1662, 6877, 4637, 1663, 4638, 8928, 9548, 9190
6983, 1116, 1115, 3632, 6893, 1122, 3638, 3639, 8605, 7477, 8271
6984, 167, 4100, 6115, 4106, 4101, 8947, 6159, 4111, 8946, 8945
6985, 1057, 1084, 3199, 3191, 3609, 3240, 8072, 8073, 3242, 3244
6986, 3491, 3499, 1140, 1043, 3544, 3540, 3542, 9414, 9494, 3595
6987, 346, 1834, 345, 6807, 8514, 9103, 2012, 9557, 9296, 9295
6988, 6044, 2058, 357, 5608, 6052, 2064, 6050, 9061, 5637, 5636
6989, 5783, 1754, 5795, 6844, 9050, 7345, 5843, 9463, 8406, 8132
6990, 1059, 3197, 3201, 1086, 9322, 3250, 9375, 3613, 3246, 3248
6991, 3497, 1142, 3501, 1045, 3546, 3548, 3550, 7056, 3599, 8396
6992, 434, 425, 424, 6849, 2189, 428, 2190, 9374, 9558, 9468
6993, 433, 434, 424, 6849, 437, 2190, 2186, 9278, 9374, 9468
6994, 6471, 6819, 6443, 6861, 7177, 7126, 6666, 9314, 9559, 9316
6995, 110, 646, 793, 6863, 8527, 8825, 9063, 7331, 8100, 8135
6996, 6481, 6828, 6484, 6854, 7412, 8504, 6621, 6998, 7413, 8268
6997, 1365, 147, 4160, 1755, 1367, 4164, 4163, 9362, 9369, 8632
6998, 2089, 5964, 5616, 5595, 6012, 8240, 5765, 5764, 7348, 5719
6999, 364, 371, 363, 1454, 2140, 2137, 367, 9319, 8235, 9320
7000, 3027, 3030, 839, 6864, 3056, 9560, 9284, 8615, 9025, 9286
7001, 896, 799, 798, 2861, 2768, 808, 2769, 2918, 8861, 9364
7002, 4669, 4668, 4670, 6896, 4829, 4834, 4833, 7169, 8034, 8483
7003, 1056, 3362, 1117, 1116, 6937, 3401, 7303, 9561, 3398, 1123
7004, 1112, 3364, 1047, 1113, 3379, 7408, 7586, 1119, 3383, 9562
7005, 646, 2273, 6359, 6363, 9268, 8458, 6399, 6398, 7840, 6400
7006, 1582, 6104, 1581, 239, 9317, 7648, 1588, 4572, 6219, 4573
7007, 1756, 1978, 5785, 5790, 5525, 5821, 9563, 8413, 5823, 5825
7008, 3700, 37, 2265, 837, 3774, 2314, 8195, 9564, 9566, 9565
7009, 6443, 6483, 6428, 6861, 6669, 6668, 6667, 9316, 9567, 9315
7010, 1755, 6127, 6110, 1779, 8131, 6191, 8130, 4938, 6285, 6283
7011, 882, 2263, 3150, 881, 9568, 7130, 9569, 888, 9071, 8827
7012, 3712, 6845, 3657, 6892, 7738, 7423, 3925, 8007, 9400, 8006
7013, 1752, 1753, 2111, 6904, 1759, 9570, 7917, 9363, 8882, 7996
7014, 151, 1340, 4130, 1757, 1341, 4133, 4132, 9571, 9572, 8111
7015, 1033, 3028, 109, 1115, 3041, 3035, 1040, 8524, 7475, 8457
7016, 3191, 1085, 3197, 1058, 3243, 3245, 3247, 7545, 3611, 7135
7017, 3491, 3497, 1044, 1141, 3547, 8560, 9516, 3543, 3545, 3598
7018, 5596, 5588, 6042, 6844, 5739, 7593, 9573, 7894, 7595, 7594
7019, 372, 1454, 371, 364, 8236, 8235, 375, 2142, 9319, 2140
7020, 598, 878, 2297, 879, 2744, 9574, 2481, 2745, 885, 9168
7021, 295, 290, 4890, 4886, 1788, 4929, 7560, 9054, 4925, 4930
7022, 730, 60, 59, 3151, 2651, 550, 2652, 9575, 9576, 9382
7023, 4293, 5358, 5353, 1455, 7161, 5416, 7970, 4312, 8522, 7967
7024, 2855, 2845, 801, 6830, 2937, 9577, 8999, 7546, 8217, 9000
7025, 6134, 345, 1834, 6854, 9183, 9103, 6259, 9578, 9297, 9298
7026, 2062, 2110, 5798, 5596, 6077, 8568, 7814, 5740, 9413, 7094
7027, 3663, 6874, 6875, 6900, 7176, 9579, 7816, 8453, 8776, 8513
7028, 1153, 649, 3715, 648, 6405, 9143, 3830, 6404, 654, 9300
7029, 2018, 6809, 6832, 6885, 8092, 9580, 9581, 8490, 8194, 9582
7030, 6108, 6121, 6091, 6841, 6309, 6167, 6310, 8075, 8188, 9060
7031, 645, 646, 2127, 6494, 651, 6394, 6395, 9583, 9584, 6618
7032, 6041, 2063, 5609, 357, 6053, 5638, 9221, 6049, 2070, 5639
7033, 796, 1029, 6889, 6901, 7310, 9585, 8335, 9586, 7804, 7322
7034, 247, 248, 1627, 6870, 1626, 1629, 4612, 9587, 9110, 9111
7035, 6102, 6841, 6129, 6882, 8358, 8359, 6338, 8736, 9588, 8799
7036, 5970, 2107, 1951, 5960, 8626, 7683, 8303, 6033, 8627, 8055
7037, 238, 2109, 6047, 5444, 7466, 6074, 9360, 9359, 8890, 8428
7038, 306, 275, 4959, 1819, 1926, 8146, 5005, 1821, 5270, 4971
7039, 214, 220, 1627, 6878, 1505, 4610, 1628, 9108, 9589, 8237
7040, 3278, 1033, 1032, 1102, 7156, 1039, 7258, 3337, 3580, 3589
7041, 3663, 3652, 3696, 6875, 3897, 3790, 3871, 7816, 9590, 7818
7042, 1101, 1032, 3278, 3282, 3587, 7258, 3336, 3334, 9510, 3338
7043, 214, 6362, 189, 6878, 6372, 7872, 9591, 9108, 8238, 9592
7044, 6486, 6832, 6469, 6862, 8779, 8780, 6665, 7115, 9593, 7114
7045, 1826, 6120, 1804, 1825, 6155, 9350, 5012, 1828, 6287, 5011
7046, 1627, 1623, 247, 6870, 4611, 1625, 4612, 9111, 9594, 9587
7047, 2857, 1029, 796, 6901, 7088, 7310, 7308, 7803, 7804, 9586
7048, 3682, 6785, 1171, 1454, 9337, 9595, 3831, 9596, 9597, 6268
7049, 3073, 2293, 849, 850, 8538, 9006, 8044, 8542, 8541, 856
7050, 1623, 1627, 220, 6878, 4611, 4610, 1624, 9598, 8237, 9589
7051, 4214, 1580, 1592, 1579, 9599, 4585, 9600, 9601, 1586, 4586
7052, 736, 58, 57, 2263, 2659, 548, 2660, 8700, 2366, 2365
7053, 6119, 6093, 6107, 6850, 6200, 6320, 6319, 9436, 8969, 8218
7054, 424, 425, 416, 6849, 428, 2184, 2182, 9468, 9558, 8439
7055, 424, 416, 415, 6849, 2182, 419, 2179, 9468, 8439, 9443
7056, 273, 4686, 272, 6838, 4743, 4742, 1699, 9003, 7705, 8731
7057, 1375, 4172, 144, 6840, 4175, 4174, 1376, 9228, 8687, 9191
7058, 880, 599, 2275, 2255, 2747, 2491, 9056, 8479, 2486, 2492
7059, 4190, 6119, 6094, 6850, 9514, 6203, 9515, 9419, 9436, 8096
7060, 839, 2281, 2266, 6864, 9602, 2435, 9285, 9286, 9204, 8366
7061, 1781, 6105, 288, 4894, 6179, 6236, 1785, 4922, 8384, 4919
7062, 2835, 2853, 3412, 6830, 3000, 8972, 9603, 9604, 8975, 8974
7063, 6821, 6871, 253, 6872, 7352, 9605, 9606, 9607, 9609, 9608
7064, 254, 1654, 255, 6871, 4633, 1656, 1657, 9610, 7911, 9496
7065, 254, 1650, 1654, 6871, 1652, 4632, 4633, 9610, 9611, 7911
7066, 2840, 964, 3198, 3205, 2942, 3229, 8471, 8611, 3224, 3231
7067, 1002, 3408, 3414, 2846, 3433, 3438, 3437, 2990, 8485, 9294
7068, 1582, 2109, 5444, 6897, 7588, 8890, 9612, 8992, 8054, 9524
7069, 227, 1650, 226, 6879, 4631, 1651, 1533, 9487, 9149, 9613
7070, 227, 1654, 1650, 6879, 1655, 4632, 4631, 9487, 9128, 9149
7071, 1072, 115, 1112, 6888, 9007, 1118, 7676, 7886, 8326, 7678
7072, 6099, 6826, 6100, 6850, 8415, 8206, 6306, 8219, 9346, 8520
7073, 1802, 6041, 2111, 6829, 8721, 6055, 7940, 8723, 8724, 8430
7074, 3663, 6874, 3717, 6875, 7176, 7174, 3899, 7816, 9579, 9304
7075, 299, 300, 298, 6815, 4957, 1796, 1792, 8521, 9272, 9614
7076, 349, 6423, 6422, 6819, 6583, 6582, 6581, 9615, 7501, 7507
7077, 3646, 3696, 120, 1615, 3787, 3786, 3784, 8548, 8598, 4606
7078, 1757, 1781, 4136, 4895, 4944, 8343, 8424, 4941, 4945, 9455
7079, 5365, 136, 1833, 1211, 8761, 9616, 8666, 8760, 1213, 9390
7080, 6119, 4184, 180, 6093, 9435, 4189, 6199, 6200, 9305, 6195
7081, 2295, 2275, 863, 6886, 2468, 9275, 8767, 7717, 8544, 9026
7082, 1754, 6826, 5617, 6844, 8404, 9347, 7346, 8406, 8407, 8425
7083, 1375, 145, 4172, 6840, 1377, 4176, 4175, 9228, 9617, 8687
7084, 212, 126, 243, 6831, 1486, 4601, 1606, 9095, 9096, 9618
7085, 93, 61, 98, 6477, 815, 9619, 9542, 6552, 6551, 9544
7086, 435, 6807, 444, 6828, 9620, 9621, 2195, 9622, 9624, 9623
7087, 2860, 3494, 1019, 2831, 7515, 3515, 3009, 3010, 7849, 2887
7088, 1580, 1592, 6125, 4214, 4585, 6213, 7662, 9599, 9600, 9625
7089, 46, 45, 772, 6898, 536, 2666, 2665, 8829, 9627, 9626
7090, 5306, 4888, 5305, 6838, 9380, 9628, 5315, 8732, 7847, 9368
7091, 3205, 992, 1116, 6866, 8998, 3397, 8445, 8447, 9384, 7819
7092, 1046, 1144, 3496, 1047, 3603, 3552, 8589, 1053, 3594, 7167
7093, 3196, 1088, 1061, 1060, 3252, 3608, 9629, 9507, 3617, 1067
7094, 166, 4100, 6106, 6115, 4105, 9630, 6156, 6160, 8947, 6161
7095, 727, 93, 98, 112, 729, 9542, 9018, 9016, 9541, 9017
7096, 6464, 6490, 6460, 6843, 6780, 6628, 6782, 9292, 8628, 9247
7097, 6104, 1593, 1581, 239, 6220, 4574, 7648, 6219, 1597, 4573
7098, 3501, 1143, 3496, 1046, 3549, 3551, 3553, 8588, 3602, 8589
7099, 3201, 3196, 1060, 1087, 3253, 9507, 9486, 3249, 3251, 3615
7100, 2037, 5960, 1951, 1952, 5997, 8055, 5585, 5576, 7924, 1958
7101, 2304, 2289, 46, 6898, 2341, 2337, 2339, 8401, 9240, 8829
7102, 6473, 6839, 6445, 6853, 7215, 7387, 6735, 7446, 9631, 9048
7103, 294, 295, 297, 6838, 1786, 1791, 4955, 9332, 9333, 9154
7104, 6427, 6453, 6475, 6832, 6662, 6661, 6574, 8781, 8795, 8856
7105, 835, 95, 3033, 910, 841, 8363, 8804, 2777, 2776, 3038
7106, 59, 730, 3151, 91, 2652, 9575, 9382, 817, 731, 9632
7107, 479, 488, 6356, 6355, 2232, 9089, 8798, 9058, 9340, 6415
7108, 6448, 6450, 6449, 6862, 6749, 6748, 6745, 8624, 8280, 7113
7109, 129, 3644, 3645, 6817, 3809, 3815, 3814, 9633, 7549, 7280
7110, 3288, 1115, 109, 3281, 8525, 8457, 9634, 3305, 8526, 9635
7111, 3493, 108, 2850, 3502, 3509, 2885, 7064, 3516, 3514, 9636
7112, 5433, 5436, 5441, 6899, 5496, 5492, 5511, 7650, 7651, 9637
7113, 1670, 232, 1674, 6824, 4646, 1675, 4647, 9138, 9638, 9139
7114, 6082, 2111, 2110, 6904, 6085, 2117, 6089, 7799, 7996, 8695
7115, 1947, 1211, 5361, 1948, 8762, 8909, 5399, 1954, 9639, 5398
7116, 1454, 1212, 137, 5356, 8234, 1215, 9640, 7623, 7876, 8846
7117, 98, 882, 2302, 3151, 889, 9641, 9642, 9020, 9478, 9643
7118, 257, 1666, 258, 6869, 4642, 1668, 1669, 9553, 9645, 9644
7119, 257, 1662, 1666, 6869, 1664, 4641, 4642, 9553, 9551, 9645
7120, 44, 775, 45, 6898, 2662, 2661, 535, 8979, 8346, 9627
7121, 79, 47, 769, 3113, 826, 2669, 771, 9503, 9427, 9646
7122, 6470, 6843, 6455, 6862, 8630, 8669, 6771, 7029, 9647, 7031
7123, 6090, 6098, 283, 6826, 6229, 6228, 6224, 8208, 8573, 8247
7124, 892, 3502, 1014, 3495, 9648, 3513, 2899, 7255, 3523, 3522
7125, 1962, 5613, 5619, 6899, 5699, 5700, 5695, 8434, 9649, 8435
7126, 6356, 6355, 497, 516, 6415, 9379, 9042, 8460, 8740, 9044
7127, 2106, 5616, 2058, 5603, 8223, 5718, 6058, 8782, 5722, 5721
7128, 1112, 988, 2847, 2860, 3378, 2965, 8507, 8138, 2962, 2966
7129, 5366, 278, 1944, 1704, 5371, 1945, 5373, 9242, 4761, 9483
7130, 1933, 272, 5306, 6838, 1934, 5307, 5310, 9367, 8731, 8732
7131, 45, 77, 772, 6898, 822, 773, 2666, 9627, 9377, 9626
7132, 3663, 3717, 3652, 6875, 3899, 3898, 3897, 7816, 9304, 9590
7133, 5870, 5875, 1803, 1991, 5912, 8387, 8386, 5908, 5910, 5538
7134, 229, 230, 1666, 6877, 1545, 1667, 4640, 9548, 9650, 9197
7135, 1662, 229, 1666, 6877, 1663, 4640, 4641, 9190, 9548, 9197
7136, 3714, 3660, 3659, 6876, 3930, 3921, 3931, 9651, 9125, 9652
7137, 2845, 3361, 993, 2853, 9653, 3373, 2988, 2987, 9032, 2882
7138, 1755, 1779, 1780, 6126, 4938, 1783, 4940, 8634, 6282, 6185
7139, 730, 60, 3151, 92, 2651, 9576, 9575, 732, 814, 9654
7140, 95, 100, 109, 3033, 2775, 1027, 7757, 8363, 3037, 3036
7141, 98, 103, 112, 3156, 2817, 1069, 9017, 9655, 3160, 3159
7142, 98, 112, 103, 3151, 9017, 1069, 2817, 9020, 3158, 3157
7143, 109, 100, 95, 3028, 1027, 2775, 7757, 3035, 3034, 7669
7144, 273, 1930, 6815, 6838, 1931, 8312, 8379, 9003, 9004, 8069
7145, 42, 784, 74, 6864, 2649, 786, 816, 8814, 9522, 9656
7146, 2108, 1577, 4543, 238, 7324, 4550, 7783, 9208, 1583, 4562
7147, 3507, 1046, 3496, 1113, 8590, 8589, 3571, 8866, 7620, 8867
7148, 248, 308, 6365, 6870, 9657, 9262, 6382, 9110, 9264, 9109
7149, 2267, 64, 97, 583, 2396, 862, 8443, 2395, 589, 2721
7150, 1802, 5874, 5870, 1990, 8578, 5909, 8580, 5536, 5905, 5907
7151, 769, 47, 46, 3113, 2669, 537, 2670, 9646, 9427, 8828
7152, 2256, 2277, 573, 852, 2454, 2453, 2448, 8741, 9206, 2716
7153, 5885, 362, 1801, 5874, 8849, 9049, 9027, 5931, 9502, 9029
7154, 39, 790, 40, 3030, 2644, 2643, 530, 9068, 9658, 9022
7155, 5601, 2063, 5609, 6041, 5744, 5638, 5743, 9659, 6053, 9221
7156, 3687, 3705, 3704, 6858, 3948, 3843, 3945, 9011, 9257, 9660
7157, 1171, 6135, 3682, 1454, 6263, 9336, 3831, 6268, 6267, 9596
7158, 877, 98, 3156, 949, 883, 9655, 7035, 2819, 2818, 3161
7159, 45, 775, 77, 6898, 2661, 777, 822, 9627, 8346, 9377
7160, 6128, 4118, 170, 6095, 8496, 4119, 6172, 6173, 8180, 6168
7161, 96, 923, 3074, 849, 2790, 3079, 7362, 855, 2791, 7716
7162, 1754, 1779, 1755, 6109, 4915, 4938, 1761, 9212, 6233, 9403
7163, 1834, 344, 2008, 5547, 6257, 2010, 6254, 9104, 5553, 5555
7164, 3701, 3684, 6891, 6900, 4004, 8305, 8306, 9156, 9157, 9661
7165, 6044, 1801, 2106, 6836, 9034, 8078, 6054, 9035, 7936, 7503
7166, 727, 61, 60, 98, 2647, 551, 2648, 9018, 9619, 9662
7167, 1733, 1580, 5430, 1732, 4879, 9663, 5468, 1739, 4876, 5467
7168, 6439, 6440, 6843, 6885, 6647, 9283, 7850, 7854, 8176, 7853
7169, 3688, 3655, 6892, 6895, 3909, 8682, 8005, 7273, 7860, 8962
7170, 1990, 1801, 5874, 1989, 5537, 9029, 5905, 1996, 5534, 5904
7171, 39, 614, 68, 3030, 2528, 616, 617, 9068, 8275, 9664
7172, 6479, 6138, 6480, 6854, 7942, 9665, 6615, 9666, 9667, 7000
7173, 1567, 1461, 1566, 4695, 4537, 4532, 1569, 4763, 8903, 4764
7174, 572, 852, 2256, 573, 2715, 8741, 2449, 579, 2716, 2448
7175, 4663, 267, 4690, 6833, 4725, 4727, 4729, 7813, 8894, 6991
7176, 838, 614, 38, 39, 8272, 2529, 9668, 9069, 2528, 529
7177, 4178, 180, 4184, 6093, 4179, 4189, 9306, 7740, 6195, 9305
7178, 3716, 2290, 35, 6900, 8921, 2306, 3767, 9266, 8442, 9265
7179, 281, 1734, 1582, 5444, 1741, 4871, 4867, 5448, 5452, 9612
7180, 266, 5332, 267, 6833, 5334, 5333, 1693, 9259, 9260, 8894
7181, 6047, 5604, 5605, 2061, 9288, 5630, 8887, 6065, 5729, 5736
7182, 6046, 5589, 2059, 6852, 8652, 5723, 6061, 8671, 8670, 8935
7183, 280, 279, 4540, 6816, 1727, 9669, 8660, 8659, 9670, 8389
7184, 6498, 6451, 6448, 6862, 6752, 6751, 6741, 7106, 8322, 8624
7185, 1208, 6468, 2119, 2131, 7395, 6560, 9671, 6794, 6558, 6610
7186, 352, 6474, 6424, 6885, 6592, 6594, 6587, 9672, 7998, 8019
7187, 111, 97, 102, 3115, 7103, 2803, 1055, 3118, 8444, 3119
7188, 110, 96, 101, 3074, 7327, 2789, 1041, 3077, 7362, 3078
7189, 1731, 1578, 5428, 1730, 4875, 9673, 5462, 1737, 4872, 5461
7190, 102, 97, 111, 3110, 2803, 7103, 1055, 3116, 7018, 3117
7191, 101, 96, 110, 3072, 2789, 7327, 1041, 3075, 8860, 3076
7192, 757, 51, 3110, 83, 2685, 8996, 8997, 759, 833, 9674
7193, 68, 790, 39, 3030, 791, 2644, 617, 9664, 9658, 9068
7194, 992, 2832, 3363, 6866, 2977, 7927, 3390, 9384, 8951, 7820
7195, 6483, 6447, 6459, 6861, 6733, 6746, 6670, 9567, 9198, 9199
7196, 5612, 1415, 5618, 6890, 9675, 9469, 5670, 9094, 9470, 9117
7197, 5319, 4885, 5320, 6833, 9676, 9550, 5330, 9472, 7635, 8963
7198, 2262, 597, 878, 2278, 2483, 2743, 8612, 2394, 2485, 8891
7199, 583, 97, 2267, 863, 2721, 8443, 2395, 2723, 869, 8768
7200, 1800, 304, 1801, 6903, 4998, 4997, 1807, 6913, 9102, 7937
7201, 4963, 304, 4962, 6903, 5003, 4995, 5004, 8466, 9102, 7810
7202, 6450, 6451, 6452, 6862, 6750, 6758, 6757, 8280, 8322, 7030
7203, 599, 879, 2255, 880, 2746, 9130, 2486, 2747, 886, 8479
7204, 599, 879, 598, 2255, 2746, 2745, 605, 2486, 9130, 2487
7205, 1991, 1802, 1803, 5870, 5539, 1809, 5538, 5908, 8580, 8386
7206, 1417, 6826, 5617, 6840, 9677, 9347, 9678, 8290, 9271, 9348
7207, 751, 52, 84, 3110, 2680, 831, 752, 8697, 8698, 9679
7208, 3280, 105, 2848, 3287, 3294, 2875, 9100, 3301, 3299, 8802
7209, 5609, 2074, 5871, 2073, 5751, 5920, 9106, 5750, 2080, 5921
7210, 3367, 2848, 2849, 991, 9528, 2879, 9680, 3385, 2973, 2980
7211, 284, 282, 285, 6833, 1746, 4882, 1745, 9402, 9372, 8282
7212, 1976, 1753, 5783, 1975, 5521, 8952, 5815, 1982, 5519, 5814
7213, 6820, 6841, 6102, 6882, 8620, 8358, 7038, 9226, 9588, 8736
7214, 727, 93, 61, 98, 729, 815, 2647, 9018, 9542, 9619
7215, 97, 863, 936, 3115, 869, 2805, 2804, 8444, 8769, 3120
7216, 3366, 2833, 989, 6860, 7862, 2967, 3381, 7906, 8819, 8004
7217, 137, 1455, 1454, 5356, 9079, 1458, 9640, 8846, 7968, 7623
7218, 1593, 1581, 6114, 6104, 4574, 7647, 6278, 6220, 7648, 6277
7219, 1803, 1825, 6111, 301, 4985, 6250, 7041, 4981, 1827, 6247
7220, 954, 3150, 953, 881, 3178, 3177, 960, 2829, 8827, 2827
7221, 6116, 3658, 3665, 6825, 8941, 3819, 7529, 8944, 7721, 8966
7222, 182, 6113, 4196, 6094, 6205, 8093, 4201, 6201, 6206, 8094
7223, 911, 835, 3032, 910, 2780, 9178, 3043, 917, 2777, 3042
7224, 285, 282, 283, 6833, 4882, 1742, 1747, 8282, 9372, 9373
7225, 96, 575, 2278, 854, 2705, 2391, 8859, 861, 2709, 8746
7226, 5437, 5442, 1436, 5431, 5503, 9681, 7120, 5485, 5504, 9682
7227, 4100, 4106, 156, 6841, 8946, 4110, 4102, 8949, 8950, 9683
7228, 40, 39, 3030, 2292, 530, 9068, 9022, 2319, 2318, 9021
7229, 1046, 1112, 1047, 1113, 8532, 7586, 1053, 7620, 1119, 9562
7230, 1057, 1056, 1117, 1116, 1063, 7303, 8511, 7877, 9561, 1123
7231, 5306, 292, 5305, 4888, 5309, 5314, 5315, 9380, 4934, 9628
7232, 6489, 6843, 6440, 6885, 9282, 9283, 6721, 7248, 7853, 8176
7233, 913, 837, 3031, 912, 2784, 9684, 3049, 919, 2781, 3048
7234, 287, 284, 4887, 286, 4883, 9401, 4907, 1748, 1749, 4906
7235, 2108, 5598, 5604, 2060, 8463, 5696, 9087, 6067, 5731, 5728
7236, 990, 1114, 2848, 2842, 3387, 8801, 2972, 2975, 8165, 2948
7237, 772, 78, 46, 6898, 774, 824, 2665, 9626, 9685, 8829
7238, 798, 6855, 1032, 6894, 9686, 8061, 9540, 9365, 7460, 7746
7239, 923, 3073, 849, 924, 3083, 8044, 2791, 930, 3084, 2794
7240, 1581, 6826, 1582, 6897, 8600, 8248, 1588, 8813, 8993, 8992
7241, 926, 851, 3069, 925, 2798, 7376, 3090, 932, 2795, 3089
7242, 292, 271, 4888, 5306, 1936, 7842, 4934, 5309, 5308, 9380
7243, 733, 91, 59, 3151, 735, 817, 2655, 9687, 9632, 9382
7244, 3720, 3709, 3692, 6891, 3854, 3988, 4006, 8307, 7932, 8865
7245, 3406, 1004, 1003, 2853, 3439, 1010, 3440, 9124, 2995, 2994
7246, 733, 59, 58, 3151, 2655, 549, 2656, 9687, 9382, 9383
7247, 51, 754, 52, 3110, 2684, 2683, 542, 8996, 9688, 8698
7248, 239, 4544, 280, 6883, 4571, 9689, 1728, 9342, 7403, 8661
7249, 1074, 3150, 801, 6857, 3190, 9535, 8641, 9131, 7139, 9001
7250, 1578, 6123, 1591, 1216, 8938, 6217, 4551, 9690, 9692, 9691
7251, 40, 790, 72, 3030, 2643, 792, 812, 9022, 9658, 9693
7252, 6124, 1412, 1800, 1799, 9420, 8213, 9101, 9425, 9694, 1806
7253, 2270, 2262, 597, 878, 2484, 2483, 2480, 7784, 8612, 2743
7254, 839, 838, 2292, 3030, 845, 9695, 9696, 9560, 8276, 9021
7255, 6115, 6130, 6129, 6882, 6354, 6351, 6313, 9697, 8735, 8799
7256, 836, 558, 2265, 2271, 2695, 2429, 7773, 7774, 2430, 2416
7257, 866, 939, 3113, 940, 2811, 3133, 8397, 2814, 946, 3134
7258, 5428, 1730, 1578, 5436, 5461, 4872, 9673, 5463, 5459, 9698
7259, 1802, 1803, 5870, 6829, 1809, 8386, 8580, 8723, 8042, 9181
7260, 6487, 6457, 6473, 6853, 6623, 6634, 6738, 9046, 9150, 7446
7261, 1117, 993, 3362, 2854, 3400, 3395, 3401, 7304, 2986, 7172
7262, 6043, 2111, 2063, 5610, 6081, 6080, 6075, 7024, 8158, 5742
7263, 3205, 3198, 2840, 6866, 3231, 8471, 8611, 8447, 7900, 9385
7264, 6485, 6430, 6832, 6885, 6681, 8857, 8796, 7363, 7393, 9582
7265, 5878, 5608, 5590, 6836, 8284, 5752, 9699, 9112, 9062, 9700
7266, 83, 754, 51, 3110, 755, 2684, 833, 9674, 9688, 8996
7267, 2109, 6047, 5605, 2061, 6074, 8887, 8888, 6072, 6065, 5736
7268, 42, 781, 43, 6864, 2654, 2653, 533, 8814, 9701, 9205
7269, 6786, 6458, 2120, 1833, 9702, 6612, 9703, 9704, 9705, 6298
7270, 3113, 47, 46, 2304, 9427, 537, 8828, 8399, 2340, 2339
7271, 1436, 5445, 5438, 5431, 9706, 5506, 7831, 9682, 5505, 5482
7272, 877, 3155, 950, 949, 7034, 3166, 2822, 2819, 3165, 956
7273, 3504, 1016, 3498, 2837, 3528, 3529, 3530, 8646, 2906, 8986
7274, 1115, 3367, 2849, 991, 3394, 9680, 8747, 3392, 3385, 2980
7275, 950, 878, 951, 3154, 2821, 2824, 957, 3168, 8668, 3169
7276, 953, 880, 3153, 952, 2828, 9179, 3175, 959, 2825, 3174
7277, 6479, 6426, 6436, 6854, 6659, 6646, 6579, 9666, 8577, 9166
7278, 5611, 289, 1419, 5586, 8372, 8371, 8373, 5688, 9708, 9707
7279, 6126, 6127, 1755, 1779, 6188, 8131, 8634, 6282, 6285, 4938
7280, 1779, 6110, 1755, 6840, 6283, 8130, 4938, 9194, 8676, 9404
7281, 1976, 1977, 5789, 1754, 1983, 5818, 5817, 5520, 5522, 7344
7282, 307, 6813, 308, 6861, 9709, 9710, 1830, 8497, 9711, 8118
7283, 882, 601, 65, 2302, 2739, 608, 2735, 9641, 2402, 2376
7284, 98, 882, 65, 2302, 889, 2735, 876, 9642, 9641, 2376
7285, 928, 3068, 927, 853, 3096, 3095, 934, 2801, 9248, 2799
7286, 912, 836, 3029, 911, 2782, 7772, 3046, 918, 2779, 3045
7287, 952, 879, 3152, 951, 2826, 9129, 3172, 958, 2823, 3171
7288, 3113, 866, 867, 2304, 8397, 873, 9712, 8399, 8398, 9713
7289, 1753, 4890, 4889, 6904, 4936, 4937, 4914, 8882, 8246, 7827
7290, 6429, 6827, 6819, 6854, 7091, 8224, 7055, 8328, 9193, 9167
7291, 3071, 852, 926, 927, 8931, 2797, 3092, 3093, 2800, 933
7292, 2852, 2834, 3414, 6837, 2996, 9714, 8357, 8955, 9715, 9115
7293, 941, 3109, 940, 867, 3137, 3136, 947, 2815, 8680, 2813
7294, 2279, 95, 62, 840, 8416, 834, 2381, 7963, 847, 2688
7295, 298, 296, 297, 6815, 1793, 1789, 4956, 9614, 9153, 9152
7296, 863, 936, 3114, 937, 2805, 3124, 9274, 2808, 943, 3125
7297, 355, 1952, 5971, 2037, 5572, 7923, 5976, 2044, 5576, 5980
7298, 914, 838, 3030, 913, 2786, 8276, 3052, 920, 2783, 3051
7299, 3692, 6874, 3679, 6891, 8449, 7790, 3993, 8865, 8749, 8874
7300, 1350, 1757, 150, 4142, 8232, 8233, 1352, 4145, 8956, 4146
7301, 4888, 4886, 294, 6838, 4933, 9331, 9716, 7847, 8013, 9332
7302, 1577, 1578, 1730, 5436, 1584, 4872, 4873, 7316, 9698, 5459
7303, 1335, 153, 4124, 6868, 1337, 4128, 4127, 9527, 9395, 8478
7304, 5434, 5428, 1731, 1579, 5466, 5462, 5464, 9717, 9718, 4874
7305, 2259, 2289, 2294, 6898, 2338, 2479, 2520, 7960, 9240, 8818
7306, 267, 1938, 5320, 6833, 1939, 5323, 5322, 8894, 9473, 8963
7307, 1833, 1832, 136, 5365, 1836, 9537, 9616, 8666, 8603, 8761
7308, 866, 865, 2294, 3111, 872, 8896, 9719, 9447, 8873, 8817
7309, 925, 850, 3070, 924, 2796, 8171, 3087, 931, 2793, 3086
7310, 6813, 6819, 345, 6861, 9092, 9329, 9327, 9711, 9559, 9720
7311, 6480, 6138, 6134, 6854, 9665, 6260, 9721, 7000, 9667, 9578
7312, 801, 2844, 1074, 6830, 9457, 7628, 8641, 9000, 7629, 7630
7313, 6454, 6485, 6832, 6885, 6773, 8796, 8794, 6933, 7363, 9582
7314, 915, 839, 3027, 914, 2787, 9284, 3055, 921, 2785, 3054
7315, 938, 864, 3112, 937, 2810, 8369, 3128, 944, 2807, 3127
7316, 939, 865, 3111, 938, 2812, 8873, 3131, 945, 2809, 3130
7317, 3685, 6835, 3686, 6891, 8662, 8663, 3857, 7931, 9722, 7933
7318, 4685, 1567, 1462, 235, 4700, 4536, 8690, 4699, 1570, 4535
7319, 1804, 160, 1300, 4965, 9723, 1302, 7692, 4994, 9318, 9161
7320, 6139, 246, 4589, 1610, 6222, 4600, 9045, 6221, 1612, 4599
7321, 6447, 6839, 6448, 6862, 7997, 7685, 6739, 8623, 8264, 8624
7322, 865, 3112, 864, 2279, 8143, 8369, 871, 8262, 7552, 8631
7323, 2062, 6042, 5596, 5588, 6070, 9573, 5740, 5733, 7593, 5739
7324, 6461, 6464, 6460, 6843, 6783, 6782, 6541, 9724, 9292, 9247
7325, 3675, 3686, 6848, 6891, 3986, 8834, 8837, 7270, 7933, 9137
7326, 3702, 3701, 3699, 6900, 4003, 4002, 3942, 9158, 9156, 9725
7327, 2837, 2841, 2862, 6860, 3006, 3019, 2907, 9726, 9132, 7870
7328, 1834, 1840, 1833, 6887, 5047, 5064, 1837, 7437, 9727, 8728
7329, 4892, 4887, 4893, 6834, 4947, 4952, 4951, 7718, 7796, 7391
7330, 798, 790, 72, 628, 9728, 792, 9729, 2637, 8753, 2549
7331, 733, 801, 90, 632, 9730, 9731, 734, 8752, 2625, 2589
7332, 6489, 6464, 6465, 6843, 6778, 6784, 6720, 9282, 9292, 9281
7333, 5794, 5586, 5610, 5594, 7485, 5767, 7486, 7432, 5710, 5741
7334, 629, 778, 798, 76, 8757, 9732, 2636, 2558, 780, 9733
7335, 381, 380, 389, 6887, 384, 2155, 2156, 9734, 8108, 8109
7336, 3150, 954, 882, 881, 3178, 2820, 9569, 8827, 2829, 888
7337, 335, 355, 5957, 5968, 5573, 5975, 9735, 9736, 5978, 5981
7338, 1977, 5785, 1755, 1978, 5820, 9737, 5523, 1984, 5821, 5524
7339, 3156, 112, 98, 6477, 3159, 9017, 9655, 9009, 9543, 9544
7340, 953, 880, 881, 3153, 2828, 887, 2827, 3175, 9179, 8656
7341, 835, 911, 3032, 836, 2780, 3043, 9178, 842, 2779, 8152
7342, 299, 1803, 6111, 301, 8688, 7041, 6248, 1797, 4981, 6247
7343, 389, 390, 381, 6887, 393, 2153, 2156, 8109, 9423, 9734
7344, 6811, 6814, 496, 6900, 9738, 9739, 9740, 9741, 9743, 9742
7345, 837, 836, 3029, 912, 843, 7772, 9744, 2781, 2782, 3046
7346, 4892, 4884, 4887, 6834, 4904, 4946, 4947, 7718, 7714, 7796
7347, 6355, 488, 6356, 497, 9340, 9089, 6415, 9379, 2240, 9042
7348, 5881, 5878, 5602, 6836, 5952, 9215, 8315, 8317, 9112, 8316
7349, 838, 837, 3031, 913, 844, 9684, 8273, 2783, 2784, 3049
7350, 52, 754, 84, 3110, 2683, 756, 831, 8698, 9688, 9679
7351, 840, 562, 2300, 2266, 2692, 2437, 7962, 8810, 2433, 2438
7352, 74, 781, 42, 6864, 782, 2654, 816, 9656, 9701, 8814
7353, 5019, 313, 312, 6873, 5050, 1846, 5051, 9745, 9747, 9746
7354, 850, 849, 3073, 924, 856, 8044, 8542, 2793, 2794, 3084
7355, 1754, 285, 6098, 6826, 7945, 6227, 9213, 8404, 9748, 8573
7356, 1754, 6826, 6109, 6840, 8404, 8571, 9212, 9349, 9271, 8675
7357, 498, 331, 329, 6809, 9749, 1867, 9750, 9751, 9308, 8090
7358, 851, 926, 3069, 852, 2798, 3090, 7376, 858, 2797, 8742
7359, 3697, 3708, 3677, 6875, 3900, 3995, 3880, 9451, 9302, 9453
7360, 238, 2108, 1577, 5439, 9208, 7324, 1583, 9752, 8875, 7315
7361, 575, 96, 2278, 63, 2705, 8859, 2391, 582, 848, 2390
7362, 6093, 4178, 179, 6131, 7740, 4183, 6196, 6197, 7741, 6192
7363, 1577, 1578, 5436, 6899, 1584, 9698, 7316, 8059, 9195, 7651
7364, 559, 2265, 37, 837, 2316, 2314, 2315, 2700, 9565, 9566
7365, 2862, 6860, 2833, 6901, 7870, 8819, 3020, 8864, 7201, 7864
7366, 287, 284, 285, 4887, 4883, 1745, 1750, 4907, 9401, 8281
7367, 1073, 3361, 115, 1117, 8255, 3368, 8625, 7461, 3375, 1124
7368, 3365, 1072, 115, 1112, 8348, 9007, 3371, 3374, 7676, 1118
7369, 3660, 3714, 3705, 6876, 3930, 3844, 3937, 9125, 9651, 9127
7370, 3710, 3688, 3669, 6892, 3957, 3917, 3958, 7916, 8005, 7833
7371, 3113, 866, 940, 867, 8397, 2814, 3134, 9712, 873, 2813
7372, 2832, 6866, 2861, 6894, 8951, 7899, 3015, 7929, 7369, 8833
7373, 850, 925, 3070, 851, 2796, 3087, 8171, 857, 2795, 8391
7374, 1455, 1415, 6123, 6890, 9753, 9484, 6216, 9118, 9470, 8940
7375, 6129, 6108, 6091, 6841, 6311, 6310, 6312, 8359, 8075, 9060
7376, 865, 939, 3111, 866, 2812, 3131, 8873, 872, 2811, 9447
7377, 1804, 1803, 5875, 1992, 1810, 8387, 9067, 5531, 5540, 5911
7378, 196, 4289, 195, 6881, 4321, 4320, 1468, 9754, 9756, 9755
7379, 15, 6845, 6812, 6876, 9757, 8853, 9490, 9491, 9758, 8872
7380, 4076, 302, 4965, 303, 9458, 4987, 9759, 9460, 1798, 4988
7381, 2022, 351, 6424, 2018, 2024, 6585, 9461, 5565, 5566, 9760
7382, 6492, 6419, 6487, 6853, 6625, 6622, 6626, 9038, 9039, 9046
7383, 950, 878, 3155, 877, 2821, 7785, 3166, 2822, 884, 7034
7384, 1988, 1989, 5868, 1800, 1995, 5902, 5901, 5532, 5535, 9761
7385, 879, 951, 878, 3154, 2823, 2824, 885, 9169, 3169, 8668
7386, 1753, 1975, 1752, 5791, 5519, 5518, 1759, 8302, 5812, 7220
7387, 5789, 1755, 1418, 1754, 9762, 9763, 9134, 7344, 1761, 9501
7388, 1582, 280, 283, 6826, 9764, 1744, 7590, 8248, 9765, 8247
7389, 3672, 3670, 3671, 6848, 3960, 3952, 3961, 8658, 9280, 8084
7390, 562, 2279, 62, 840, 2382, 2381, 569, 2692, 7963, 2688
7391, 2062, 5596, 6042, 6844, 5740, 9573, 6070, 9766, 7894, 7594
7392, 6839, 6853, 6473, 6862, 9631, 7446, 7215, 8264, 9113, 7105
7393, 5444, 1734, 1582, 5435, 5452, 4871, 9612, 5473, 5471, 9767
7394, 3068, 928, 854, 853, 3096, 2792, 9085, 9248, 2801, 860
7395, 879, 952, 3152, 880, 2826, 3172, 9129, 886, 2825, 8480
7396, 1045, 3069, 6889, 6902, 3103, 8226, 7788, 8553, 8227, 7464
7397, 2299, 95, 62, 2279, 7668, 834, 2386, 2387, 8416, 2381
7398, 927, 3071, 852, 853, 3093, 8931, 2800, 2799, 8617, 859
7399, 3109, 941, 868, 867, 3137, 2806, 9099, 8680, 2815, 874
7400, 5619, 5440, 1961, 5433, 7903, 5454, 5694, 7904, 5476, 5475
7401, 1754, 287, 1779, 6109, 4911, 1782, 4915, 9212, 6230, 6233
7402, 6785, 3682, 6135, 1454, 9337, 9336, 9335, 9597, 9596, 6267
7403, 1834, 6807, 417, 6854, 9296, 9768, 8984, 9298, 9299, 9769
7404, 6120, 1825, 6106, 6882, 6287, 6288, 6158, 9770, 9772, 9771
7405, 937, 3114, 863, 864, 3125, 9274, 2808, 2807, 8959, 870
7406, 839, 838, 3030, 914, 845, 8276, 9560, 2785, 2786, 3052
7407, 4589, 6139, 1453, 244, 9045, 6273, 9773, 4596, 8672, 8515
7408, 297, 299, 298, 6815, 1794, 1792, 4956, 9152, 8521, 9614
7409, 866, 3111, 2294, 6898, 9447, 8817, 9719, 8402, 7711, 8818
7410, 1582, 2109, 238, 5444, 7588, 7466, 1589, 9612, 8890, 9359
7411, 6118, 6125, 184, 4202, 6212, 6211, 6207, 7659, 7660, 4203
7412, 5366, 5360, 4683, 6865, 5395, 9545, 8823, 7828, 8086, 9014
7413, 2846, 2847, 793, 6837, 2895, 9267, 9203, 9538, 8509, 8977
7414, 6498, 6448, 6839, 6862, 6741, 7685, 7214, 7106, 8624, 8264
7415, 4959, 300, 4961, 6815, 4979, 4976, 4980, 8192, 9272, 8060
7416, 553, 36, 2273, 6495, 556, 2308, 2310, 6547, 6546, 8557
7417, 915, 839, 840, 3027, 2787, 846, 2778, 3055, 9284, 8683
7418, 938, 864, 865, 3112, 2810, 871, 2809, 3128, 8369, 8143
7419, 5798, 1753, 5783, 2110, 8953, 8952, 5846, 8568, 8881, 9462
7420, 5609, 5877, 5591, 6829, 9105, 9774, 5756, 9222, 9256, 9775
7421, 290, 295, 291, 4886, 1788, 4954, 1766, 4925, 9054, 4926
7422, 6099, 6840, 6826, 6850, 7655, 9271, 8415, 8219, 8737, 9346
7423, 6130, 1825, 1803, 6882, 6290, 4985, 7042, 8735, 9772, 8734
7424, 3194, 3196, 800, 3200, 3267, 9776, 9777, 3238, 3268, 9778
7425, 1732, 5430, 5434, 1580, 5467, 5469, 5465, 4876, 9663, 9779
7426, 1674, 233, 1678, 6824, 4649, 1679, 4650, 9139, 9780, 9165
7427, 1674, 232, 233, 6824, 1675, 1557, 4649, 9139, 9638, 9780
7428, 371, 1, 363, 6858, 2136, 366, 2137, 9174, 9236, 9237
7429, 371, 4, 1, 6858, 374, 378, 2136, 9174, 9175, 9236
7430, 645, 2270, 6494, 552, 7988, 9781, 9583, 9182, 2421, 6604
7431, 2270, 2282, 6494, 552, 2422, 8980, 9781, 2421, 2418, 6604
7432, 628, 781, 74, 798, 8754, 782, 2553, 2637, 9783, 9782
7433, 742, 801, 632, 88, 9784, 2625, 8756, 744, 9785, 2585
7434, 2267, 881, 600, 2295, 8655, 2750, 2497, 2467, 8800, 2489
7435, 1678, 261, 260, 6823, 1680, 1681, 4651, 8026, 9787, 9786
7436, 260, 1674, 1678, 6823, 1676, 4650, 4651, 9786, 8046, 8026
7437, 1045, 1044, 3069, 6902, 1051, 3104, 3103, 8553, 8561, 8227
7438, 4890, 290, 295, 1752, 4929, 1788, 7560, 4928, 4927, 7561
7439, 1211, 1212, 372, 5361, 1214, 6803, 6804, 8909, 7875, 9788
7440, 2840, 2838, 3205, 992, 2943, 7240, 8611, 2984, 2981, 8998
7441, 1615, 6875, 6811, 6900, 8599, 9789, 9790, 8550, 8513, 9741
7442, 1434, 5966, 5972, 5961, 9791, 6036, 9792, 9793, 6008, 6037
7443, 1582, 5435, 1581, 6897, 9767, 8812, 1588, 8992, 8621, 8813
7444, 6443, 6839, 6483, 6861, 7195, 7394, 6669, 9316, 9794, 9567
7445, 798, 2859, 2858, 6894, 8426, 2921, 9495, 9365, 7747, 8423
7446, 3109, 51, 50, 868, 8995, 541, 8716, 9099, 9097, 9795
7447, 4088, 165, 4094, 6120, 4089, 4099, 9796, 9797, 6153, 9798
7448, 6813, 6807, 6827, 6839, 9328, 9345, 9091, 9093, 9799, 8551
7449, 1734, 1581, 5435, 1733, 4880, 8812, 5471, 1740, 4878, 5470
7450, 346, 6813, 345, 6861, 9800, 9327, 2012, 9801, 9711, 9720
7451, 1833, 6458, 2120, 6133, 9705, 6612, 6298, 6296, 9201, 6299
7452, 2856, 6901, 796, 6902, 8492, 9586, 9802, 9176, 9177, 8567
7453, 3692, 3676, 6874, 6891, 3983, 7616, 8449, 8865, 7271, 8749
7454, 1975, 1753, 5783, 5791, 5519, 8952, 5814, 5812, 8302, 5816
7455, 838, 3030, 39, 2292, 8276, 9068, 9069, 9695, 9021, 2318
7456, 1418, 5617, 1754, 6840, 9136, 7346, 9501, 8289, 9348, 9349
7457, 4136, 151, 4130, 1757, 4140, 4132, 8342, 8424, 9571, 8111
7458, 3687, 3704, 3664, 6858, 3945, 3733, 3944, 9011, 9660, 9010
7459, 2110, 5798, 1753, 5791, 8568, 8953, 8881, 8569, 5845, 8302
7460, 1420, 5600, 1803, 6829, 9386, 8040, 9065, 9803, 8041, 8042
7461, 280, 283, 279, 6816, 1744, 4881, 1727, 8659, 9290, 9670
7462, 6041, 1802, 2111, 362, 8721, 7940, 6055, 6048, 7565, 2118
7463, 3701, 6891, 3699, 6900, 8306, 9804, 4002, 9156, 9661, 9725
7464, 3656, 6845, 6825, 6895, 7424, 8852, 7675, 7699, 8821, 8512
7465, 880, 600, 881, 2295, 2748, 2750, 887, 9180, 2489, 8800
7466, 5294, 5295, 1933, 6838, 5304, 5298, 5302, 9324, 9005, 9367
7467, 5444, 5435, 1582, 6897, 5473, 9767, 9612, 9524, 8621, 8992
7468, 3660, 3666, 6825, 6876, 3935, 8674, 7673, 9125, 9126, 9805
7469, 2059, 5589, 5597, 6852, 5723, 5726, 5725, 8935, 8670, 7541
7470, 850, 571, 2261, 2286, 2712, 2445, 8393, 8173, 2447, 2446
7471, 1978, 5785, 1755, 1756, 5821, 9737, 5524, 5525, 9563, 1762
7472, 6494, 2282, 553, 552, 8980, 2419, 6603, 6604, 2418, 555
7473, 279, 283, 282, 6816, 4881, 1742, 1743, 9670, 9290, 9371
7474, 3698, 3699, 6874, 6900, 3940, 7791, 7175, 8775, 9725, 8776
7475, 364, 380, 381, 6887, 2149, 384, 2148, 9806, 8108, 9734
7476, 2296, 2268, 574, 853, 2427, 2457, 2451, 8729, 8616, 2719
7477, 5881, 1800, 5868, 6836, 8314, 9761, 5933, 8317, 7086, 9394
7478, 623, 646, 645, 793, 2594, 651, 2591, 2626, 8825, 9287
7479, 562, 839, 561, 2266, 2703, 2702, 568, 2433, 9285, 2434
7480, 878, 598, 2297, 597, 2744, 2481, 9574, 2743, 604, 2482
7481, 5295, 272, 1933, 6838, 5297, 1934, 5298, 9005, 8731, 9367
7482, 1412, 335, 136, 1832, 8214, 9536, 9448, 8808, 7468, 9537
7483, 415, 244, 1453, 6812, 9807, 8515, 9441, 9808, 8673, 9030
7484, 3109, 1061, 757, 3110, 3148, 9809, 8994, 3139, 3123, 8997
7485, 283, 6098, 285, 6826, 6228, 6227, 1747, 8247, 8573, 9748
7486, 1686, 1682, 234, 6824, 4656, 1683, 4655, 8011, 9090, 9810
7487, 623, 645, 622, 793, 2591, 2541, 634, 2626, 9287, 2624
7488, 115, 1073, 3152, 1072, 8625, 3185, 8323, 9007, 1079, 3186
7489, 5608, 357, 362, 5871, 5636, 2105, 8848, 8285, 9811, 8847
7490, 364, 381, 365, 6887, 2148, 2146, 368, 9806, 9734, 9812
7491, 839, 560, 561, 2292, 2701, 567, 2702, 9696, 2320, 2432
7492, 115, 106, 3406, 2852, 1111, 9813, 8878, 8879, 2880, 8355
7493, 238, 1729, 5439, 1577, 4869, 5451, 9752, 1583, 4870, 7315
7494, 262, 1682, 1686, 6823, 1684, 4656, 4657, 9814, 7972, 7971
7495, 373, 372, 365, 6887, 376, 2141, 2139, 8717, 8718, 9812
7496, 364, 365, 372, 6887, 368, 2141, 2142, 9806, 9812, 8718
7497, 1801, 5868, 5874, 1989, 9028, 5906, 9029, 5534, 5902, 5904
7498, 1840, 1705, 4684, 263, 5263, 4717, 9488, 5264, 1708, 4715
7499, 2297, 878, 597, 2278, 9574, 2743, 2482, 2463, 8891, 2485
7500, 221, 1630, 1623, 6822, 1631, 4614, 4613, 9815, 9230, 9229
7501, 5617, 1417, 5614, 6826, 9678, 9816, 5679, 9347, 9677, 9449
7502, 349, 361, 345, 6819, 2103, 5955, 2017, 9615, 9817, 9329
7503, 3361, 2853, 2845, 6830, 9032, 2987, 9653, 8258, 8975, 8217
7504, 6119, 6136, 6094, 6850, 6327, 6326, 6203, 9436, 8566, 8096
7505, 1032, 3030, 790, 1031, 3064, 9658, 9818, 1038, 3065, 9819
7506, 989, 2833, 2841, 6860, 2967, 2970, 2969, 8004, 8819, 9132
7507, 5429, 6047, 5604, 336, 9289, 9288, 7567, 5446, 8429, 5626
7508, 6455, 6843, 6489, 6885, 8669, 9282, 6777, 6931, 7853, 7248
7509, 1839, 1704, 5363, 1709, 5268, 9820, 9352, 9412, 4760, 5369
7510, 2275, 583, 863, 584, 2465, 2723, 9275, 2464, 590, 2725
7511, 863, 2275, 584, 864, 9275, 2464, 2725, 870, 9172, 2726
7512, 35, 523, 2290, 3716, 525, 2307, 2306, 3767, 3766, 8921
7513, 2037, 5971, 5960, 1952, 5980, 5999, 5997, 5576, 7923, 7924
7514, 2840, 2832, 992, 6866, 2983, 2977, 2984, 9385, 8951, 9384
7515, 266, 267, 4663, 6833, 1693, 4725, 4724, 9259, 8894, 7813
7516, 335, 2032, 5968, 1947, 5574, 5979, 9736, 1953, 5575, 9821
7517, 129, 245, 128, 6817, 1864, 5074, 1168, 9633, 8765, 9822
7518, 5880, 2071, 187, 4265, 5894, 5622, 9823, 8057, 7955, 4268
7519, 1208, 136, 6132, 1412, 1210, 9824, 9825, 9826, 9448, 9827
7520, 351, 2022, 6439, 6363, 2024, 7836, 6590, 6392, 6391, 7839
7521, 234, 1678, 233, 6824, 4652, 1679, 1561, 9810, 9165, 9780
7522, 234, 1682, 1678, 6824, 1683, 4653, 4652, 9810, 9090, 9165
7523, 3674, 6848, 6874, 6891, 7382, 9828, 7615, 7269, 9137, 8749
7524, 1976, 5789, 5783, 1754, 5817, 5819, 5815, 5520, 7344, 9050
7525, 5874, 1802, 1801, 1990, 8578, 1808, 9029, 5905, 5536, 5537
7526, 562, 839, 2266, 840, 2703, 9285, 2433, 2692, 846, 8810
7527, 1194, 1330, 153, 6868, 7481, 1331, 4060, 7482, 7483, 9395
7528, 308, 6813, 339, 6861, 9710, 9829, 2000, 8118, 9711, 8117
7529, 2838, 3362, 993, 2854, 7454, 3395, 2982, 2985, 7172, 2986
7530, 5610, 2063, 6043, 5594, 5742, 6075, 7024, 5741, 5738, 7789
7531, 1941, 266, 6816, 6833, 1942, 8699, 8505, 9258, 9259, 7707
7532, 3683, 6831, 3673, 6848, 8585, 8892, 3967, 8085, 9830, 7384
7533, 6492, 6466, 6827, 6853, 6706, 7342, 7343, 9038, 9047, 9831
7534, 1682, 262, 261, 6823, 1684, 1685, 4654, 7972, 9814, 9787
7535, 261, 1678, 1682, 6823, 1680, 4653, 4654, 9787, 8026, 7972
7536, 6120, 1804, 1825, 6882, 9350, 5011, 6287, 9770, 9832, 9772
7537, 6418, 6472, 6484, 6828, 6517, 6620, 6619, 8503, 9833, 8504
7538, 6445, 6827, 6466, 6853, 7856, 7342, 6698, 9048, 9831, 9047
7539, 291, 295, 294, 4886, 4954, 1786, 1787, 4926, 9054, 9331
7540, 835, 2277, 557, 836, 9270, 2425, 2696, 842, 8151, 2694
7541, 2830, 3202, 2838, 2854, 7934, 7455, 2940, 3011, 7171, 2985
7542, 1001, 2751, 99, 3413, 7957, 2754, 2866, 3425, 8556, 9834
7543, 838, 839, 2292, 560, 845, 9696, 9695, 2699, 2701, 2320
7544, 6463, 6818, 6488, 6862, 8543, 8051, 6764, 7104, 9835, 8321
7545, 6447, 6839, 6449, 6861, 7997, 9554, 6744, 9198, 9794, 9200
7546, 280, 6090, 283, 6826, 6225, 6224, 1744, 9765, 8208, 8247
7547, 3404, 1130, 1075, 3409, 3430, 3622, 9836, 3464, 3462, 8639
7548, 2255, 879, 2297, 6888, 9130, 9168, 2488, 7835, 9170, 8126
7549, 4148, 1756, 4142, 4895, 9837, 9159, 9838, 9839, 4942, 8957
7550, 3668, 6848, 3670, 6892, 9279, 9280, 3951, 7832, 9840, 7834
7551, 796, 2856, 2857, 6901, 9802, 2912, 7308, 9586, 8492, 7803
7552, 2274, 2255, 2297, 6888, 2504, 2488, 2462, 8300, 7835, 8126
7553, 5871, 5608, 5609, 2073, 8285, 5640, 9106, 5921, 5753, 5750
7554, 270, 4888, 271, 4661, 4902, 7842, 1697, 4736, 7844, 4737
7555, 558, 557, 2277, 836, 564, 2425, 2424, 2695, 2694, 8151
7556, 3671, 3668, 6842, 6848, 3953, 7793, 7285, 8084, 9279, 9202
7557, 2302, 60, 98, 3151, 2372, 9662, 9642, 9643, 9576, 9020
7558, 5271, 1927, 298, 6815, 5279, 1929, 5277, 7557, 7555, 9614
7559, 1577, 1729, 5439, 5436, 4870, 5451, 7315, 7316, 5458, 5460
7560, 6139, 245, 6116, 6825, 7977, 9471, 6223, 7978, 7979, 8944
7561, 2271, 3715, 524, 649, 9142, 3825, 2415, 8104, 9143, 9225
7562, 1705, 1840, 4684, 6887, 5263, 9488, 4717, 9186, 9727, 8310
7563, 627, 797, 614, 67, 2634, 9841, 8750, 2533, 9842, 615
7564, 5604, 6047, 2108, 2060, 9288, 6069, 9087, 5728, 6066, 6067
7565, 5600, 5591, 5877, 6829, 5758, 9774, 9055, 8041, 9775, 9256
7566, 5605, 5604, 6047, 336, 5630, 9288, 8887, 5629, 5626, 8429
7567, 2751, 94, 99, 3413, 2753, 890, 2754, 8556, 9446, 9834
7568, 2298, 524, 3715, 523, 2413, 3825, 9141, 2412, 526, 3826
7569, 1171, 6785, 6137, 1454, 9595, 9843, 6265, 6268, 9597, 6269
7570, 6480, 6479, 2121, 6138, 6615, 6578, 6616, 9665, 7942, 6261
7571, 6132, 6786, 2120, 1833, 9844, 9703, 6297, 6292, 9704, 6298
7572, 772, 77, 1059, 6898, 773, 9376, 9845, 9626, 9377, 7710
7573, 1731, 1578, 1579, 5428, 4875, 1585, 4874, 5462, 9673, 9718
7574, 990, 1114, 3367, 2848, 3387, 3389, 3386, 2972, 8801, 9528
7575, 5589, 5618, 6852, 6890, 5776, 7754, 8670, 8654, 9117, 7472
7576, 5606, 5607, 335, 1413, 5657, 7440, 8394, 9846, 9387, 9388
7577, 2852, 3406, 1003, 2853, 8355, 3440, 2997, 2884, 9124, 2994
7578, 372, 1211, 5361, 6887, 6804, 8909, 9788, 8718, 8719, 7083
7579, 949, 98, 3156, 103, 2818, 9655, 3161, 955, 2817, 3160
7580, 1755, 5789, 5785, 1977, 9762, 5822, 9737, 5523, 5818, 5820
7581, 910, 95, 3033, 100, 2776, 8363, 3038, 916, 2775, 3037
7582, 1951, 2107, 5967, 6852, 7683, 9301, 8304, 7755, 7756, 8926
7583, 435, 426, 6807, 6828, 2188, 9847, 9620, 9622, 9848, 9624
7584, 3713, 126, 6831, 6842, 3800, 9096, 8587, 6905, 9405, 8883
7585, 2845, 2853, 2835, 6830, 2987, 3000, 3024, 8217, 8975, 9604
7586, 137, 1216, 6137, 1415, 1217, 9849, 9850, 9526, 9852, 9851
7587, 1949, 1212, 1948, 5356, 8844, 7874, 1955, 5401, 7876, 5402
7588, 6443, 6819, 6839, 6861, 7126, 8965, 7195, 9316, 9559, 9794
7589, 5602, 1412, 1800, 6836, 8908, 8213, 8313, 8316, 8215, 7086
7590, 1045, 6889, 6901, 6902, 7788, 7322, 7132, 8553, 7464, 9177
7591, 5601, 6041, 5609, 6829, 9659, 9221, 5743, 8489, 8724, 9222
7592, 6134, 6480, 2121, 6138, 9721, 6616, 6303, 6260, 9665, 6261
7593, 1581, 1734, 5435, 1582, 4880, 5471, 8812, 1588, 4871, 9767
7594, 648, 626, 649, 796, 2597, 2548, 654, 9355, 2632, 9358
7595, 2272, 849, 570, 2260, 8045, 2713, 2442, 2443, 7715, 2388
7596, 648, 626, 796, 625, 2597, 2632, 9355, 2596, 637, 2631
7597, 6116, 6825, 3665, 6858, 8944, 8966, 7529, 9547, 8267, 9219
7598, 880, 599, 2295, 2275, 2747, 2490, 9180, 9056, 2491, 2468
7599, 574, 854, 2274, 575, 2720, 9084, 2456, 581, 2709, 2455
7600, 854, 574, 2274, 853, 2720, 2456, 9084, 860, 2719, 9506
7601, 798, 1032, 6855, 6864, 9540, 8061, 9686, 9853, 8613, 8614
7602, 1757, 4136, 150, 4142, 8424, 4138, 8233, 8956, 9454, 4146
7603, 3659, 3719, 3694, 6876, 3923, 3933, 3932, 9652, 9310, 9311
7604, 3717, 3708, 3652, 6875, 3902, 3901, 3898, 9304, 9302, 9590
7605, 1938, 5332, 5331, 6833, 5336, 5341, 5340, 9473, 9260, 9429
7606, 1711, 1566, 1461, 4695, 4766, 4532, 8902, 4767, 4764, 8903
7607, 109, 1033, 1115, 3288, 1040, 8524, 8457, 9634, 7157, 8525
7608, 4178, 4184, 143, 6850, 9306, 4188, 4180, 8970, 9307, 9854
7609, 3491, 3498, 3508, 795, 3555, 3558, 3557, 9855, 8988, 9856
7610, 2110, 2111, 1753, 6904, 2117, 9570, 8881, 8695, 7996, 8882
7611, 280, 240, 4540, 279, 4866, 4568, 8660, 1727, 1726, 9669
7612, 2260, 63, 96, 2704, 2389, 848, 7328, 7558, 2707, 2706
7613, 3281, 114, 109, 3288, 3296, 3577, 9635, 3305, 3304, 9634
7614, 116, 1075, 3404, 1130, 3618, 9836, 3431, 1137, 3622, 3430
7615, 103, 882, 3151, 954, 2816, 9478, 3157, 961, 2820, 3162
7616, 267, 5332, 1938, 6833, 5333, 5336, 1939, 8894, 9260, 9473
7617, 928, 101, 3072, 854, 935, 3075, 3080, 2792, 2788, 8745
7618, 6451, 6450, 6448, 6862, 6750, 6749, 6751, 8322, 8280, 8624
7619, 1799, 2119, 6124, 1208, 9433, 6286, 9425, 9857, 9671, 9858
7620, 2262, 96, 63, 2278, 7677, 848, 2393, 2394, 8859, 2390
7621, 102, 868, 3110, 941, 2802, 9098, 3116, 948, 2806, 3121
7622, 5601, 1420, 5611, 6820, 9859, 9223, 5693, 8488, 8361, 8374
7623, 923, 96, 3074, 101, 2790, 7362, 3079, 929, 2789, 3078
7624, 936, 102, 97, 3115, 942, 2803, 2804, 3120, 3119, 8444
7625, 97, 588, 64, 2276, 2722, 595, 862, 7016, 2351, 2397
7626, 1642, 224, 225, 6822, 1643, 1525, 4625, 9434, 9860, 9531
7627, 6493, 6459, 6469, 6861, 6672, 6755, 6568, 9861, 9199, 9406
7628, 3670, 3672, 3718, 6848, 3960, 3963, 3962, 9280, 8658, 8835
7629, 4082, 159, 1300, 1804, 4084, 1301, 4085, 9160, 7691, 7692
7630, 362, 1801, 2106, 6044, 9049, 8078, 2112, 6051, 9034, 6054
7631, 4672, 4682, 4683, 6865, 4848, 4812, 4785, 7824, 7148, 9014
7632, 5604, 5598, 5440, 1961, 5696, 7013, 7566, 5627, 5697, 5454
7633, 4542, 1574, 4540, 6856, 4561, 4570, 4583, 8936, 7723, 8388
7634, 5271, 306, 5272, 4959, 5281, 5276, 5282, 8714, 5005, 8263
7635, 3494, 117, 110, 3503, 3511, 3591, 7505, 3520, 3519, 7506
7636, 113, 111, 3194, 3203, 3605, 9862, 3211, 3219, 9863, 3220
7637, 5608, 6044, 2058, 5603, 9061, 6052, 5637, 5720, 9513, 5721
7638, 1320, 156, 4106, 6841, 1322, 4110, 4109, 9864, 9683, 8950
7639, 3698, 3662, 3699, 6900, 3939, 3941, 3940, 8775, 8454, 9725
7640, 95, 62, 2268, 2269, 834, 2380, 7779, 7766, 2384, 2383
7641, 1592, 185, 6125, 4214, 6144, 6210, 6213, 9600, 4217, 9625
7642, 5444, 5432, 5435, 6897, 5489, 5508, 5473, 9524, 8418, 8621
7643, 100, 840, 3028, 915, 2774, 7964, 3034, 922, 2778, 3039
7644, 1056, 3199, 1083, 3193, 7122, 3239, 3607, 7128, 3241, 3217
7645, 1139, 1042, 3499, 3493, 3593, 9389, 3539, 3517, 9865, 3541
7646, 1028, 3286, 1097, 3280, 6968, 3324, 3579, 7380, 3326, 3302
7647, 1753, 1754, 5783, 6844, 1760, 9050, 8952, 9866, 8406, 9463
7648, 1987, 303, 5879, 338, 5529, 9498, 5891, 1993, 5528, 5890
7649, 346, 417, 1834, 6807, 9867, 8984, 8514, 9557, 9768, 9296
7650, 3660, 6825, 3659, 6876, 7673, 7674, 3921, 9125, 9805, 9652
7651, 4130, 1419, 1340, 6868, 9868, 9869, 4133, 8112, 9116, 8650
7652, 252, 1646, 253, 6821, 4627, 1648, 1649, 9870, 8409, 9606
7653, 1642, 1646, 252, 6821, 4626, 4627, 1644, 8410, 8409, 9870
7654, 373, 1833, 1211, 6887, 9871, 9390, 6796, 8717, 8728, 8719
7655, 5875, 5884, 1804, 1992, 5913, 9872, 9067, 5911, 5892, 5531
7656, 1799, 4966, 6468, 303, 4993, 9002, 9873, 1805, 4989, 9874
7657, 3365, 2852, 2847, 988, 8954, 2964, 9415, 3372, 2881, 2965
7658, 853, 573, 2296, 852, 2718, 2452, 8729, 859, 2716, 8932
7659, 1704, 1839, 1705, 1709, 5268, 5269, 1707, 4760, 9412, 4771
7660, 3150, 953, 881, 3153, 3177, 2827, 8827, 3179, 3175, 8656
7661, 5601, 1420, 6820, 6829, 9859, 8361, 8488, 8489, 9803, 8431
7662, 3412, 2844, 2835, 6830, 8982, 3002, 9603, 8974, 7629, 9604
7663, 2268, 2303, 574, 853, 2459, 2458, 2457, 8616, 9325, 2719
7664, 4100, 6106, 6115, 6882, 9630, 6161, 8947, 9875, 9771, 9697
7665, 98, 882, 3151, 103, 889, 9478, 9020, 2817, 2816, 3157
7666, 4142, 4136, 173, 4895, 9454, 4137, 4147, 8957, 9455, 9876
7667, 2851, 794, 110, 2850, 9439, 9440, 7857, 2901, 9877, 7065
7668, 1185, 136, 1208, 1412, 4019, 1210, 4018, 4246, 9448, 9826
7669, 303, 160, 4076, 1292, 9878, 4078, 9460, 9879, 1293, 4079
7670, 878, 597, 2270, 877, 2743, 2480, 7784, 884, 2741, 7036
7671, 975, 2863, 3287, 3277, 2946, 8377, 3298, 3307, 7537, 3308
7672, 97, 868, 588, 2276, 875, 2724, 2722, 7016, 9479, 2351
7673, 1046, 1113, 3501, 6860, 7620, 9361, 8588, 7199, 7619, 8971
7674, 6480, 6134, 6133, 6854, 9721, 6300, 7898, 7000, 9578, 8071
7675, 3031, 912, 837, 3029, 3048, 2781, 9684, 3050, 3046, 9744
7676, 5877, 5591, 2075, 2074, 9774, 5755, 5923, 5924, 5754, 2081
7677, 115, 3410, 1073, 1072, 9343, 8252, 8625, 9007, 8203, 1079
7678, 988, 1112, 3364, 2860, 3378, 3379, 3377, 2962, 8138, 7516
7679, 2058, 6045, 5616, 2106, 6057, 8067, 5718, 6058, 6059, 8223
7680, 1004, 3412, 1005, 2835, 3443, 3442, 1011, 2998, 9603, 2999
7681, 3657, 6892, 6845, 6895, 8006, 9400, 7423, 7272, 8962, 8821
7682, 866, 2294, 2289, 6898, 9719, 2479, 9239, 8402, 8818, 9240
7683, 279, 1723, 4854, 6816, 1725, 4865, 4857, 9670, 7735, 7736
7684, 3287, 2848, 2842, 975, 8802, 2948, 8164, 3298, 2876, 2949
7685, 193, 1462, 1562, 235, 1465, 4534, 1564, 9880, 4535, 1563
7686, 1923, 263, 1840, 310, 1924, 5264, 5265, 1925, 9073, 1843
7687, 2071, 5880, 5873, 4265, 5894, 5916, 5915, 7955, 8057, 7518
7688, 5600, 5591, 2075, 5877, 5758, 5755, 5757, 9055, 9774, 5923
7689, 4100, 156, 1315, 6882, 4102, 1316, 4103, 9875, 9882, 9881
7690, 111, 800, 2855, 2830, 9407, 9313, 7547, 9883, 9884, 2932
7691, 1420, 5601, 5600, 6829, 9859, 5691, 9386, 9803, 8489, 8041
7692, 2835, 3412, 1005, 2844, 9603, 3442, 2999, 3002, 8982, 3001
7693, 6842, 6892, 3655, 6895, 8961, 8682, 8331, 8467, 8962, 7860
7694, 3191, 1116, 1057, 6866, 9366, 7877, 8073, 8451, 7819, 7368
7695, 5020, 5021, 309, 6871, 5043, 5042, 5035, 9885, 7191, 9886
7696, 70, 730, 94, 92, 8751, 9887, 2621, 2545, 732, 9888
7697, 4963, 4960, 304, 6903, 5002, 5001, 5003, 8466, 8528, 9102
7698, 2856, 2862, 2833, 6901, 2914, 3020, 3021, 8492, 8864, 7864
7699, 6461, 6465, 6464, 6843, 6545, 6784, 6783, 9724, 9281, 9292
7700, 840, 100, 3028, 95, 2774, 3034, 7964, 847, 2775, 7669
7701, 2846, 3414, 2834, 6837, 9294, 9714, 2993, 9538, 9115, 9715
7702, 851, 3069, 925, 3070, 7376, 3089, 2795, 8391, 3091, 3087
7703, 239, 1582, 6104, 280, 4572, 9317, 6219, 1728, 9764, 6218
7704, 293, 4885, 5320, 5319, 4935, 9550, 5324, 5329, 9676, 5330
7705, 801, 2845, 2844, 6830, 9577, 2935, 9457, 9000, 8217, 7629
7706, 280, 240, 239, 4540, 4866, 1598, 1728, 8660, 4568, 4567
7707, 4965, 1804, 160, 303, 4994, 9723, 9318, 4988, 1811, 9878
7708, 586, 865, 2294, 866, 2729, 8896, 2473, 2732, 872, 9719
7709, 4291, 4290, 190, 6879, 4309, 4302, 4307, 8792, 9890, 9889
7710, 3113, 939, 866, 3111, 3133, 2811, 8397, 3135, 3131, 9447
7711, 1208, 6468, 1799, 2119, 7395, 9873, 9857, 9671, 6560, 9433
7712, 2285, 64, 97, 2267, 2399, 862, 7435, 2401, 2396, 8443
7713, 3155, 878, 950, 3154, 7785, 2821, 3166, 3170, 8668, 3168
7714, 6465, 36, 6439, 6843, 6544, 6549, 6548, 9281, 9891, 7850
7715, 3695, 3670, 6848, 6892, 3956, 9280, 8836, 8119, 7834, 9840
7716, 278, 1944, 1704, 5363, 1945, 9483, 4761, 5368, 5372, 9820
7717, 101, 96, 3072, 854, 2789, 8860, 3075, 2788, 861, 8745
7718, 1360, 148, 4154, 1756, 1362, 4158, 4157, 8991, 9892, 8840
7719, 102, 868, 97, 3110, 2802, 875, 2803, 3116, 9098, 7018
7720, 346, 1834, 2008, 5547, 8514, 6254, 5558, 5556, 9104, 5555
7721, 3153, 952, 880, 3152, 3174, 2825, 9179, 3176, 3172, 8480
7722, 3152, 951, 879, 3154, 3171, 2823, 9129, 3173, 3169, 9169
7723, 911, 836, 3029, 3032, 2779, 7772, 3045, 3043, 8152, 3047
7724, 5435, 1733, 1581, 5430, 5470, 4878, 8812, 5472, 5468, 9133
7725, 1752, 290, 295, 4891, 4927, 1788, 7561, 4923, 4921, 8806
7726, 5608, 5878, 5590, 2073, 8284, 9699, 5752, 5753, 5917, 5748
7727, 1610, 4589, 1453, 244, 4599, 9773, 6214, 4598, 4596, 8515
7728, 41, 2291, 2281, 6864, 2324, 2326, 2322, 9521, 8365, 9204
7729, 266, 4663, 6816, 6833, 4724, 7263, 8699, 9259, 7813, 7707
7730, 3068, 3071, 927, 853, 3097, 3093, 3095, 9248, 8617, 2799
7731, 137, 1216, 6785, 6137, 1217, 6802, 6801, 9850, 9849, 9843
7732, 6115, 6841, 4100, 6882, 8948, 8949, 8947, 9697, 9588, 9875
7733, 2858, 2832, 2861, 6894, 3018, 3015, 2923, 8423, 7929, 8833
7734, 245, 246, 6116, 5068, 1609, 6140, 9471, 5071, 5072, 8858
7735, 913, 838, 3030, 3031, 2783, 8276, 3051, 3049, 8273, 3053
7736, 852, 926, 3069, 3071, 2797, 3090, 8742, 8931, 3092, 3094
7737, 1801, 304, 4960, 6903, 4997, 5001, 5000, 7937, 9102, 8528
7738, 6362, 189, 188, 214, 7872, 1451, 8083, 6372, 9591, 9893
7739, 1826, 4082, 162, 4965, 9235, 4087, 6149, 4992, 9162, 9894
7740, 2269, 95, 62, 2299, 7766, 834, 2384, 2385, 7668, 2386
7741, 940, 3109, 3113, 867, 3136, 3138, 3134, 2813, 8680, 9712
7742, 346, 6807, 345, 6813, 9557, 9295, 2012, 9800, 9328, 9327
7743, 2298, 3715, 524, 2271, 9141, 3825, 2413, 2417, 9142, 2415
7744, 1804, 1803, 1825, 6882, 1810, 4985, 5011, 9832, 8734, 9772
7745, 924, 3073, 850, 3070, 3084, 8542, 2793, 3086, 3088, 8171
7746, 778, 798, 76, 6855, 9732, 9733, 780, 9895, 9686, 9896
7747, 864, 937, 3114, 3112, 2807, 3125, 8959, 8369, 3127, 3129
7748, 6472, 6437, 6484, 6828, 6712, 6710, 6620, 9833, 9897, 8504
7749, 839, 3027, 914, 3030, 9284, 3054, 2785, 9560, 3056, 3052
7750, 2260, 96, 63, 2262, 7328, 848, 2389, 2392, 7677, 2393
7751, 865, 586, 2294, 585, 2729, 2473, 8896, 2728, 592, 2474
7752, 881, 600, 2280, 2267, 2750, 2496, 8826, 8655, 2497, 2498
7753, 882, 59, 2302, 3151, 9477, 2371, 9641, 9478, 9382, 9643
7754, 6120, 4082, 164, 1826, 9351, 4083, 6154, 6155, 9235, 6150
7755, 3673, 6831, 3711, 6848, 8892, 9145, 3975, 7384, 9830, 7383
7756, 118, 6364, 3661, 1618, 6369, 7949, 3783, 1619, 6370, 7950
7757, 234, 235, 1686, 6824, 1565, 1687, 4655, 9810, 9080, 8011
7758, 865, 938, 3112, 3111, 2809, 3128, 8143, 8873, 3130, 3132
7759, 2834, 3414, 1003, 2852, 9714, 3436, 2992, 2996, 8357, 2997
7760, 4214, 132, 1580, 1579, 4216, 9898, 9599, 9601, 9899, 1586
7761, 281, 1582, 238, 5444, 4867, 1589, 4868, 5448, 9612, 9359
7762, 2277, 558, 836, 2271, 2424, 2695, 8151, 2431, 2430, 7774
7763, 262, 1686, 263, 6823, 4657, 1688, 1689, 9814, 7971, 9074
7764, 1947, 2032, 5968, 5962, 5575, 5979, 9821, 9411, 5984, 5986
7765, 1208, 136, 6786, 6132, 1210, 6797, 6798, 9825, 9824, 9844
7766, 853, 573, 574, 2296, 2718, 580, 2719, 8729, 2452, 2451
7767, 5362, 1713, 4679, 4678, 5390, 4783, 8009, 7356, 4779, 4784
7768, 1705, 4684, 4675, 6887, 4717, 4775, 4774, 9186, 8310, 8332
7769, 3203, 3196, 800, 3194, 3254, 9776, 9900, 3220, 3267, 9777
7770, 2072, 5878, 5590, 5602, 5918, 9699, 5747, 5746, 9215, 5749
7771, 1432, 5602, 5603, 6836, 5648, 5651, 5650, 9901, 8316, 8838
7772, 2852, 3365, 2847, 6837, 8954, 9415, 2964, 8955, 8351, 8509
7773, 1102, 1033, 114, 3288, 3580, 3576, 1109, 3303, 7157, 3304
7774, 1102, 3278, 1033, 3288, 3337, 7156, 3580, 3303, 3339, 7157
7775, 5589, 5612, 5618, 6890, 5777, 5670, 5776, 8654, 9094, 9117
7776, 3497, 795, 1044, 6902, 8987, 9902, 8560, 8554, 9903, 8561
7777, 221, 222, 1634, 6822, 1513, 1635, 4616, 9815, 9904, 9334
7778, 1634, 1630, 221, 6822, 4617, 1631, 4616, 9334, 9230, 9815
7779, 1634, 250, 249, 6821, 1636, 1637, 4618, 8294, 9906, 9905
7780, 249, 1630, 1634, 6821, 1632, 4617, 4618, 9905, 8295, 8294
7781, 117, 1047, 3503, 1144, 3590, 7165, 3519, 1151, 3594, 3518
7782, 113, 1061, 3203, 1088, 3604, 9907, 3219, 1095, 3608, 3218
7783, 1350, 149, 1756, 4142, 1351, 9908, 8414, 4145, 4144, 9159
7784, 118, 6364, 1153, 3716, 6369, 6368, 1155, 3780, 8918, 3781
7785, 2277, 2296, 573, 852, 2428, 2452, 2453, 9206, 8932, 2716
7786, 599, 600, 880, 2295, 606, 2748, 2747, 2490, 2489, 9180
7787, 2302, 59, 60, 3151, 2371, 550, 2372, 9643, 9382, 9576
7788, 2256, 851, 572, 2261, 7374, 2717, 2449, 2450, 7377, 2444
7789, 289, 1974, 5784, 1752, 5515, 5805, 7244, 1758, 5516, 7245
7790, 2121, 6491, 6480, 6133, 6613, 6617, 6616, 6302, 7006, 7898
7791, 1803, 6820, 1420, 6829, 7846, 8361, 9065, 8042, 8431, 9803
7792, 137, 1216, 1415, 1189, 1217, 9852, 9526, 4023, 4025, 4254
7793, 882, 600, 601, 2263, 2749, 607, 2739, 9568, 2494, 2493
7794, 882, 600, 2263, 881, 2749, 2494, 9568, 888, 2750, 9071
7795, 6106, 4094, 165, 6120, 9909, 4099, 6157, 6158, 9798, 6153
7796, 2127, 351, 6495, 6363, 2130, 6589, 6588, 6393, 6392, 8558
7797, 6112, 288, 6105, 4894, 6237, 6236, 6238, 9475, 4919, 8384
7798, 5591, 5601, 5609, 6829, 5780, 5743, 5756, 9775, 8489, 9222
7799, 864, 585, 2279, 584, 2727, 2469, 8631, 2726, 591, 2470
7800, 585, 864, 2279, 865, 2727, 8631, 2469, 2728, 871, 8262
7801, 4589, 1453, 6139, 1610, 9773, 6273, 9045, 4599, 6214, 6221
7802, 6813, 6839, 6819, 6861, 9093, 8965, 9092, 9711, 9794, 9559
7803, 4683, 4672, 5360, 1714, 4785, 8190, 9545, 4772, 4780, 5393
7804, 4542, 4540, 6816, 6856, 4583, 8389, 8261, 8936, 8388, 7695
7805, 270, 4884, 4892, 4661, 4896, 4904, 4903, 4736, 8500, 7986
7806, 3496, 3503, 1047, 1144, 3554, 7165, 7167, 3552, 3518, 3594
7807, 3196, 1088, 3203, 1061, 3252, 3218, 3254, 9629, 3608, 9907
7808, 347, 339, 6813, 6861, 2014, 9829, 9910, 8178, 8117, 9711
7809, 307, 6365, 248, 308, 8031, 6382, 9911, 1830, 9262, 9657
7810, 4685, 4675, 4684, 6887, 4852, 4775, 4770, 7188, 8332, 8310
7811, 308, 326, 325, 6870, 5029, 1859, 5031, 9264, 9913, 9912
7812, 2846, 3414, 1002, 2834, 9294, 3437, 2990, 2993, 9714, 2991
7813, 4693, 4884, 270, 4661, 8421, 4896, 4734, 4738, 8500, 4736
7814, 223, 224, 1642, 6822, 1521, 1643, 4622, 9914, 9860, 9434
7815, 1781, 1780, 174, 4895, 1784, 6182, 6180, 4945, 4943, 9915
7816, 208, 209, 189, 6878, 1481, 4294, 4298, 9916, 9917, 9592
7817, 176, 6127, 4160, 6126, 6187, 8633, 4165, 6183, 6188, 8635
7818, 2108, 2109, 6047, 238, 2115, 6074, 6069, 9208, 7466, 9360
7819, 4076, 4965, 160, 303, 9759, 9318, 4078, 9460, 4988, 9878
7820, 137, 1415, 1455, 6890, 9526, 9753, 9079, 9119, 9470, 9118
7821, 5788, 2050, 1439, 5800, 5839, 5632, 7197, 5842, 5809, 9918
7822, 867, 866, 586, 2304, 873, 2732, 2730, 9713, 8398, 2477
7823, 1753, 1976, 5783, 1754, 5521, 5815, 8952, 1760, 5520, 9050
7824, 6134, 345, 344, 5547, 9183, 2011, 6258, 9184, 5554, 5553
7825, 1642, 1638, 223, 6822, 4623, 1639, 4622, 9434, 9409, 9914
7826, 351, 350, 6424, 2018, 2021, 6586, 6585, 5566, 2020, 9760
7827, 1755, 1418, 1754, 6840, 9763, 9501, 1761, 9404, 8289, 9349
7828, 794, 3499, 3493, 3495, 9919, 3541, 9920, 9921, 3566, 3565
7829, 1825, 6130, 6106, 6882, 6290, 6289, 6288, 9772, 8735, 9771
7830, 5360, 4672, 1713, 1714, 8190, 4781, 5392, 5393, 4780, 1720
7831, 3680, 1170, 3687, 6858, 3835, 3833, 3836, 9012, 9922, 9011
7832, 1642, 252, 251, 6821, 1644, 1645, 4624, 8410, 9870, 9923
7833, 251, 1638, 1642, 6821, 1640, 4623, 4624, 9923, 8380, 8410
7834, 3289, 3279, 978, 895, 3319, 3318, 3312, 7665, 7250, 2915
7835, 849, 2293, 570, 850, 9006, 2441, 2713, 856, 8541, 2711
7836, 6786, 6132, 136, 1833, 9844, 9824, 6797, 9704, 6292, 9616
7837, 1952, 355, 5971, 335, 5572, 5976, 7923, 1959, 5573, 9924
7838, 344, 1834, 6134, 5547, 6257, 6259, 6258, 5553, 9104, 9184
7839, 279, 4854, 4538, 6816, 4857, 8209, 9925, 9670, 7736, 8020
7840, 3284, 1030, 3283, 797, 9926, 9511, 3342, 7253, 9928, 9927
7841, 3646, 119, 118, 1615, 3778, 1158, 3779, 8548, 1616, 4603
7842, 5609, 362, 357, 5871, 9220, 2105, 5639, 9106, 8847, 9811
7843, 3640, 3704, 3705, 6876, 3736, 3843, 3842, 9929, 9930, 9127
7844, 5609, 5591, 5877, 2074, 5756, 9774, 9105, 5751, 5754, 5924
7845, 106, 115, 3406, 2853, 1111, 8878, 9813, 2883, 9224, 9124
7846, 6421, 6818, 6463, 6853, 8705, 8543, 6636, 7448, 9931, 7447
7847, 2835, 1004, 3412, 2853, 2998, 3443, 9603, 3000, 2995, 8972
7848, 5603, 5608, 6044, 6836, 5720, 9061, 9513, 8838, 9062, 9035
7849, 4958, 4664, 276, 4959, 7452, 4752, 4969, 4972, 8191, 4970
7850, 6487, 6419, 6457, 6853, 6622, 6526, 6623, 9046, 9039, 9150
7851, 2734, 98, 61, 6477, 2736, 9619, 8472, 8473, 9544, 6551
7852, 1634, 222, 1638, 6822, 1635, 4619, 4620, 9334, 9904, 9409
7853, 222, 223, 1638, 6822, 1517, 1639, 4619, 9904, 9914, 9409
7854, 864, 2275, 584, 2299, 9172, 2464, 2726, 8367, 2472, 2471
7855, 6132, 1832, 136, 1833, 6293, 9537, 9824, 6292, 1836, 9616
7856, 250, 1634, 1638, 6821, 1636, 4620, 4621, 9906, 8294, 8380
7857, 1638, 251, 250, 6821, 1640, 1641, 4621, 8380, 9923, 9906
7858, 867, 586, 587, 2304, 2730, 593, 2731, 9713, 2477, 2344
7859, 646, 623, 110, 793, 2594, 9474, 8527, 8825, 2626, 9063
7860, 6472, 6497, 6437, 6828, 6713, 6705, 6712, 9833, 9932, 9897
7861, 3704, 6858, 3705, 6876, 9660, 9257, 3843, 9930, 9933, 9127
7862, 178, 177, 6110, 4166, 1368, 6190, 6189, 4167, 4171, 8128
7863, 6115, 6129, 6841, 6882, 6313, 8359, 8948, 9697, 8799, 9588
7864, 1602, 4538, 264, 242, 4579, 7009, 4853, 1604, 4580, 1690
7865, 1580, 1733, 5430, 1581, 4879, 5468, 9663, 1587, 4878, 9133
7866, 2838, 3195, 3202, 962, 7239, 3223, 7455, 2938, 3222, 3213
7867, 4214, 1580, 132, 1409, 9599, 9898, 4216, 4218, 9934, 1410
7868, 6808, 6814, 6811, 6874, 9935, 9738, 9936, 9937, 9939, 9938
7869, 2110, 5596, 2062, 6844, 9413, 5740, 6077, 9037, 7894, 9766
7870, 1989, 1801, 5868, 1800, 5534, 9028, 5902, 5535, 1807, 9761
7871, 345, 6819, 6807, 6854, 9329, 9330, 9295, 9297, 9167, 9299
7872, 6116, 130, 3658, 5068, 6141, 3812, 8941, 8858, 5070, 8942
7873, 109, 1114, 3367, 1115, 8619, 3389, 9940, 8457, 1121, 3394
7874, 6119, 6107, 6136, 6850, 6319, 6348, 6327, 9436, 8218, 8566
7875, 242, 4542, 4689, 4680, 4558, 7428, 4712, 4708, 8048, 4714
7876, 2850, 794, 110, 3493, 9877, 9440, 7065, 7064, 9920, 7066
7877, 6426, 6479, 6478, 6854, 6659, 6660, 6658, 8577, 9666, 8330
7878, 6811, 6875, 6874, 6900, 9789, 9579, 9938, 9741, 8513, 8776
7879, 524, 3700, 649, 1154, 3775, 9493, 9225, 3828, 3777, 6367
7880, 352, 6424, 2018, 6885, 6587, 9760, 5568, 9672, 8019, 8490
7881, 6455, 6862, 6843, 6885, 7031, 9647, 8669, 6931, 8049, 7853
7882, 4885, 4884, 269, 4659, 4900, 4897, 4898, 7633, 7712, 4731
7883, 596, 2270, 877, 552, 2420, 7036, 2742, 2378, 2421, 8024
7884, 6477, 645, 2126, 552, 9504, 6366, 6555, 6553, 9182, 6605
7885, 4136, 1781, 173, 4895, 8343, 6177, 4137, 9455, 4945, 9876
7886, 5363, 1704, 278, 1709, 9820, 4761, 5368, 5369, 4760, 1715
7887, 137, 6137, 6785, 1454, 9850, 9843, 6801, 9640, 6269, 9597
7888, 1755, 5789, 1977, 1754, 9762, 5818, 5523, 1761, 7344, 5522
7889, 5784, 1752, 1974, 5791, 7245, 5516, 5805, 5813, 7220, 5811
7890, 793, 645, 1070, 3155, 9287, 8895, 8494, 8133, 7989, 3182
7891, 1433, 5957, 2084, 5963, 9941, 5982, 5655, 7159, 6002, 6001
7892, 78, 772, 1059, 6898, 774, 9845, 9942, 9685, 9626, 7710
7893, 346, 347, 6807, 6813, 2013, 9943, 9557, 9800, 9910, 9328
7894, 186, 1208, 1185, 135, 9944, 4018, 4244, 4243, 4011, 1196
7895, 2264, 97, 64, 2276, 7015, 862, 2398, 2355, 7016, 2397
7896, 5957, 5606, 335, 1413, 9945, 8394, 9735, 9946, 9846, 9388
7897, 1335, 1194, 153, 6868, 9947, 4060, 1337, 9527, 7482, 9395
7898, 5021, 6821, 309, 6871, 7001, 7008, 5042, 7191, 7352, 9886
7899, 4196, 1417, 141, 6850, 9518, 9519, 4200, 8097, 9948, 9418
7900, 4136, 1345, 151, 1757, 4139, 1347, 4140, 8424, 9949, 9571
7901, 5018, 314, 5019, 6873, 5055, 5053, 5056, 9950, 9951, 9745
7902, 5590, 5602, 5878, 6836, 5749, 9215, 9699, 9700, 8316, 9112
7903, 155, 4112, 1325, 6841, 4116, 4115, 1327, 9952, 8182, 9399
7904, 346, 347, 6813, 6861, 2013, 9910, 9800, 9801, 8178, 9711
7905, 837, 2265, 3700, 3029, 9565, 8195, 9564, 9744, 7771, 7992
7906, 197, 4288, 4289, 6881, 4324, 4326, 4323, 9953, 9954, 9756
7907, 6814, 6874, 6848, 6891, 9939, 9828, 9955, 9956, 8749, 9137
7908, 3413, 1001, 2751, 3408, 3425, 7957, 8556, 3435, 3434, 7406
7909, 6137, 137, 1455, 1454, 9850, 9079, 6275, 6269, 9640, 1458
7910, 4214, 1592, 131, 1579, 9600, 6143, 4215, 9601, 4586, 9957
7911, 2086, 5966, 1434, 5961, 6007, 9791, 5660, 6003, 6008, 9793
7912, 95, 62, 2687, 2268, 834, 2690, 2689, 7779, 2380, 7780
7913, 3683, 6842, 6831, 6848, 6907, 8883, 8585, 8085, 9202, 9830
7914, 2109, 4544, 1582, 238, 7704, 4566, 7588, 7466, 4565, 1589
7915, 4888, 270, 4892, 4661, 4902, 4903, 4905, 7844, 4736, 7986
7916, 5868, 1800, 1801, 6836, 9761, 1807, 9028, 9394, 7086, 7936
7917, 1385, 143, 4184, 6850, 1387, 4188, 4187, 9958, 9854, 9307
7918, 116, 3415, 3404, 94, 3423, 3432, 3431, 8016, 6951, 6952
7919, 1803, 1804, 1420, 6882, 1810, 9064, 9065, 8734, 9832, 9959
7920, 1419, 4130, 1340, 1757, 9868, 4133, 9869, 9960, 8111, 9572
7921, 3717, 6874, 3678, 6875, 7174, 7706, 3998, 9304, 9579, 9303
7922, 1453, 6139, 6135, 6858, 6273, 6274, 6272, 9031, 8266, 9339
7923, 600, 2280, 2263, 881, 2496, 2495, 2494, 2750, 8826, 9071
7924, 6808, 6848, 6814, 6874, 9961, 9955, 9935, 9937, 9828, 9939
7925, 4962, 304, 305, 5023, 4995, 1815, 4996, 7807, 5025, 5024
7926, 3502, 794, 2850, 3493, 9962, 9877, 9636, 3516, 9920, 7064
7927, 3689, 3719, 6845, 6876, 3928, 7618, 7739, 9309, 9310, 9758
7928, 507, 515, 498, 516, 2250, 9963, 2244, 2253, 519, 9043
7929, 6044, 357, 362, 5608, 6050, 2105, 6051, 9061, 5636, 8848
7930, 6046, 2059, 2107, 6852, 6061, 6062, 6064, 8671, 8935, 7756
7931, 5283, 1930, 296, 6815, 5291, 1932, 5289, 8308, 8312, 9153
7932, 150, 1345, 4136, 1757, 1346, 4139, 4138, 8233, 9949, 8424
7933, 988, 3364, 2839, 2860, 3377, 7599, 2960, 2962, 7516, 2963
7934, 5595, 6045, 5616, 2058, 7639, 8067, 5719, 5716, 6057, 5718
7935, 2861, 2832, 2840, 6866, 3015, 2983, 3016, 7899, 8951, 9385
7936, 3681, 3695, 6835, 6892, 3856, 9238, 9416, 7915, 8119, 9964
7937, 1415, 1578, 6890, 6899, 9485, 8939, 9470, 9965, 9195, 8644
7938, 130, 3665, 6116, 3658, 3818, 7529, 6141, 3812, 3819, 8941
7939, 2841, 2833, 2862, 6860, 2970, 3020, 3019, 9132, 8819, 7870
7940, 1800, 304, 6124, 1812, 4998, 6251, 9101, 4999, 1814, 6252
7941, 497, 506, 516, 517, 2247, 2254, 9044, 9378, 2252, 520
7942, 506, 498, 516, 507, 2246, 9043, 2254, 510, 2244, 2253
7943, 2852, 115, 106, 3365, 8879, 1111, 2880, 8954, 3371, 3370
7944, 3714, 3659, 3694, 6876, 3931, 3932, 3840, 9651, 9652, 9311
7945, 800, 3196, 3203, 1061, 9776, 3254, 9900, 9966, 9629, 9907
7946, 766, 1060, 3113, 1059, 9967, 3146, 9426, 9968, 1066, 3147
7947, 2087, 5959, 2088, 5597, 6010, 6009, 2094, 5760, 7218, 5761
7948, 849, 570, 2293, 2272, 2713, 2441, 9006, 8045, 2442, 2408
7949, 1188, 1415, 137, 6890, 4253, 9526, 4022, 9969, 9470, 9119
7950, 505, 497, 517, 506, 2245, 9378, 2251, 509, 2247, 2252
7951, 497, 505, 517, 496, 2245, 2251, 9378, 500, 2242, 9397
7952, 506, 498, 497, 516, 2246, 501, 2247, 2254, 9043, 9044
7953, 1310, 1195, 158, 1420, 9970, 4071, 1312, 9971, 4247, 8243
7954, 1191, 1395, 140, 1417, 9972, 1396, 4031, 4258, 9520, 8242
7955, 837, 3700, 3031, 3029, 9564, 8905, 9684, 9744, 7992, 3050
7956, 4130, 1757, 1419, 6868, 8111, 9960, 9868, 8112, 8113, 9116
7957, 1180, 1216, 1172, 1179, 6793, 9973, 3839, 1182, 6805, 3838
7958, 1208, 2131, 2119, 2132, 6794, 6610, 9671, 6806, 2134, 6608
7959, 2264, 64, 97, 2285, 2398, 862, 7015, 2400, 2399, 7435
7960, 799, 1059, 77, 775, 9323, 9376, 9974, 9975, 8344, 777
7961, 4888, 291, 294, 4886, 4931, 1787, 9716, 4933, 4926, 9331
7962, 3659, 6845, 3719, 6876, 7425, 7618, 3923, 9652, 9758, 9310
7963, 3493, 3502, 794, 3495, 3516, 9962, 9920, 3565, 3523, 9921
7964, 45, 2289, 2259, 6898, 2336, 2338, 2334, 9627, 9240, 7960
7965, 1028, 109, 1114, 3280, 1034, 8619, 7604, 7380, 9976, 8167
7966, 3196, 1061, 760, 1060, 9629, 9977, 9978, 9507, 1067, 9979
7967, 562, 2300, 2279, 840, 2437, 2439, 2382, 2692, 7962, 7963
7968, 110, 1139, 3493, 1042, 3592, 3517, 7066, 1048, 3593, 9865
7969, 111, 1083, 3193, 1056, 3606, 3217, 9980, 1062, 3607, 7128
7970, 109, 1028, 1097, 3280, 1034, 3579, 3578, 9976, 7380, 3302
7971, 1832, 1944, 1839, 5023, 8601, 9523, 5063, 5026, 8766, 5027
7972, 2046, 5792, 2047, 5596, 5831, 5830, 2053, 5711, 7050, 5712
7973, 324, 309, 325, 6870, 5040, 5032, 1858, 9981, 9370, 9912
7974, 191, 6123, 1591, 1578, 6215, 6217, 1594, 4547, 8938, 4551
7975, 1417, 1437, 5617, 5614, 4284, 5674, 9678, 9816, 5678, 5679
7976, 1154, 1153, 649, 3715, 1156, 6405, 6367, 3829, 3830, 9143
7977, 1710, 1711, 5357, 4695, 1717, 5384, 5383, 4777, 4767, 7954
7978, 190, 207, 208, 6878, 4306, 1480, 4297, 9982, 9983, 9916
7979, 381, 1833, 365, 6887, 9984, 9985, 2146, 9734, 8728, 9812
7980, 111, 800, 1061, 3110, 9407, 9966, 1068, 3117, 9986, 3123
7981, 6453, 6832, 6486, 6862, 8795, 8779, 6663, 8279, 9593, 7115
7982, 5271, 298, 4959, 6815, 5277, 9987, 8714, 7557, 9614, 8192
7983, 1753, 5783, 2110, 6844, 8952, 9462, 8881, 9866, 9463, 9037
7984, 307, 328, 462, 6813, 1862, 8028, 8032, 9709, 9989, 9988
7985, 596, 2270, 597, 877, 2420, 2480, 603, 2742, 7036, 2741
7986, 373, 1833, 136, 1211, 9871, 9616, 6795, 6796, 9390, 1213
7987, 1212, 1454, 137, 371, 8234, 9640, 1215, 6800, 8235, 6799
7988, 2127, 2126, 645, 6494, 2129, 6366, 6395, 6618, 6606, 9583
7989, 4664, 4662, 4958, 276, 4756, 7108, 7452, 4752, 4754, 4969
7990, 3708, 3697, 3652, 6875, 3900, 3793, 3901, 9302, 9451, 9590
7991, 837, 836, 2265, 3029, 843, 7773, 9565, 9744, 7772, 7771
7992, 41, 42, 2291, 6864, 532, 2325, 2324, 9521, 8814, 8365
7993, 1208, 186, 134, 135, 9944, 9990, 1209, 4011, 4243, 1184
7994, 5589, 5618, 5597, 6852, 5776, 5775, 5726, 8670, 7754, 7541
7995, 1390, 142, 4190, 6850, 1392, 4194, 4193, 9417, 9991, 9419
7996, 238, 1729, 281, 5439, 4869, 1735, 4868, 9752, 5451, 5450
7997, 335, 2032, 355, 5968, 5574, 2038, 5573, 9736, 5979, 5978
7998, 6483, 6839, 6447, 6861, 7394, 7997, 6733, 9567, 9794, 9198
7999, 2297, 2255, 598, 879, 2488, 2487, 2481, 9168, 9130, 2745
8000, 406, 415, 1453, 6812, 2172, 9441, 9442, 9992, 9808, 9030
8001, 373, 365, 1833, 6887, 2139, 9985, 9871, 8717, 9812, 8728
8002, 417, 6807, 426, 6828, 9768, 9847, 2181, 9993, 9624, 9848
8003, 2267, 2295, 583, 863, 2467, 2466, 2395, 8768, 8767, 2723
8004, 200, 4454, 1534, 6877, 4456, 4459, 1536, 9994, 9996, 9995
8005, 218, 487, 496, 6811, 9997, 2235, 9998, 9999, 10000, 9740
8006, 1417, 5615, 5614, 6897, 8259, 5677, 9816, 10001, 8420, 9078
8007, 1767, 5305, 292, 4888, 5313, 5314, 1769, 4932, 9628, 4934
8008, 264, 241, 4855, 4538, 1722, 4860, 4859, 7009, 4578, 7379
8009, 574, 2303, 2274, 853, 2458, 2460, 2456, 2719, 9325, 9506
8010, 6445, 6839, 6827, 6853, 7387, 8551, 7856, 9048, 9631, 9831
8011, 5366, 4683, 5360, 1714, 8823, 9545, 5395, 5370, 4772, 5393
8012, 1781, 174, 173, 4895, 6180, 1348, 6177, 4945, 9915, 9876
8013, 6479, 6480, 6438, 6854, 6615, 6715, 6714, 9666, 7000, 8850
8014, 1944, 1704, 1839, 5023, 9483, 5268, 9523, 8766, 8320, 5027
8015, 571, 850, 2293, 2286, 2712, 8541, 2440, 2447, 8173, 2410
8016, 347, 339, 453, 6813, 2014, 10002, 10003, 9910, 9829, 10004
8017, 3363, 1116, 992, 6866, 3399, 3397, 3390, 7820, 7819, 9384
8018, 3696, 120, 1615, 6875, 3786, 4606, 8598, 7818, 10005, 8599
8019, 218, 217, 487, 6811, 1499, 10006, 9997, 9999, 10007, 10000
8020, 1113, 3366, 989, 6860, 3384, 3381, 3382, 7619, 7906, 8004
8021, 5619, 5613, 5598, 6899, 5700, 5781, 5698, 8435, 9649, 7959
8022, 3700, 3031, 3029, 1030, 8905, 3050, 7992, 7994, 3063, 3060
8023, 2110, 2062, 6042, 6844, 6077, 6070, 6078, 9037, 9766, 7594
8024, 4540, 4538, 4542, 6816, 4577, 4581, 4583, 8389, 8020, 8261
8025, 317, 1902, 5186, 6869, 1904, 5195, 5193, 10008, 10010, 10009
8026, 469, 213, 210, 6811, 10011, 1489, 10012, 10013, 10015, 10014
8027, 1416, 1405, 138, 1580, 8647, 1406, 8648, 10016, 10018, 10017
8028, 293, 268, 5320, 4885, 1937, 5321, 5324, 4935, 8260, 9550
8029, 6827, 6839, 6807, 6853, 8551, 9799, 9345, 9831, 9631, 10019
8030, 308, 307, 462, 6813, 1830, 8032, 10020, 9710, 9709, 9988
8031, 6134, 2121, 6480, 6133, 6303, 6616, 9721, 6300, 6302, 7898
8032, 1802, 1801, 362, 5874, 1808, 9049, 7565, 8578, 9029, 9502
8033, 6785, 6137, 1216, 1179, 9843, 9849, 6802, 6792, 10021, 6805
8034, 1417, 5614, 6826, 6897, 9816, 9449, 9677, 10001, 9078, 8993
8035, 408, 1834, 417, 6854, 8983, 8984, 2174, 10022, 9298, 9769
8036, 867, 47, 3113, 2304, 10023, 9427, 9712, 9713, 2340, 8399
8037, 5020, 5018, 5021, 6869, 5060, 5067, 5043, 10024, 10025, 7189
8038, 2841, 3492, 1017, 1018, 8417, 3533, 3004, 3005, 3532, 1024
8039, 5353, 1461, 4293, 1455, 8777, 4313, 7970, 7967, 4335, 4312
8040, 1799, 6124, 1412, 1208, 9425, 9420, 9694, 9857, 9858, 9826
8041, 478, 487, 216, 6811, 2228, 10026, 10027, 10028, 10000, 10029
8042, 6137, 1172, 1179, 1171, 6266, 3838, 10021, 6265, 1175, 3837
8043, 217, 216, 487, 6811, 1498, 10026, 10006, 10007, 10029, 10000
8044, 2295, 583, 863, 2275, 2466, 2723, 8767, 2468, 2465, 9275
8045, 4148, 1756, 149, 4142, 9837, 9908, 4152, 9838, 9159, 4144
8046, 37, 3700, 3031, 837, 3774, 8905, 8906, 9566, 9564, 9684
8047, 3498, 1016, 3505, 893, 3529, 3524, 3531, 10030, 2904, 10031
8048, 4288, 4290, 4291, 6877, 4330, 4309, 4337, 10032, 10033, 8790
8049, 6819, 6827, 6807, 6854, 8224, 9345, 9330, 9167, 9193, 9299
8050, 1172, 6123, 1216, 1180, 6270, 9692, 9973, 3839, 10034, 6793
8051, 298, 1927, 5283, 6815, 1929, 5292, 5290, 9614, 7555, 8308
8052, 6467, 6497, 6472, 6828, 6709, 6713, 6520, 10035, 9932, 9833
8053, 5608, 5609, 357, 5871, 5640, 5639, 5636, 8285, 9106, 9811
8054, 155, 1320, 4106, 6841, 1321, 4109, 4108, 9952, 9864, 8950
8055, 5021, 5020, 6869, 6871, 5043, 10024, 7189, 7191, 9885, 7193
8056, 93, 112, 1070, 6477, 9541, 1076, 10036, 6552, 9543, 9505
8057, 1060, 3109, 81, 763, 3149, 8917, 10037, 10038, 8679, 765
8058, 4542, 264, 242, 4689, 8516, 1690, 4558, 7428, 4713, 4712
8059, 5594, 2045, 2046, 5787, 5708, 2052, 5709, 7433, 5828, 5827
8060, 2861, 2858, 798, 896, 2923, 9495, 9364, 2918, 2922, 2769
8061, 2132, 6132, 1208, 6786, 10039, 9825, 6806, 6789, 9844, 6798
8062, 5271, 1822, 306, 4959, 5280, 1823, 5281, 8714, 4978, 5005
8063, 6422, 6471, 361, 6819, 6602, 6600, 6580, 7507, 7177, 9817
8064, 2132, 2119, 6132, 2120, 6608, 6301, 10039, 6609, 2123, 6297
8065, 796, 6901, 6889, 6902, 9586, 7322, 8335, 8567, 9177, 7464
8066, 4291, 6877, 4290, 6879, 8790, 10033, 4309, 8792, 8793, 9890
8067, 15, 17, 6812, 6845, 441, 10040, 9490, 9757, 10041, 8853
8068, 5618, 5612, 1435, 1415, 5670, 5669, 5658, 9469, 9675, 4279
8069, 6138, 6479, 348, 6436, 7942, 6577, 6255, 10042, 6579, 6576
8070, 106, 3406, 2852, 2853, 9813, 8355, 2880, 2883, 9124, 2884
8071, 1419, 1757, 4894, 6868, 9960, 4924, 10043, 9116, 8113, 8114
8072, 5598, 5613, 5612, 6899, 5781, 5668, 5778, 7959, 9649, 9398
8073, 44, 45, 2259, 6898, 535, 2334, 2333, 8979, 9627, 7960
8074, 213, 6811, 216, 6875, 10015, 10029, 1497, 8148, 9789, 8150
8075, 5596, 5617, 5588, 6844, 5772, 5771, 5739, 7894, 8425, 7595
8076, 3204, 3192, 965, 897, 3234, 3233, 3227, 10044, 10045, 2926
8077, 1776, 4885, 293, 5319, 4908, 4935, 1777, 5328, 9676, 5329
8078, 40, 41, 2281, 6864, 531, 2322, 2321, 9024, 9521, 9204
8079, 4966, 302, 163, 4076, 4990, 6148, 8830, 9459, 9458, 4081
8080, 4142, 174, 4148, 4895, 4143, 4153, 9838, 8957, 9915, 9839
8081, 1415, 6890, 5612, 6899, 9470, 9094, 9675, 9965, 8644, 9398
8082, 3644, 128, 3693, 6817, 3810, 3806, 3811, 7549, 9822, 7551
8083, 3497, 3498, 3491, 795, 3556, 3555, 3547, 8987, 8988, 9855
8084, 306, 275, 5272, 4959, 1926, 5273, 5276, 5005, 8146, 8263
8085, 6106, 6130, 6115, 6882, 6289, 6354, 6161, 9771, 8735, 9697
8086, 3714, 3640, 3705, 6876, 3841, 3842, 3844, 9651, 9929, 9127
8087, 211, 188, 460, 6808, 1484, 8079, 8080, 10046, 10048, 10047
8088, 1839, 1704, 1944, 5363, 5268, 9483, 9523, 9352, 9820, 5372
8089, 6495, 351, 6439, 6363, 6589, 6590, 6550, 8558, 6392, 7839
8090, 359, 2089, 5971, 5587, 2096, 5983, 5977, 5644, 5643, 9356
8091, 325, 309, 308, 6870, 5032, 1831, 5031, 9912, 9370, 9264
8092, 46, 2289, 45, 6898, 2337, 2336, 536, 8829, 9240, 9627
8093, 4130, 171, 172, 6105, 4135, 1338, 4131, 8383, 6175, 6174
8094, 6808, 6811, 6831, 6874, 9936, 10049, 10050, 9937, 9938, 10051
8095, 190, 208, 189, 6878, 4297, 4298, 1452, 9982, 9916, 9592
8096, 6808, 6811, 211, 6831, 9936, 10052, 10046, 10050, 10049, 7897
8097, 1941, 5342, 282, 6816, 5351, 5349, 1943, 8505, 8502, 9371
8098, 5342, 1723, 279, 6816, 5350, 1725, 5348, 8502, 7735, 9670
8099, 781, 798, 6855, 6864, 9783, 9686, 10053, 9701, 9853, 8614
8100, 6459, 6428, 6483, 6861, 6671, 6668, 6670, 9199, 9315, 9567
8101, 1300, 186, 160, 1804, 7693, 8470, 1302, 7692, 7689, 9723
8102, 1192, 1370, 145, 6840, 10054, 1371, 4042, 8288, 10055, 9617
8103, 1075, 116, 3404, 112, 3618, 3431, 9836, 1082, 3619, 10056
8104, 471, 327, 334, 6809, 10057, 1871, 10058, 10059, 10061, 10060
8105, 5429, 5604, 5440, 336, 7567, 7566, 5457, 5446, 5626, 5455
8106, 212, 243, 6808, 6831, 1606, 10062, 10063, 9095, 9618, 10050
8107, 350, 352, 6424, 2018, 2026, 6587, 6586, 2020, 5568, 9760
8108, 3156, 1070, 112, 6477, 3163, 1076, 3159, 9009, 9505, 9543
8109, 6808, 6831, 6848, 6874, 10050, 9830, 9961, 9937, 10051, 9828
8110, 2838, 3195, 962, 963, 7239, 3222, 2938, 2939, 3221, 969
8111, 487, 496, 6811, 6814, 2235, 9740, 10000, 10064, 9739, 9738
8112, 332, 480, 333, 6809, 9391, 10065, 1869, 10066, 10068, 10067
8113, 5353, 1566, 1461, 1711, 9517, 4532, 8777, 5386, 4766, 8902
8114, 120, 119, 3646, 1615, 1159, 3778, 3784, 4606, 1616, 8548
8115, 289, 1974, 337, 5784, 5515, 1980, 5514, 7244, 5805, 5802
8116, 5966, 2087, 2086, 5593, 6006, 2093, 6007, 7613, 5759, 5662
8117, 837, 836, 559, 2265, 843, 2697, 2700, 9565, 7773, 2316
8118, 5612, 5613, 1435, 6899, 5668, 5667, 5669, 9398, 9649, 10069
8119, 4100, 6841, 156, 6882, 8949, 9683, 4102, 9875, 9588, 9882
8120, 280, 239, 1582, 4544, 1728, 4572, 9764, 9689, 4571, 4566
8121, 4965, 162, 302, 4076, 9894, 6147, 4987, 9759, 4077, 9458
8122, 559, 836, 558, 2265, 2697, 2695, 565, 2316, 7773, 2429
8123, 162, 164, 4082, 1826, 1298, 4083, 4087, 6149, 6150, 9235
8124, 188, 189, 460, 6808, 1451, 8886, 8079, 10048, 10070, 10047
8125, 362, 6041, 5609, 357, 6048, 9221, 9220, 2105, 6049, 5639
8126, 115, 106, 3361, 2853, 1111, 3369, 3368, 9224, 2883, 9032
8127, 2086, 5966, 5593, 1434, 6007, 7613, 5662, 5660, 9791, 5661
8128, 5018, 5021, 6869, 6873, 5067, 7189, 10025, 9950, 10072, 10071
8129, 2297, 575, 854, 2278, 2461, 2709, 8744, 2463, 2391, 8746
8130, 332, 489, 480, 6809, 9392, 2230, 9391, 10066, 10073, 10068
8131, 2048, 5786, 5592, 2047, 5833, 7601, 5683, 2054, 5834, 5714
8132, 6124, 1832, 1412, 6132, 6253, 8808, 9420, 6294, 6293, 9827
8133, 2300, 585, 865, 2294, 2475, 2728, 8142, 2476, 2474, 8896
8134, 6481, 12, 6418, 6828, 6510, 6512, 6514, 7412, 10074, 8503
8135, 3686, 6835, 3695, 6848, 8663, 9238, 3859, 8834, 10075, 8836
8136, 6135, 6139, 6116, 6858, 6274, 6223, 6264, 9339, 8266, 9547
8137, 4854, 4538, 4855, 241, 8209, 7379, 4862, 4861, 4578, 4860
8138, 4288, 6877, 4291, 6881, 10032, 8790, 4337, 9954, 10077, 10076
8139, 1832, 136, 1412, 6132, 9537, 9448, 8808, 6293, 9824, 9827
8140, 268, 4885, 269, 4659, 8260, 4898, 1695, 4730, 7633, 4731
8141, 5602, 2071, 5873, 4265, 5649, 5915, 8584, 7956, 7955, 7518
8142, 331, 332, 6356, 1875, 1868, 9393, 8221, 5083, 5084, 6384
8143, 1709, 5355, 4675, 1710, 5380, 7535, 4773, 1716, 5381, 4776
8144, 2852, 2847, 2834, 6837, 2964, 3023, 2996, 8955, 8509, 9715
8145, 3150, 89, 736, 801, 7222, 737, 8701, 9535, 10079, 10078
8146, 1966, 336, 5605, 5444, 1973, 5629, 5628, 5456, 5449, 8889
8147, 5599, 5615, 5620, 6897, 5782, 5704, 5707, 7982, 8420, 9207
8148, 3668, 6842, 6848, 6892, 7793, 9202, 9279, 7832, 8961, 9840
8149, 850, 2293, 570, 571, 8541, 2441, 2711, 2712, 2440, 577
8150, 118, 6364, 3716, 3661, 6369, 8918, 3780, 3783, 7949, 3771
8151, 68, 3030, 614, 1031, 9664, 8275, 616, 10080, 3065, 8456
8152, 175, 4154, 1780, 6126, 4159, 9354, 6181, 6184, 8841, 6185
8153, 897, 2861, 2836, 799, 2917, 2929, 2928, 2772, 8861, 9164
8154, 649, 3715, 524, 1154, 9143, 3825, 9225, 6367, 3829, 3828
8155, 6484, 6828, 6437, 6854, 8504, 9897, 6710, 8268, 7413, 8851
8156, 6438, 6478, 6479, 6854, 6703, 6660, 6714, 8850, 8330, 9666
8157, 2072, 5590, 5878, 2073, 5747, 9699, 5918, 2079, 5748, 5917
8158, 1385, 4184, 142, 6850, 4187, 4186, 1386, 9958, 9307, 9991
8159, 839, 561, 2266, 2281, 2702, 2434, 9285, 9602, 2436, 2435
8160, 212, 451, 189, 6808, 10081, 8885, 1487, 10063, 10082, 10070
8161, 5788, 1439, 1419, 5800, 7197, 4285, 8154, 5842, 9918, 8155
8162, 1961, 1962, 5619, 5433, 1968, 5695, 5694, 5475, 5474, 7904
8163, 327, 6809, 6813, 6832, 10061, 10083, 10084, 8610, 9580, 10085
8164, 5603, 5590, 5608, 6836, 5779, 5752, 5720, 8838, 9700, 9062
8165, 3699, 6891, 6874, 6900, 9804, 8749, 7791, 9725, 9661, 8776
8166, 6494, 2126, 645, 552, 6606, 6366, 9583, 6604, 6605, 9182
8167, 793, 891, 2851, 2847, 2759, 2891, 8978, 9267, 2894, 2896
8168, 1432, 5603, 5607, 1412, 5650, 5652, 5647, 4273, 9546, 8555
8169, 1033, 109, 114, 3288, 1040, 3577, 3576, 7157, 9634, 3304
8170, 6116, 6139, 246, 245, 6223, 6222, 6140, 9471, 7977, 1609
8171, 6825, 6845, 3659, 6876, 8852, 7425, 7674, 9805, 9758, 9652
8172, 6458, 6491, 2121, 6133, 6614, 6613, 6611, 9201, 7006, 6302
8173, 1061, 113, 3203, 111, 3604, 3219, 9907, 1068, 3605, 9863
8174, 117, 1047, 110, 3503, 3590, 1054, 3591, 3519, 7165, 7506
8175, 193, 4292, 1453, 6824, 4314, 4318, 4316, 10086, 8575, 7888
8176, 979, 2864, 3285, 980, 2954, 7281, 3321, 986, 2955, 3320
8177, 1713, 5362, 1712, 4678, 5390, 5389, 1719, 4779, 7356, 4768
8178, 964, 2840, 963, 3205, 2942, 2941, 970, 3224, 8611, 3225
8179, 310, 1834, 5022, 6823, 5046, 5048, 5045, 9075, 7227, 8597
8180, 451, 460, 189, 6808, 2208, 8886, 8885, 10082, 10047, 10070
8181, 835, 557, 2277, 2296, 2696, 2425, 9270, 8803, 2426, 2428
8182, 111, 631, 85, 748, 9430, 2578, 7656, 8517, 9432, 749
8183, 3277, 975, 2863, 976, 3307, 2946, 7537, 3306, 982, 2947
8184, 6137, 6123, 1455, 1415, 6271, 6216, 6275, 9851, 9484, 9753
8185, 868, 50, 3109, 867, 9795, 8716, 9099, 874, 10087, 8680
8186, 195, 4509, 1554, 6824, 4511, 4514, 1556, 10088, 10090, 10089
8187, 1418, 1755, 1370, 6840, 9763, 8784, 10091, 8289, 9404, 10055
8188, 6362, 188, 211, 214, 8083, 1484, 8082, 6372, 9893, 10092
8189, 6137, 1172, 1216, 1179, 6266, 9973, 9849, 10021, 3838, 6805
8190, 3414, 1003, 1002, 2834, 3436, 1009, 3437, 9714, 2992, 2991
8191, 3662, 3702, 3699, 6900, 3772, 3942, 3941, 8454, 9158, 9725
8192, 312, 1917, 5241, 6823, 1919, 5250, 5248, 10093, 10095, 10094
8193, 4538, 4540, 279, 6816, 4577, 9669, 9925, 8020, 8389, 9670
8194, 1455, 137, 6137, 1415, 9079, 9850, 6275, 9753, 9526, 9851
8195, 6493, 6428, 6459, 6861, 6565, 6671, 6672, 9861, 9315, 9199
8196, 88, 801, 739, 6857, 9785, 10096, 740, 8900, 9001, 10097
8197, 5294, 296, 1930, 6838, 5301, 1932, 5303, 9324, 9155, 9004
8198, 3109, 760, 1061, 1060, 8715, 9977, 3148, 3149, 9979, 1067
8199, 517, 496, 6814, 6900, 9397, 9739, 10098, 8703, 9742, 9743
8200, 4100, 1315, 157, 6882, 4103, 1317, 4104, 9875, 9881, 10099
8201, 3031, 66, 1031, 1030, 8907, 10100, 3062, 3063, 10101, 1037
8202, 1340, 1419, 152, 6868, 9869, 10102, 1342, 8650, 9116, 8649
8203, 3408, 1001, 2751, 2846, 3434, 7957, 7406, 8485, 2893, 7958
8204, 5606, 5607, 1413, 1433, 5657, 9387, 9846, 5656, 5646, 4275
8205, 794, 2851, 892, 2850, 9439, 2890, 2760, 9877, 2901, 2900
8206, 2279, 585, 865, 2300, 2469, 2728, 8262, 2439, 2475, 8142
8207, 6808, 6812, 6835, 6892, 9188, 10103, 10104, 8960, 10105, 9964
8208, 6449, 6861, 6839, 6862, 9200, 9794, 9554, 7113, 9512, 8264
8209, 5432, 5620, 1966, 1965, 8291, 5703, 5486, 5487, 5702, 1972
8210, 2299, 584, 864, 2279, 2471, 2726, 8367, 2387, 2470, 8631
8211, 1417, 6826, 1581, 6897, 9677, 8600, 10106, 10001, 8993, 8813
8212, 5618, 5593, 1414, 1434, 5663, 9123, 9121, 5659, 5661, 4276
8213, 5601, 1420, 1440, 5611, 9859, 4270, 5692, 5693, 9223, 5686
8214, 287, 1754, 285, 6109, 4911, 7945, 1750, 6230, 9212, 6231
8215, 4541, 192, 191, 4293, 4545, 1460, 4546, 7283, 4311, 4310
8216, 1412, 5602, 1432, 6836, 8908, 5648, 4273, 8215, 8316, 9901
8217, 3, 2132, 6786, 6458, 2135, 6789, 6788, 6503, 6502, 9702
8218, 302, 1826, 162, 4965, 1829, 6149, 6147, 4987, 4992, 9894
8219, 5592, 1418, 1438, 5617, 9135, 4282, 5684, 5685, 9136, 5673
8220, 1461, 1566, 5353, 4293, 4532, 9517, 8777, 4313, 8319, 7970
8221, 3031, 67, 1031, 610, 9211, 9555, 3062, 9015, 612, 10107
8222, 2301, 59, 2302, 882, 2369, 2371, 2373, 9476, 9477, 9641
8223, 1083, 111, 3193, 113, 3606, 9980, 3217, 1089, 3605, 3210
8224, 1139, 110, 3493, 117, 3592, 7066, 3517, 1145, 3591, 3510
8225, 114, 109, 1097, 3280, 3577, 3578, 1103, 3295, 9976, 3302
8226, 2294, 586, 866, 2289, 2473, 2732, 9719, 2479, 2478, 9239
8227, 1, 3680, 5, 6858, 3721, 3723, 387, 9236, 9012, 8563
8228, 1801, 4967, 1802, 362, 5008, 5007, 1808, 9049, 7420, 7565
8229, 277, 4958, 4662, 276, 4968, 7108, 4755, 1703, 4969, 4754
8230, 1059, 3113, 79, 769, 3147, 9503, 10108, 10109, 9646, 771
8231, 328, 6365, 248, 307, 8030, 6382, 10110, 1862, 8031, 9911
8232, 1070, 69, 93, 6477, 10111, 726, 10036, 9505, 6554, 6552
8233, 3504, 1016, 2837, 1017, 3528, 2906, 8646, 3527, 1023, 3003
8234, 4958, 4683, 277, 4662, 9243, 4757, 4968, 7108, 4759, 4755
8235, 4, 6785, 1179, 3682, 6790, 6792, 1181, 3724, 9337, 3725
8236, 1413, 335, 5957, 5968, 9388, 9735, 9946, 10112, 9736, 5981
8237, 4884, 269, 4659, 4693, 4897, 4731, 7712, 8421, 4733, 4735
8238, 1005, 3407, 1006, 2844, 3446, 3445, 1012, 3001, 8495, 2933
8239, 790, 3030, 68, 1031, 9658, 9664, 791, 9819, 3065, 10080
8240, 2274, 575, 854, 2297, 2455, 2709, 9084, 2462, 2461, 8744
8241, 3640, 3714, 3694, 6876, 3841, 3840, 3739, 9929, 9651, 9311
8242, 1061, 83, 757, 3110, 10113, 759, 9809, 3123, 9674, 8997
8243, 5615, 5599, 5614, 6897, 5782, 5773, 5677, 8420, 7982, 9078
8244, 5020, 316, 5018, 6869, 5059, 5057, 5060, 10024, 10114, 10025
8245, 1208, 2119, 6132, 2132, 9671, 6301, 9825, 6806, 6608, 10039
8246, 4118, 169, 170, 6095, 4123, 1328, 4119, 8180, 6169, 6168
8247, 6479, 6436, 6138, 6854, 6579, 10042, 7942, 9666, 9166, 9667
8248, 199, 4290, 4288, 6877, 4328, 4330, 4327, 10115, 10033, 10032
8249, 2132, 6786, 6458, 2120, 6789, 9702, 6502, 6609, 9703, 6612
8250, 1042, 794, 3499, 3493, 8582, 9919, 9389, 9865, 9920, 3541
8251, 2072, 5602, 2071, 5873, 5746, 5649, 2078, 5914, 8584, 5915
8252, 4589, 246, 6139, 245, 4600, 6222, 9045, 4597, 1609, 7977
8253, 1016, 3498, 2837, 893, 3529, 8986, 2906, 2904, 10030, 2905
8254, 3502, 892, 794, 3495, 9648, 2760, 9962, 3523, 7255, 9921
8255, 6813, 6818, 6807, 6839, 10116, 10117, 9328, 9093, 10118, 9799
8256, 277, 4962, 4683, 4958, 4974, 8822, 4757, 4968, 4975, 9243
8257, 3203, 800, 111, 3194, 9900, 9407, 9863, 3220, 9777, 9862
8258, 3677, 6831, 3649, 6875, 9146, 9147, 3881, 9453, 10119, 9452
8259, 1566, 5353, 1712, 1711, 9517, 5387, 4765, 4766, 5386, 1718
8260, 6427, 342, 6469, 6832, 6570, 6566, 6571, 8781, 8609, 8780
8261, 891, 793, 2846, 2847, 2759, 9203, 2892, 2894, 9267, 2895
8262, 3641, 3681, 19, 6892, 3748, 3747, 3743, 7914, 7915, 10120
8263, 1799, 186, 5879, 303, 10121, 8884, 9499, 1805, 10122, 9498
8264, 317, 316, 5020, 6869, 1850, 5059, 5058, 10008, 10114, 10024
8265, 5872, 5600, 2076, 2075, 8352, 5689, 5926, 5927, 5757, 2082
8266, 6462, 26, 6420, 6818, 6531, 6533, 6535, 8050, 10123, 8052
8267, 6832, 6861, 6469, 6862, 10124, 9406, 8780, 9593, 9512, 7114
8268, 1019, 3500, 2839, 1018, 3535, 7260, 3008, 1025, 3536, 3007
8269, 173, 172, 1781, 4136, 1343, 6178, 6177, 4137, 4141, 8343
8270, 345, 344, 5559, 6138, 2011, 5561, 5560, 10125, 6256, 9450
8271, 647, 3073, 1042, 1043, 8539, 3100, 7733, 8773, 3099, 1049
8272, 1219, 138, 1409, 1190, 1221, 1411, 4242, 4010, 4026, 10126
8273, 1292, 135, 160, 1288, 10127, 4017, 1293, 4075, 4013, 1289
8274, 1243, 146, 1370, 1192, 1245, 1372, 4234, 4043, 4044, 10054
8275, 1279, 1195, 158, 1310, 4070, 4071, 1281, 4222, 9970, 1312
8276, 1390, 1231, 142, 1191, 4238, 1233, 1392, 10128, 4034, 4035
8277, 152, 1194, 1264, 1335, 4058, 4059, 1265, 1336, 9947, 4227
8278, 154, 1330, 1267, 1194, 1332, 4226, 1269, 4062, 7481, 4061
8279, 1228, 1395, 140, 1191, 4239, 1396, 1229, 4032, 9972, 4031
8280, 1315, 1195, 156, 1276, 10129, 4067, 1316, 4223, 4068, 1277
8281, 144, 1240, 1375, 1192, 1241, 4235, 1376, 4040, 4041, 9227
8282, 1255, 150, 1350, 1193, 1257, 1352, 4230, 4052, 4053, 9444
8283, 148, 1252, 1355, 1193, 1253, 4231, 1356, 4049, 4050, 10130
8284, 478, 6811, 469, 6814, 10028, 10013, 2221, 10131, 9738, 10132
8285, 1412, 1432, 5603, 6836, 4273, 5650, 9546, 8215, 9901, 8838
8286, 899, 801, 2855, 2845, 2756, 8999, 2930, 2936, 9577, 2937
8287, 200, 4290, 199, 6877, 4329, 4328, 1472, 9994, 10033, 10115
8288, 1061, 82, 3196, 760, 10133, 10134, 9629, 9977, 762, 9978
8289, 6430, 354, 6475, 6832, 6596, 6572, 6598, 8857, 8534, 8856
8290, 289, 1419, 4894, 6868, 8371, 10043, 4920, 7752, 9116, 8114
8291, 3031, 3700, 66, 1030, 8905, 3773, 8907, 3063, 7994, 10101
8292, 313, 5230, 312, 6873, 5237, 5236, 1846, 9747, 10135, 9746
8293, 1418, 146, 1370, 1755, 10136, 1372, 10091, 9763, 8783, 8784
8294, 1001, 3408, 1002, 2846, 3434, 3433, 1008, 2893, 8485, 2990
8295, 5964, 2089, 2088, 5595, 6012, 2095, 6013, 7348, 5764, 5763
8296, 1949, 1414, 5956, 1948, 8911, 9464, 9480, 1955, 8709, 8211
8297, 1061, 754, 83, 3110, 10137, 755, 10113, 3123, 9688, 9674
8298, 964, 3204, 965, 2836, 3228, 3227, 971, 2944, 9269, 2927
8299, 195, 4498, 196, 6881, 4501, 4500, 1468, 9755, 10138, 9754
8300, 462, 453, 6813, 6818, 2209, 10004, 9988, 10139, 10140, 10116
8301, 5600, 1420, 1440, 5601, 9386, 4270, 5690, 5691, 9859, 5692
8302, 965, 3192, 966, 897, 3233, 3232, 972, 2926, 10045, 2924
8303, 1419, 1439, 5611, 5586, 4285, 5687, 8373, 9707, 5633, 5688
8304, 800, 898, 2855, 2830, 2770, 2931, 9313, 9884, 2872, 2932
8305, 3201, 1059, 1060, 799, 9375, 1066, 9486, 10141, 9323, 10142
8306, 4148, 1756, 148, 1355, 9837, 9892, 4150, 4151, 10143, 1356
8307, 487, 6811, 478, 6814, 10000, 10028, 2228, 10064, 9738, 10131
8308, 4100, 166, 167, 6115, 4105, 1313, 4101, 8947, 6160, 6159
8309, 3680, 3664, 7, 6858, 3730, 3729, 3727, 9012, 9010, 8562
8310, 71, 66, 3700, 1030, 656, 3773, 3776, 10144, 10101, 7994
8311, 795, 3491, 1044, 1043, 9855, 9516, 9902, 8772, 9414, 1050
8312, 1016, 1015, 3505, 893, 1022, 3525, 3524, 2904, 2897, 10031
8313, 149, 1756, 4148, 1355, 9908, 9837, 4152, 1357, 10143, 4151
8314, 332, 2018, 331, 6809, 10145, 5567, 1868, 10066, 8092, 9308
8315, 282, 5331, 1941, 6833, 5337, 5339, 1943, 9372, 9429, 9258
8316, 838, 37, 38, 3031, 10146, 528, 9668, 8273, 8906, 9083
8317, 3641, 19, 6845, 6892, 3743, 10147, 7737, 7914, 10120, 9400
8318, 1335, 152, 1419, 6868, 1336, 10102, 10148, 9527, 8649, 9116
8319, 1061, 757, 82, 3109, 9809, 758, 10133, 3148, 8994, 8927
8320, 145, 1375, 1192, 6840, 1377, 9227, 4042, 9617, 9228, 8288
8321, 1335, 1419, 1194, 6868, 10148, 4263, 9947, 9527, 9116, 7482
8322, 6463, 6853, 6818, 6862, 7447, 9931, 8543, 7104, 9113, 9835
8323, 4538, 279, 240, 4854, 9925, 1726, 4575, 8209, 4857, 4856
8324, 6123, 6137, 1172, 1216, 6271, 6266, 6270, 9692, 9849, 9973
8325, 1187, 1948, 1414, 1212, 8708, 8709, 4251, 4074, 7874, 10149
8326, 197, 4487, 1546, 6881, 4489, 4492, 1548, 9953, 10151, 10150
8327, 4190, 181, 182, 6094, 4195, 1388, 4191, 9515, 6202, 6201
8328, 180, 181, 4184, 6119, 1383, 4185, 4189, 6199, 6198, 9435
8329, 6091, 168, 167, 4106, 6162, 1318, 6163, 9059, 4107, 4111
8330, 296, 6815, 1930, 6838, 9153, 8312, 1932, 9155, 8069, 9004
8331, 835, 910, 3033, 3032, 2777, 3038, 8804, 9178, 3042, 3044
8332, 797, 3292, 3282, 3276, 10152, 3341, 10153, 10154, 3340, 3335
8333, 112, 69, 93, 1070, 10155, 726, 9541, 1076, 10111, 10036
8334, 308, 248, 326, 6870, 9657, 10156, 5029, 9264, 9110, 9913
8335, 189, 209, 214, 6878, 4294, 10157, 9591, 9592, 9917, 9108
8336, 170, 171, 4124, 6128, 1333, 4125, 4129, 6172, 6171, 8486
8337, 3691, 3713, 125, 6831, 3802, 3801, 3797, 8586, 8587, 7896
8338, 2836, 3204, 965, 897, 9269, 3227, 2927, 2928, 10044, 2926
8339, 4178, 179, 180, 6093, 4183, 1378, 4179, 7740, 6196, 6195
8340, 923, 849, 3073, 3074, 2791, 8044, 3083, 3079, 7716, 3085
8341, 5968, 5957, 1413, 5958, 5981, 9946, 10112, 6023, 6021, 10158
8342, 6826, 6840, 1417, 6850, 9271, 8290, 9677, 9346, 8737, 9948
8343, 3151, 954, 882, 3150, 3162, 2820, 9478, 3180, 3178, 9569
8344, 303, 4076, 161, 1292, 9460, 4080, 10159, 9879, 4079, 1294
8345, 877, 3156, 3155, 949, 7035, 3167, 7034, 2819, 3161, 3165
8346, 6809, 6818, 6813, 6862, 10160, 10116, 10083, 10161, 9835, 10162
8347, 801, 899, 2844, 2845, 2756, 2934, 9457, 9577, 2936, 2935
8348, 3113, 48, 47, 867, 9428, 538, 9427, 9712, 9466, 10023
8349, 6835, 6848, 3686, 6891, 10075, 8834, 8663, 9722, 9137, 7933
8350, 5601, 5591, 5600, 6829, 5780, 5758, 5691, 8489, 9775, 8041
8351, 314, 1911, 5219, 6873, 1913, 5228, 5226, 9951, 10164, 10163
8352, 801, 88, 742, 6857, 9785, 744, 9784, 9001, 8900, 8899
8353, 138, 1580, 4214, 1409, 10017, 9599, 4219, 1411, 9934, 4218
8354, 3491, 1044, 3497, 795, 9516, 8560, 3547, 9855, 9902, 8987
8355, 312, 5230, 1917, 6823, 5236, 5238, 1919, 10093, 10165, 10095
8356, 838, 837, 37, 3031, 844, 9566, 10146, 8273, 9684, 8906
8357, 4172, 178, 179, 6131, 4177, 1373, 4173, 8685, 6193, 6192
8358, 928, 3072, 3068, 854, 3080, 3098, 3096, 2792, 8745, 9085
8359, 1454, 6785, 137, 371, 9597, 6801, 9640, 8235, 6791, 6799
8360, 136, 6786, 1833, 373, 6797, 9704, 9616, 6795, 6787, 9871
8361, 1554, 4498, 195, 6824, 4502, 4501, 1556, 10089, 10166, 10088
8362, 294, 5305, 4888, 6838, 5312, 9628, 9716, 9332, 9368, 7847
8363, 941, 3110, 3109, 868, 3121, 3139, 3137, 2806, 9098, 9099
8364, 212, 6808, 189, 6831, 10063, 10070, 1487, 9095, 10050, 8820
8365, 1060, 3113, 80, 766, 3146, 9482, 10167, 9967, 9426, 768
8366, 1803, 1420, 6820, 6882, 9065, 8361, 7846, 8734, 9959, 9226
8367, 1216, 1578, 6123, 1415, 9690, 8938, 9692, 9852, 9485, 9484
8368, 778, 75, 798, 6855, 779, 10168, 9732, 9895, 10169, 9686
8369, 863, 936, 3115, 3114, 2805, 3120, 8769, 9274, 3124, 3126
8370, 868, 587, 588, 50, 2733, 594, 2724, 9795, 2346, 2348
8371, 868, 587, 50, 867, 2733, 2346, 9795, 874, 2731, 10087
8372, 561, 839, 2292, 2281, 2702, 9696, 2432, 2436, 9602, 2323
8373, 5961, 1434, 2086, 2085, 9793, 5660, 6003, 6004, 5653, 2092
8374, 1438, 2049, 5793, 2048, 5680, 5836, 10170, 5682, 2055, 5837
8375, 1581, 6826, 1417, 6850, 8600, 9677, 10106, 8519, 9346, 9948
8376, 298, 300, 5271, 4959, 1796, 5278, 5277, 9987, 4979, 8714
8377, 241, 4854, 4538, 1599, 4861, 8209, 4578, 1601, 4858, 4576
8378, 2834, 2847, 2846, 6837, 3023, 2895, 2993, 9715, 8509, 9538
8379, 2835, 2844, 2845, 6830, 3002, 2935, 3024, 9604, 7629, 8217
8380, 6785, 1179, 3682, 1171, 6792, 3725, 9337, 9595, 3837, 3831
8381, 3113, 79, 766, 1059, 9503, 767, 9426, 3147, 10108, 9968
8382, 915, 840, 3028, 3027, 2778, 7964, 3039, 3055, 8683, 3057
8383, 242, 4538, 264, 4542, 4580, 7009, 1690, 4558, 4581, 8516
8384, 6138, 345, 6134, 6854, 10125, 9183, 6260, 9667, 9297, 9578
8385, 6121, 169, 168, 4112, 6165, 1323, 6166, 8187, 4113, 4117
8386, 177, 176, 6127, 4160, 1363, 6187, 6186, 4161, 4165, 8633
8387, 313, 5219, 1914, 6873, 5225, 5227, 1916, 9747, 10163, 10171
8388, 6116, 1170, 6135, 6858, 6142, 6262, 6264, 9547, 9922, 9339
8389, 29, 6891, 3684, 6900, 10172, 8305, 3758, 10173, 9661, 9157
8390, 2119, 6132, 6124, 1208, 6301, 6294, 6286, 9671, 9825, 9858
8391, 1917, 1914, 5231, 6873, 5240, 5234, 5235, 10174, 10171, 10175
8392, 1908, 5209, 1911, 6873, 5212, 5213, 5218, 10176, 10177, 10164
8393, 797, 3283, 3284, 3276, 9927, 3342, 7253, 10154, 3332, 3343
8394, 4499, 1550, 1554, 6881, 4506, 4508, 4507, 10178, 10180, 10179
8395, 4477, 1542, 1546, 6881, 4484, 4486, 4485, 10181, 10182, 10150
8396, 1917, 5230, 1914, 6873, 5238, 5239, 5240, 10174, 10135, 10171
8397, 1908, 1911, 5208, 6873, 5218, 5216, 5217, 10176, 10164, 10183
8398, 29, 3684, 3702, 6900, 3758, 3763, 3762, 10173, 9157, 9158
8399, 1179, 6785, 6137, 1171, 6792, 9843, 10021, 3837, 9595, 6265
8400, 1412, 6124, 6132, 1208, 9420, 6294, 9827, 9826, 9858, 9825
8401, 5434, 5430, 5442, 1416, 5469, 5499, 5498, 10184, 10186, 10185
8402, 1755, 1418, 1360, 1756, 9763, 10187, 8990, 1762, 10188, 8991
8403, 1550, 4498, 1554, 6881, 4503, 4502, 4508, 10180, 10138, 10179
8404, 1542, 4476, 1546, 6881, 4481, 4480, 4486, 10182, 10189, 10150
8405, 270, 4888, 1770, 271, 4902, 4901, 1772, 1697, 7842, 5317
8406, 373, 6133, 1833, 365, 9250, 6296, 9871, 2139, 9251, 9985
8407, 6812, 6825, 6858, 6876, 7980, 8267, 8265, 8872, 9805, 9933
8408, 6809, 6813, 6832, 6862, 10083, 10085, 9580, 10161, 10162, 9593
8409, 4142, 173, 174, 4895, 4147, 1348, 4143, 8957, 9876, 9915
8410, 77, 1059, 799, 772, 9376, 9323, 9974, 773, 9845, 10190
8411, 75, 781, 798, 6855, 783, 9783, 10168, 10169, 10053, 9686
8412, 6786, 2132, 6132, 2120, 6789, 10039, 9844, 9703, 6609, 6297
8413, 311, 5241, 1920, 6823, 5247, 5249, 1922, 10191, 10094, 10192
8414, 1550, 4487, 196, 6881, 4491, 4490, 1552, 10180, 10151, 9754
8415, 6123, 6137, 1216, 1415, 6271, 9849, 9692, 9484, 9851, 9852
8416, 9, 3664, 3704, 6858, 3728, 3733, 3732, 10193, 9010, 9660
8417, 6809, 6843, 6862, 6885, 8193, 9647, 10161, 8194, 7853, 8049
8418, 5434, 5445, 5428, 1416, 5491, 5490, 5466, 10184, 10195, 10194
8419, 6811, 6874, 6814, 6900, 9938, 9939, 9738, 9741, 8776, 9743
8420, 1390, 141, 1417, 6850, 1391, 9519, 10196, 9417, 9418, 9948
8421, 730, 1075, 92, 3151, 10197, 10198, 732, 9575, 3164, 9654
8422, 1558, 4509, 194, 6824, 4513, 4512, 1560, 10199, 10090, 10200
8423, 3677, 6874, 6831, 6875, 7614, 10051, 9146, 9453, 9579, 10119
8424, 1418, 1755, 5785, 1756, 9763, 9737, 10201, 10188, 1762, 9563
8425, 6814, 6808, 6835, 6848, 9935, 10104, 10202, 9955, 9961, 10075
8426, 10, 12, 6481, 6828, 413, 6510, 6509, 8570, 10074, 7412
8427, 4959, 298, 300, 6815, 9987, 1796, 4979, 8192, 9614, 9272
8428, 4094, 165, 166, 6106, 4099, 1308, 4095, 9909, 6157, 6156
8429, 6809, 6862, 6832, 6885, 10161, 9593, 9580, 8194, 8049, 9582
8430, 801, 742, 87, 6857, 9784, 743, 10203, 9001, 8899, 8934
8431, 240, 279, 4538, 4540, 1726, 9925, 4575, 4568, 9669, 4577
8432, 91, 1075, 730, 3151, 10204, 10197, 731, 9632, 3164, 9575
8433, 1419, 289, 4894, 1757, 8371, 4920, 10043, 9960, 1764, 4924
8434, 517, 496, 505, 6814, 9397, 2242, 2251, 10098, 9739, 10205
8435, 630, 3196, 82, 760, 10206, 10134, 2571, 10207, 9978, 762
8436, 5800, 2050, 1439, 356, 5809, 5632, 9918, 5804, 2057, 5631
8437, 276, 4664, 275, 4959, 4752, 4751, 1702, 4970, 8191, 8146
8438, 6118, 184, 183, 4202, 6207, 1398, 6208, 7659, 4203, 4207
8439, 587, 47, 867, 2304, 2342, 10023, 2731, 2344, 2340, 9713
8440, 629, 799, 77, 775, 2638, 9974, 2560, 10208, 9975, 777
8441, 5603, 5602, 5590, 6836, 5651, 5749, 5779, 8838, 8316, 9700
8442, 2301, 601, 2263, 882, 2499, 2493, 2370, 9476, 2739, 9568
8443, 4539, 4665, 236, 4678, 7913, 4702, 4557, 7644, 4706, 4705
8444, 6468, 161, 134, 303, 6556, 1291, 6557, 9874, 10159, 10209
8445, 282, 1941, 6816, 6833, 1943, 8505, 9371, 9372, 9258, 7707
8446, 6814, 6848, 6835, 6891, 9955, 10075, 10202, 9956, 9137, 9722
8447, 4154, 175, 176, 6126, 4159, 1358, 4155, 8841, 6184, 6183
8448, 6818, 6807, 6839, 6853, 10117, 9799, 10118, 9931, 10019, 9631
8449, 311, 1920, 5252, 6823, 1922, 5261, 5259, 10191, 10192, 10210
8450, 24, 6462, 6421, 6818, 6530, 6532, 6528, 10211, 8050, 8705
8451, 194, 4520, 1558, 6824, 4522, 4525, 1560, 10200, 10212, 10199
8452, 344, 345, 6134, 6138, 2011, 9183, 6258, 6256, 10125, 6260
8453, 838, 559, 37, 837, 2698, 2315, 10146, 844, 2700, 9566
8454, 5884, 186, 1804, 1992, 7314, 7689, 9872, 5892, 10213, 5531
8455, 125, 3713, 126, 6831, 3801, 3800, 1165, 7896, 8587, 9096
8456, 838, 559, 560, 37, 2698, 566, 2699, 10146, 2315, 2312
8457, 328, 327, 6813, 6832, 1861, 10084, 9989, 8667, 8610, 10085
8458, 5022, 5019, 312, 6823, 5052, 5051, 5049, 8597, 10214, 10093
8459, 289, 5800, 337, 1419, 10215, 5803, 5514, 8371, 8155, 10216
8460, 5319, 1776, 4885, 286, 5328, 4908, 9676, 5326, 1778, 4909
8461, 3702, 3662, 35, 6900, 3772, 3769, 3765, 9158, 8454, 9265
8462, 4289, 4292, 195, 6824, 4322, 4319, 4320, 10217, 8575, 10088
8463, 209, 188, 189, 214, 4295, 1451, 4294, 10157, 9893, 9591
8464, 307, 248, 326, 308, 9911, 10156, 5028, 1830, 9657, 5029
8465, 188, 6808, 211, 6831, 10048, 10046, 1484, 7895, 10050, 7897
8466, 1192, 1418, 1370, 6840, 4261, 10091, 10054, 8288, 8289, 10055
8467, 1436, 1964, 5437, 5431, 5672, 5484, 7120, 9682, 5480, 5485
8468, 190, 6822, 6879, 6880, 10218, 9530, 9889, 10219, 9533, 9534
8469, 5800, 1439, 1419, 356, 9918, 4285, 8155, 5804, 5631, 10220
8470, 3662, 3661, 35, 6900, 3768, 3770, 3769, 8454, 7953, 9265
8471, 3502, 108, 2850, 1014, 3514, 2885, 9636, 3513, 1020, 2886
8472, 204, 4410, 1518, 6880, 4412, 4415, 1520, 10221, 10223, 10222
8473, 5438, 1963, 1436, 5431, 5477, 5664, 7831, 5482, 5481, 9682
8474, 6125, 185, 184, 4208, 6210, 1403, 6211, 10224, 4209, 4213
8475, 5602, 1412, 1432, 4265, 8908, 4273, 5648, 7956, 4269, 4271
8476, 793, 2846, 2751, 891, 9203, 7958, 2755, 2759, 2892, 2757
8477, 294, 1933, 5305, 6838, 1935, 5316, 5312, 9332, 9367, 9368
8478, 1804, 186, 160, 303, 7689, 8470, 9723, 1811, 10122, 9878
8479, 1979, 5800, 1419, 337, 5806, 8155, 10225, 1986, 5803, 10216
8480, 1365, 146, 1418, 1755, 1366, 10136, 10226, 9362, 8783, 9763
8481, 110, 623, 646, 794, 9474, 2594, 8527, 9440, 2628, 8581
8482, 69, 94, 1070, 112, 10227, 10228, 10111, 10155, 10229, 1076
8483, 183, 182, 6113, 4196, 1393, 6205, 6204, 4197, 4201, 8093
8484, 1920, 1917, 5242, 6823, 5251, 5245, 5246, 10192, 10095, 10230
8485, 1920, 5241, 1917, 6823, 5249, 5250, 5251, 10192, 10094, 10095
8486, 3282, 1031, 797, 3276, 9410, 10231, 10153, 3335, 9556, 10154
8487, 189, 6808, 188, 6831, 10070, 10048, 1451, 8820, 10050, 7895
8488, 1385, 1417, 143, 6850, 10232, 10233, 1387, 9958, 9948, 9854
8489, 23, 3643, 3685, 6835, 3749, 3754, 3753, 10234, 8664, 8662
8490, 3642, 3684, 27, 6891, 3760, 3759, 3755, 8347, 8305, 10235
8491, 6808, 6831, 6842, 6848, 10050, 8883, 8692, 9961, 9830, 9202
8492, 797, 1030, 3283, 3276, 9928, 9511, 9927, 10154, 9539, 3332
8493, 1558, 4510, 1554, 6824, 4518, 4517, 4519, 10199, 10236, 10089
8494, 1558, 1554, 4509, 6824, 4519, 4514, 4513, 10199, 10089, 10090
8495, 309, 6871, 6821, 6872, 9886, 7352, 7008, 10237, 9609, 9607
8496, 348, 5559, 6138, 6436, 5562, 9450, 6255, 6576, 10238, 10042
8497, 5019, 314, 313, 6873, 5053, 1847, 5050, 9745, 9951, 9747
8498, 1890, 5142, 321, 6872, 5151, 5149, 1892, 10239, 10241, 10240
8499, 5586, 1419, 1439, 356, 9707, 4285, 5633, 5634, 10220, 5631
8500, 312, 5241, 311, 6823, 5248, 5247, 1845, 10093, 10094, 10191
8501, 197, 4289, 196, 6881, 4323, 4321, 1469, 9953, 9756, 9754
8502, 242, 4542, 4680, 237, 4558, 8048, 4708, 1605, 4559, 4707
8503, 1938, 284, 5319, 6833, 1940, 5325, 5327, 9473, 9402, 9472
8504, 50, 49, 3109, 867, 540, 8681, 8716, 10087, 8677, 8680
8505, 309, 6821, 5546, 6870, 7008, 6982, 5550, 9370, 10243, 10242
8506, 196, 4498, 1550, 6881, 4500, 4503, 1552, 9754, 10138, 10180
8507, 194, 4509, 195, 6824, 4512, 4511, 1467, 10200, 10090, 10088
8508, 781, 74, 798, 6864, 782, 9782, 9783, 9701, 9656, 9853
8509, 334, 333, 6809, 6832, 1870, 10067, 10060, 8536, 8711, 9580
8510, 897, 2836, 3204, 799, 2928, 9269, 10044, 2772, 9164, 10244
8511, 5208, 1911, 314, 6873, 5216, 1913, 5214, 10183, 10164, 9951
8512, 123, 3697, 3649, 6875, 3791, 3796, 3795, 8189, 9451, 9452
8513, 489, 6809, 498, 6843, 10073, 9751, 2237, 7347, 8193, 7339
8514, 327, 334, 6809, 6832, 1871, 10060, 10061, 8610, 8536, 9580
8515, 5019, 312, 6823, 6873, 5051, 10093, 10214, 9745, 9746, 10245
8516, 164, 165, 4088, 6120, 1303, 4089, 4093, 6154, 6153, 9797
8517, 893, 3498, 2837, 795, 10030, 8986, 2905, 2764, 8988, 8989
8518, 313, 1914, 5230, 6873, 1916, 5239, 5237, 9747, 10171, 10135
8519, 1360, 147, 1418, 1755, 1361, 10246, 10187, 8990, 9369, 9763
8520, 25, 3685, 3642, 6891, 3752, 3757, 3756, 10247, 7931, 8347
8521, 290, 288, 6117, 4891, 1765, 6235, 6234, 4921, 4918, 7116
8522, 1420, 1320, 155, 6841, 10248, 1321, 10249, 10250, 9864, 9952
8523, 1893, 320, 5142, 6872, 1895, 5148, 5150, 10251, 10252, 10241
8524, 4289, 6824, 195, 6881, 10217, 10088, 4320, 9756, 10253, 9755
8525, 5186, 316, 317, 6869, 5192, 1850, 5193, 10009, 10114, 10008
8526, 1437, 1417, 5615, 5614, 4284, 8259, 5675, 5678, 9816, 5677
8527, 211, 6811, 210, 6831, 10052, 10014, 1483, 7897, 10049, 7930
8528, 5132, 1890, 1887, 6872, 5136, 5141, 5135, 10254, 10239, 10255
8529, 6818, 6853, 6839, 6862, 9931, 9631, 10118, 9835, 9113, 8264
8530, 3203, 111, 800, 1061, 9863, 9407, 9900, 9907, 1068, 9966
8531, 315, 314, 5018, 6869, 1848, 5055, 5054, 10256, 10257, 10025
8532, 1518, 4400, 1514, 6880, 4408, 4407, 4409, 10222, 10259, 10258
8533, 1546, 4476, 197, 6881, 4480, 4479, 1548, 10150, 10189, 9953
8534, 1890, 5131, 1887, 6872, 5139, 5140, 5141, 10239, 10260, 10255
8535, 5612, 1435, 1415, 6899, 5669, 4279, 9675, 9398, 10069, 9965
8536, 6475, 343, 6427, 6832, 6573, 6569, 6574, 8856, 8535, 8781
8537, 199, 4454, 200, 6877, 4457, 4456, 1472, 10115, 9996, 9994
8538, 5442, 1436, 5431, 1416, 9681, 9682, 5504, 10185, 4280, 10261
8539, 5431, 1436, 5445, 1416, 9682, 9706, 5505, 10261, 4280, 10195
8540, 335, 1413, 1947, 5968, 9388, 10262, 1953, 9736, 10112, 9821
8541, 1518, 1514, 4399, 6880, 4409, 4404, 4403, 10222, 10258, 10263
8542, 198, 4288, 197, 6877, 4325, 4324, 1470, 10264, 10032, 10265
8543, 303, 186, 160, 1292, 10122, 8470, 9878, 9879, 10266, 1293
8544, 2831, 3494, 108, 2850, 7849, 3512, 2888, 2889, 7084, 2885
8545, 480, 6809, 489, 6843, 10068, 10073, 2230, 10267, 8193, 7347
8546, 3695, 6848, 6835, 6892, 8836, 10075, 9238, 8119, 9840, 9964
8547, 1822, 5271, 300, 4959, 5280, 5278, 1824, 4978, 8714, 4979
8548, 1522, 4410, 203, 6880, 4414, 4413, 1524, 10268, 10223, 10269
8549, 6420, 28, 6460, 6843, 6534, 6536, 6538, 8629, 10270, 9247
8550, 6461, 32, 6465, 6843, 6540, 6543, 6545, 9724, 7341, 9281
8551, 1310, 157, 1420, 6882, 1311, 10271, 9971, 10272, 10099, 9959
8552, 6428, 360, 6471, 6861, 6564, 6599, 6601, 9315, 10273, 9314
8553, 3689, 3641, 17, 6845, 3745, 3744, 3740, 7739, 7737, 10041
8554, 3502, 2850, 892, 1014, 9636, 2900, 9648, 3513, 2886, 2899
8555, 1420, 6841, 6820, 6882, 10250, 8620, 8361, 9959, 9588, 9226
8556, 337, 1757, 1419, 1979, 5513, 9960, 10216, 1986, 5517, 10225
8557, 349, 6422, 361, 6819, 6581, 6580, 2103, 9615, 7507, 9817
8558, 760, 1061, 82, 3109, 9977, 10133, 762, 8715, 3148, 8927
8559, 112, 94, 3404, 1075, 10229, 6952, 10056, 1082, 10274, 9836
8560, 4854, 240, 4538, 1599, 4856, 4575, 8209, 4858, 1600, 4576
8561, 206, 4388, 1510, 6822, 4390, 4393, 1512, 10275, 10277, 10276
8562, 6839, 6861, 6813, 6862, 9794, 9711, 9093, 8264, 9512, 10162
8563, 90, 736, 632, 801, 738, 10278, 2589, 9731, 10078, 2625
8564, 72, 798, 628, 787, 9729, 2637, 2549, 788, 10280, 10279
8565, 23, 6835, 3685, 6891, 10234, 8662, 3753, 10281, 9722, 7931
8566, 3405, 107, 94, 3413, 3421, 8014, 8015, 3428, 3426, 9446
8567, 129, 128, 3644, 6817, 1168, 3810, 3809, 9633, 9822, 7549
8568, 2858, 798, 896, 2859, 9495, 2769, 2922, 2921, 8426, 2919
8569, 894, 796, 2856, 2857, 2762, 9802, 2913, 2911, 7308, 2912
8570, 323, 1884, 5120, 6821, 1886, 5129, 5127, 10282, 10284, 10283
8571, 2304, 866, 586, 2289, 8398, 2732, 2477, 2341, 9239, 2478
8572, 124, 3649, 3691, 6831, 3794, 3799, 3798, 7905, 9147, 8586
8573, 3109, 81, 760, 1060, 8917, 761, 8715, 3149, 10037, 9979
8574, 1418, 147, 1365, 1755, 10246, 1367, 10226, 9763, 9369, 9362
8575, 309, 319, 5020, 6871, 5034, 5036, 5035, 9886, 10285, 9885
8576, 190, 4290, 202, 6879, 4302, 4301, 4299, 9889, 9890, 10286
8577, 6812, 6845, 6825, 6876, 8853, 8852, 7980, 8872, 9758, 9805
8578, 339, 309, 5546, 6870, 5548, 5550, 5549, 9263, 9370, 10242
8579, 67, 614, 1031, 797, 615, 8456, 9555, 9842, 9841, 10231
8580, 1757, 337, 1419, 289, 5513, 10216, 9960, 1764, 5514, 8371
8581, 353, 354, 6430, 6832, 2030, 6596, 6595, 10287, 8534, 8857
8582, 6813, 6818, 6839, 6862, 10116, 10118, 9093, 10162, 9835, 8264
8583, 5283, 296, 298, 6815, 5289, 1793, 5290, 8308, 9153, 9614
8584, 3031, 1031, 66, 610, 3062, 10100, 8907, 9015, 10107, 611
8585, 152, 1194, 1335, 1419, 4058, 9947, 1336, 10102, 4263, 10148
8586, 318, 5020, 319, 6871, 5061, 5036, 1852, 10288, 9885, 10285
8587, 202, 4290, 201, 6879, 4301, 4331, 1474, 10286, 9890, 10289
8588, 5972, 1414, 1434, 5961, 10290, 4276, 9792, 6037, 10291, 9793
8589, 128, 127, 3693, 6817, 1167, 3807, 3806, 9822, 10292, 7551
8590, 1340, 151, 1419, 1757, 1341, 10293, 9869, 9572, 9571, 9960
8591, 1418, 1438, 5793, 5796, 4282, 10170, 10294, 10295, 10296, 5858
8592, 795, 648, 1044, 6902, 8770, 9209, 9902, 9903, 8727, 8561
8593, 3658, 130, 129, 5068, 3812, 1169, 3813, 8942, 5070, 5069
8594, 1414, 1949, 1212, 1948, 8911, 8844, 10149, 8709, 1955, 7874
8595, 365, 6133, 1833, 381, 9251, 6296, 9985, 2146, 10297, 9984
8596, 6117, 295, 290, 4891, 6240, 1788, 6234, 7116, 8806, 4921
8597, 5175, 317, 318, 6871, 5181, 1851, 5182, 10298, 10299, 10288
8598, 200, 4443, 201, 6879, 4446, 4445, 1473, 10300, 10301, 10289
8599, 108, 1019, 3494, 2831, 1026, 3515, 3512, 2888, 2887, 7849
8600, 186, 135, 160, 1292, 4243, 4017, 8470, 10266, 10127, 1293
8601, 94, 1125, 116, 3405, 10302, 1131, 8016, 8015, 3429, 3422
8602, 225, 6822, 224, 6880, 9531, 9860, 1525, 9532, 9533, 10303
8603, 314, 5219, 313, 6873, 5226, 5225, 1847, 9951, 10163, 9747
8604, 237, 4665, 236, 4539, 4703, 4702, 1590, 4556, 7913, 4557
8605, 2850, 892, 794, 3502, 2900, 2760, 9877, 9636, 9648, 9962
8606, 1933, 294, 5294, 6838, 1935, 5300, 5302, 9367, 9332, 9324
8607, 196, 4487, 197, 6881, 4490, 4489, 1469, 9754, 10151, 9953
8608, 359, 5606, 5957, 2084, 5641, 9945, 5974, 2090, 5642, 5982
8609, 3696, 3652, 121, 6875, 3790, 3789, 3785, 7818, 9590, 10304
8610, 5305, 291, 294, 4888, 5311, 1787, 5312, 9628, 4931, 9716
8611, 1416, 5434, 5430, 1580, 10184, 5469, 10186, 10016, 9779, 9663
8612, 50, 867, 587, 49, 10087, 2731, 2346, 540, 8677, 2345
8613, 6832, 6813, 6861, 6862, 10085, 9711, 10124, 9593, 10162, 9512
8614, 341, 6493, 6469, 6861, 6561, 6568, 6567, 8163, 9861, 9406
8615, 73, 787, 798, 6864, 789, 10280, 10305, 9525, 9549, 9853
8616, 146, 1370, 1192, 1418, 1372, 10054, 4044, 10136, 10091, 4261
8617, 98, 61, 65, 2734, 9619, 2374, 876, 2736, 8472, 2737
8618, 1890, 321, 5131, 6872, 1892, 5137, 5139, 10239, 10240, 10260
8619, 284, 1938, 5331, 6833, 1940, 5340, 5338, 9402, 9473, 9429
8620, 6809, 6843, 6818, 6862, 8193, 10306, 10160, 10161, 9647, 9835
8621, 1992, 186, 1804, 338, 10213, 7689, 5531, 1999, 7444, 5527
8622, 1893, 5153, 320, 6872, 5162, 5160, 1895, 10251, 10307, 10252
8623, 252, 6821, 253, 6872, 9870, 9606, 1649, 10308, 9607, 9608
8624, 318, 317, 5020, 6871, 1851, 5058, 5061, 10288, 10299, 9885
8625, 156, 1420, 1315, 6882, 10309, 10310, 1316, 9882, 9959, 9881
8626, 794, 1042, 110, 3493, 8582, 1048, 9440, 9920, 9865, 7066
8627, 1420, 156, 1320, 6841, 10309, 1322, 10248, 10250, 9683, 9864
8628, 5208, 314, 315, 6869, 5214, 1848, 5215, 10311, 10257, 10256
8629, 5342, 279, 282, 6816, 5348, 1743, 5349, 8502, 9670, 9371
8630, 201, 4290, 200, 6879, 4331, 4329, 1473, 10289, 9890, 10300
8631, 1433, 5957, 5606, 2084, 9941, 9945, 5656, 5655, 5982, 5642
8632, 112, 1125, 94, 1070, 3620, 10302, 10229, 1076, 3621, 10228
8633, 1518, 4399, 204, 6880, 4403, 4402, 1520, 10222, 10263, 10221
8634, 197, 4476, 198, 6877, 4479, 4478, 1470, 10265, 10312, 10264
8635, 2302, 601, 2301, 882, 2402, 2499, 2373, 9641, 2739, 9476
8636, 1409, 138, 1416, 1190, 1411, 8648, 10313, 10126, 4026, 4255
8637, 322, 5120, 1887, 6821, 5126, 5128, 1889, 10314, 10283, 10315
8638, 2849, 105, 3281, 980, 2878, 3297, 8748, 2877, 987, 3300
8639, 338, 186, 1804, 303, 7444, 7689, 5527, 5528, 10122, 1811
8640, 1514, 4388, 205, 6822, 4392, 4391, 1516, 10316, 10277, 10317
8641, 318, 5164, 1899, 6871, 5170, 5172, 1901, 10288, 10319, 10318
8642, 5109, 1884, 323, 6821, 5117, 1886, 5115, 10320, 10284, 10282
8643, 133, 132, 3690, 1579, 1178, 3820, 3823, 10321, 9899, 9053
8644, 5176, 1902, 1899, 6871, 5180, 5185, 5179, 10322, 10323, 10318
8645, 5154, 1896, 1893, 6871, 5158, 5163, 5157, 10324, 10326, 10325
8646, 1538, 199, 4465, 6877, 1540, 4467, 4470, 10327, 10115, 10328
8647, 1510, 4377, 206, 6822, 4381, 4380, 1512, 10276, 10329, 10275
8648, 21, 3681, 3643, 6835, 3746, 3751, 3750, 10330, 9416, 8664
8649, 4444, 1530, 1534, 6879, 4451, 4453, 4452, 10331, 10333, 10332
8650, 4422, 1522, 1526, 6879, 4429, 4431, 4430, 10334, 10336, 10335
8651, 138, 1416, 1580, 1409, 8648, 10016, 10017, 1411, 10313, 9934
8652, 5131, 321, 322, 6821, 5137, 1855, 5138, 10337, 10338, 10314
8653, 5305, 1767, 291, 4888, 5313, 1768, 5311, 9628, 4932, 4931
8654, 587, 47, 48, 867, 2342, 538, 2343, 2731, 10023, 9466
8655, 1902, 5175, 1899, 6871, 5183, 5184, 5185, 10323, 10298, 10318
8656, 1896, 5153, 1893, 6871, 5161, 5162, 5163, 10326, 10339, 10325
8657, 204, 4399, 205, 6822, 4402, 4401, 1477, 10340, 10341, 10317
8658, 162, 163, 302, 4076, 1295, 6148, 6147, 4077, 4081, 9458
8659, 766, 1060, 1059, 799, 9967, 1066, 9968, 10342, 10142, 9323
8660, 121, 120, 3696, 6875, 1160, 3786, 3785, 10304, 10005, 7818
8661, 1530, 4443, 1534, 6879, 4448, 4447, 4453, 10333, 10301, 10332
8662, 1522, 4421, 1526, 6879, 4426, 4425, 4431, 10336, 10343, 10335
8663, 205, 4399, 1514, 6822, 4401, 4404, 1516, 10317, 10341, 10316
8664, 6461, 6460, 30, 6843, 6541, 6537, 6539, 9724, 9247, 7340
8665, 316, 1905, 5197, 6869, 1907, 5206, 5204, 10114, 10345, 10344
8666, 1887, 5131, 322, 6821, 5140, 5138, 1889, 10315, 10337, 10314
8667, 868, 2276, 51, 588, 9479, 2349, 9097, 2724, 2351, 2347
8668, 1530, 4432, 201, 6879, 4436, 4435, 1532, 10333, 10346, 10289
8669, 311, 5022, 312, 6823, 5044, 5049, 1845, 10191, 8597, 10093
8670, 195, 4292, 194, 6824, 4319, 4315, 1467, 10088, 8575, 10200
8671, 202, 4432, 1526, 6879, 4434, 4437, 1528, 10286, 10346, 10335
8672, 6457, 22, 6421, 6853, 6525, 6527, 6529, 9150, 10347, 7448
8673, 6420, 6818, 26, 6843, 8052, 10123, 6533, 8629, 10306, 10348
8674, 2045, 5794, 5586, 356, 5807, 7485, 5635, 2051, 5808, 5634
8675, 4539, 236, 1571, 4678, 4557, 1572, 4553, 7644, 4705, 10349
8676, 74, 784, 798, 6864, 786, 10350, 9782, 9656, 9522, 9853
8677, 1908, 315, 5197, 6869, 1910, 5203, 5205, 10351, 10256, 10344
8678, 5187, 1905, 1902, 6869, 5191, 5196, 5190, 10352, 10345, 10010
8679, 29, 27, 3684, 6891, 495, 3759, 3758, 10172, 10235, 8305
8680, 319, 1896, 5164, 6871, 1898, 5173, 5171, 10285, 10326, 10319
8681, 60, 98, 65, 2302, 9662, 876, 2375, 2372, 9642, 2376
8682, 1905, 5186, 1902, 6869, 5194, 5195, 5196, 10345, 10009, 10010
8683, 1534, 1538, 4455, 6877, 4464, 4463, 4462, 9995, 10327, 10353
8684, 5957, 5606, 1413, 1433, 9945, 9846, 9946, 9941, 5656, 4275
8685, 6436, 348, 5559, 349, 6576, 5562, 10238, 6575, 2016, 5563
8686, 1534, 4454, 1538, 6877, 4459, 4458, 4464, 9995, 9996, 10327
8687, 112, 94, 116, 3404, 10229, 8016, 3619, 10056, 6952, 3431
8688, 560, 838, 39, 2292, 2699, 9069, 2317, 2320, 9695, 2318
8689, 31, 6814, 29, 6900, 10354, 10355, 504, 10356, 9743, 10173
8690, 29, 6814, 6891, 6900, 10355, 9956, 10172, 10173, 9743, 9661
8691, 269, 4885, 268, 1773, 4898, 8260, 1695, 1774, 4899, 5318
8692, 198, 1542, 4465, 6877, 1544, 4469, 4468, 10264, 10357, 10328
8693, 1075, 92, 94, 730, 10198, 9888, 10274, 10197, 732, 9887
8694, 321, 5142, 320, 6872, 5149, 5148, 1854, 10240, 10241, 10252
8695, 1887, 1884, 5121, 6821, 5130, 5124, 5125, 10315, 10284, 10358
8696, 1887, 5120, 1884, 6821, 5128, 5129, 5130, 10315, 10283, 10284
8697, 203, 4410, 204, 6880, 4413, 4412, 1476, 10269, 10223, 10221
8698, 4389, 1510, 1514, 6822, 4396, 4398, 4397, 10359, 10276, 10316
8699, 1510, 4388, 1514, 6822, 4393, 4392, 4398, 10276, 10277, 10316
8700, 1390, 1417, 142, 6850, 10196, 10360, 1392, 9417, 9948, 9991
8701, 156, 6841, 1420, 6882, 9683, 10250, 10309, 9882, 9588, 9959
8702, 1125, 112, 94, 116, 3620, 10229, 10302, 1131, 3619, 8016
8703, 799, 1059, 78, 772, 9323, 9942, 10361, 10190, 9845, 774
8704, 187, 5880, 5869, 358, 9823, 5897, 10362, 5621, 5895, 5886
8705, 1884, 1881, 5110, 6870, 5119, 5113, 5114, 10363, 10365, 10364
8706, 6874, 6891, 6814, 6900, 8749, 9956, 9939, 8776, 9661, 9743
8707, 1510, 4378, 1506, 6878, 4386, 4385, 4387, 10366, 10368, 10367
8708, 317, 6869, 5020, 6871, 10008, 10024, 5058, 10299, 7193, 9885
8709, 6827, 6828, 6807, 6854, 10369, 9624, 9345, 9193, 7413, 9299
8710, 316, 315, 5018, 6869, 1849, 5054, 5057, 10114, 10256, 10025
8711, 1884, 5109, 1881, 6870, 5117, 5118, 5119, 10363, 10370, 10365
8712, 3284, 3292, 797, 3276, 3344, 10152, 7253, 3343, 3340, 10154
8713, 1510, 1506, 4377, 6878, 4387, 4382, 4381, 10366, 10367, 10371
8714, 141, 1395, 1191, 1417, 1397, 9972, 4033, 9519, 9520, 4258
8715, 1310, 157, 1195, 1420, 1311, 4069, 9970, 9971, 10271, 4247
8716, 4290, 6877, 200, 6879, 10033, 9994, 4329, 9890, 8793, 10300
8717, 199, 4288, 198, 6877, 4327, 4325, 1471, 10115, 10032, 10264
8718, 1872, 326, 248, 6870, 1874, 10156, 1873, 10372, 9913, 9110
8719, 214, 209, 1494, 6878, 10157, 1496, 1495, 9108, 9917, 10373
8720, 338, 5879, 186, 303, 5890, 8884, 7444, 5528, 9498, 10122
8721, 798, 784, 73, 6864, 10350, 785, 10305, 9853, 9522, 9525
8722, 201, 4443, 1530, 6879, 4445, 4448, 1532, 10289, 10301, 10333
8723, 294, 296, 5294, 6838, 1790, 5301, 5300, 9332, 9155, 9324
8724, 1315, 1420, 157, 6882, 10310, 10271, 1317, 9881, 9959, 10099
8725, 1992, 5884, 186, 338, 5892, 7314, 10213, 1999, 5888, 7444
8726, 323, 5120, 322, 6821, 5127, 5126, 1856, 10282, 10283, 10314
8727, 4962, 4683, 1816, 277, 8822, 10374, 4973, 4974, 4757, 1818
8728, 131, 185, 1592, 4214, 1408, 6144, 6143, 4215, 4217, 9600
8729, 1385, 142, 1417, 6850, 1386, 10360, 10232, 9958, 9991, 9948
8730, 25, 23, 3685, 6891, 477, 3753, 3752, 10247, 10281, 7931
8731, 3287, 105, 2848, 975, 3299, 2875, 8802, 3298, 981, 2876
8732, 205, 4388, 206, 6822, 4391, 4390, 1478, 10317, 10277, 10275
8733, 1899, 5175, 318, 6871, 5184, 5182, 1901, 10318, 10298, 10288
8734, 1961, 5440, 5604, 336, 5454, 7566, 5627, 1967, 5455, 5626
8735, 7, 5, 3680, 6858, 396, 3723, 3727, 8562, 8563, 9012
8736, 5230, 6823, 312, 6873, 10165, 10093, 5236, 10135, 10245, 9746
8737, 1917, 5231, 6823, 6873, 5235, 10375, 10095, 10174, 10175, 10245
8738, 104, 3202, 962, 2830, 3214, 3213, 968, 2873, 7934, 2874
8739, 1315, 156, 1195, 1420, 1316, 4067, 10129, 10310, 10309, 4247
8740, 1191, 142, 1390, 1417, 4035, 1392, 10128, 4258, 10360, 10196
8741, 9, 7, 3664, 6858, 405, 3729, 3728, 10193, 8562, 9010
8742, 195, 6824, 4498, 6881, 10088, 10166, 4501, 9755, 10253, 10138
8743, 4499, 1554, 6824, 6881, 4507, 10089, 10376, 10178, 10179, 10253
8744, 1917, 6823, 5230, 6873, 10095, 10165, 5238, 10174, 10245, 10135
8745, 4498, 6824, 1554, 6881, 10166, 10089, 4502, 10138, 10253, 10179
8746, 1914, 5219, 1911, 6873, 5227, 5228, 5229, 10171, 10163, 10164
8747, 1914, 1911, 5220, 6873, 5229, 5223, 5224, 10171, 10164, 10377
8748, 6831, 6874, 6811, 6875, 10051, 9938, 10049, 10119, 9579, 9789
8749, 198, 4476, 1542, 6877, 4478, 4481, 1544, 10264, 10312, 10357
8750, 1546, 4487, 1550, 6881, 4492, 4491, 4497, 10150, 10151, 10180
8751, 772, 799, 77, 629, 10190, 9974, 773, 10378, 2638, 2560
8752, 4488, 1546, 1550, 6881, 4495, 4497, 4496, 10379, 10150, 10180
8753, 5186, 1905, 316, 6869, 5194, 1907, 5192, 10009, 10345, 10114
8754, 315, 1908, 5208, 6869, 1910, 5217, 5215, 10256, 10351, 10311
8755, 282, 284, 5331, 6833, 1746, 5338, 5337, 9372, 9402, 9429
8756, 5879, 186, 5869, 338, 8884, 7445, 5893, 5890, 7444, 5887
8757, 6472, 6418, 14, 6828, 6517, 6513, 6515, 9833, 8503, 10380
8758, 25, 27, 6814, 6891, 486, 10381, 10382, 10247, 10235, 9956
8759, 199, 1538, 4454, 6877, 1540, 4458, 4457, 10115, 10327, 9996
8760, 5018, 6869, 314, 6873, 10025, 10257, 5055, 9950, 10071, 9951
8761, 5109, 323, 324, 6870, 5115, 1857, 5116, 10370, 10383, 9981
8762, 206, 4377, 207, 6878, 4380, 4379, 1479, 10384, 10371, 9983
8763, 197, 6877, 4288, 6881, 10265, 10032, 4324, 9953, 10077, 9954
8764, 1896, 319, 5153, 6871, 1898, 5159, 5161, 10326, 10285, 10339
8765, 3694, 3689, 15, 6876, 3742, 3741, 3737, 9311, 9309, 9491
8766, 5884, 2076, 187, 358, 5896, 5623, 7312, 5889, 2083, 5621
8767, 3652, 3697, 122, 6875, 3793, 3792, 3788, 9590, 9451, 8149
8768, 36, 6465, 32, 6843, 6544, 6543, 6542, 9891, 9281, 7341
8769, 1526, 4421, 202, 6879, 4425, 4424, 1528, 10335, 10343, 10286
8770, 17, 3641, 19, 6845, 3744, 3743, 450, 10041, 7737, 10147
8771, 324, 5098, 1881, 6870, 5104, 5106, 1883, 9981, 10385, 10365
8772, 3704, 3640, 11, 6876, 3736, 3735, 3731, 9930, 9929, 8871
8773, 343, 342, 6427, 6832, 2006, 6570, 6569, 8535, 8609, 8781
8774, 354, 343, 6475, 6832, 2031, 6573, 6572, 8534, 8535, 8856
8775, 28, 6420, 26, 6843, 6534, 6533, 485, 10270, 8629, 10348
8776, 1506, 4366, 207, 6878, 4370, 4369, 1508, 10367, 10386, 9983
8777, 276, 275, 1819, 4959, 1702, 5270, 1820, 4970, 8146, 4971
8778, 1059, 78, 769, 799, 9942, 770, 10109, 9323, 10361, 10387
8779, 70, 92, 727, 723, 2545, 728, 10388, 2540, 724, 2598
8780, 610, 618, 67, 627, 2530, 620, 612, 10389, 2532, 2533
8781, 678, 78, 772, 629, 680, 774, 2613, 2561, 2562, 10378
8782, 90, 736, 714, 632, 738, 2601, 716, 2589, 10278, 2588
8783, 784, 666, 74, 628, 2617, 668, 786, 10390, 2552, 2553
8784, 84, 631, 699, 751, 2576, 2577, 700, 752, 10391, 2606
8785, 748, 702, 86, 631, 2605, 704, 750, 9432, 2579, 2580
8786, 663, 72, 628, 787, 664, 2549, 2550, 2618, 788, 10279
8787, 88, 632, 711, 739, 2585, 2586, 712, 740, 10392, 2602
8788, 775, 629, 76, 675, 10208, 2558, 776, 2614, 2559, 676
8789, 760, 690, 82, 630, 2609, 692, 762, 10207, 2570, 2571
8790, 687, 80, 630, 763, 688, 2567, 2568, 2610, 764, 10393
8791, 6807, 6828, 6827, 6853, 9624, 10369, 9345, 10019, 10394, 9831
8792, 228, 1534, 4455, 6877, 1535, 4462, 4461, 9233, 9995, 10353
8793, 316, 5197, 315, 6869, 5204, 5203, 1849, 10114, 10344, 10256
8794, 24, 26, 6462, 6818, 476, 6531, 6530, 10211, 10123, 8050
8795, 256, 5187, 1902, 6869, 5188, 5190, 1903, 9552, 10352, 10010
8796, 29, 6814, 27, 6891, 10355, 10381, 495, 10172, 9956, 10235
8797, 209, 4355, 1494, 6878, 4357, 4360, 1496, 9917, 10395, 10373
8798, 1059, 79, 766, 799, 10108, 767, 9968, 9323, 10396, 10342
8799, 198, 4465, 199, 6877, 4468, 4467, 1471, 10264, 10328, 10115
8800, 1893, 5142, 1890, 6872, 5150, 5151, 5152, 10251, 10241, 10239
8801, 5143, 1893, 1890, 6872, 5147, 5152, 5146, 10397, 10251, 10239
8802, 124, 3691, 125, 6831, 3798, 3797, 1164, 7905, 8586, 7896
8803, 1518, 4410, 1522, 6880, 4415, 4414, 4420, 10222, 10223, 10268
8804, 4411, 1518, 1522, 6880, 4418, 4420, 4419, 10398, 10222, 10268
8805, 1872, 5087, 326, 6870, 5096, 5094, 1874, 10372, 10399, 9913
8806, 319, 5164, 318, 6871, 5171, 5170, 1852, 10285, 10319, 10288
8807, 3689, 6845, 15, 6876, 7739, 9757, 3741, 9309, 9758, 9491
8808, 201, 4432, 202, 6879, 4435, 4434, 1474, 10289, 10346, 10286
8809, 186, 358, 187, 5869, 7443, 5621, 1431, 7445, 5886, 10362
8810, 207, 4377, 1506, 6878, 4379, 4382, 1508, 9983, 10371, 10367
8811, 320, 309, 321, 6872, 5033, 5037, 1854, 10252, 10237, 10240
8812, 190, 203, 204, 6880, 4300, 1476, 4303, 10219, 10269, 10221
8813, 769, 79, 1059, 799, 771, 10108, 10109, 10387, 10396, 9323
8814, 1502, 208, 4366, 6878, 1504, 4368, 4371, 10400, 9916, 10386
8815, 94, 107, 99, 3413, 8014, 2865, 890, 9446, 3426, 9834
8816, 324, 1881, 5109, 6870, 1883, 5118, 5116, 9981, 10365, 10370
8817, 340, 6428, 6493, 6861, 6563, 6565, 6562, 8116, 9315, 9861
8818, 3415, 99, 107, 1006, 7238, 2865, 3424, 3427, 2867, 1013
8819, 31, 29, 3702, 6900, 504, 3762, 3761, 10356, 10173, 9158
8820, 325, 1878, 5098, 6870, 1880, 5107, 5105, 9912, 10401, 10385
8821, 25, 3642, 27, 6891, 3756, 3755, 486, 10247, 8347, 10235
8822, 186, 358, 5884, 187, 7443, 5889, 7314, 1431, 5621, 7312
8823, 84, 631, 751, 800, 2576, 10391, 752, 10402, 2641, 10403
8824, 14, 6418, 12, 6828, 6513, 6512, 422, 10380, 8503, 10074
8825, 6457, 6419, 20, 6853, 6526, 6522, 6524, 9150, 9039, 10404
8826, 610, 67, 797, 627, 612, 9842, 10405, 10389, 2533, 2634
8827, 323, 322, 309, 6821, 1856, 5038, 5039, 10282, 10314, 7008
8828, 205, 206, 190, 6822, 1478, 4305, 4304, 10317, 10275, 10218
8829, 772, 78, 799, 629, 774, 10361, 10190, 10378, 2562, 2638
8830, 5208, 314, 6869, 6873, 5214, 10257, 10311, 10183, 9951, 10071
8831, 35, 31, 3702, 6900, 3764, 3761, 3765, 9265, 10356, 9158
8832, 4476, 6877, 197, 6881, 10312, 10265, 4479, 10189, 10077, 9953
8833, 94, 107, 3415, 99, 8014, 3424, 6951, 890, 2865, 7238
8834, 3289, 977, 3284, 895, 3313, 3314, 3315, 7665, 2909, 7254
8835, 6467, 6472, 16, 6828, 6520, 6516, 6518, 10035, 9833, 10406
8836, 261, 5242, 1917, 6823, 5243, 5245, 1918, 9787, 10230, 10095
8837, 233, 1554, 4510, 6824, 1555, 4517, 4516, 9780, 10089, 10236
8838, 92, 94, 70, 727, 9888, 2621, 2545, 728, 10407, 10388
8839, 194, 4292, 193, 6824, 4315, 4314, 1466, 10200, 8575, 10086
8840, 311, 310, 5022, 6823, 1844, 5045, 5044, 10191, 9075, 8597
8841, 797, 1031, 67, 610, 10231, 9555, 9842, 10405, 10107, 612
8842, 1896, 1899, 5164, 6871, 5174, 5172, 5173, 10326, 10318, 10319
8843, 1896, 5165, 1899, 6871, 5168, 5169, 5174, 10326, 10408, 10318
8844, 1526, 4432, 1530, 6879, 4437, 4436, 4442, 10335, 10346, 10333
8845, 4433, 1526, 1530, 6879, 4440, 4442, 4441, 10409, 10335, 10333
8846, 99, 107, 1001, 3413, 2865, 1007, 2866, 9834, 3426, 3425
8847, 32, 6461, 30, 6843, 6540, 6539, 503, 7341, 9724, 7340
8848, 754, 83, 800, 1061, 755, 10410, 10411, 10137, 10113, 9966
8849, 1908, 5197, 1905, 6869, 5205, 5206, 5207, 10351, 10344, 10345
8850, 5198, 1908, 1905, 6869, 5202, 5207, 5201, 10412, 10351, 10345
8851, 23, 21, 3643, 6835, 468, 3750, 3749, 10234, 10330, 8664
8852, 1538, 4465, 1542, 6877, 4470, 4469, 4475, 10327, 10328, 10357
8853, 1538, 1542, 4466, 6877, 4475, 4474, 4473, 10327, 10357, 10413
8854, 1872, 5088, 1878, 6870, 5092, 5091, 5097, 10372, 10414, 10401
8855, 1315, 1195, 157, 1420, 10129, 4069, 1317, 10310, 4247, 10271
8856, 1191, 1390, 141, 1417, 10128, 1391, 4033, 4258, 10196, 9519
8857, 4356, 1494, 1502, 6878, 4363, 4365, 4364, 10415, 10373, 10400
8858, 187, 2071, 5880, 358, 5622, 5894, 9823, 5621, 2077, 5895
8859, 5087, 1878, 325, 6870, 5095, 1880, 5093, 10399, 10401, 9912
8860, 28, 30, 6460, 6843, 494, 6537, 6536, 10270, 7340, 9247
8861, 1872, 1878, 5087, 6870, 5097, 5095, 5096, 10372, 10401, 10399
8862, 303, 161, 134, 1292, 10159, 1291, 10209, 9879, 1294, 10416
8863, 1494, 4355, 1502, 6878, 4360, 4359, 4365, 10373, 10395, 10400
8864, 122, 3697, 123, 6875, 3792, 3791, 1162, 8149, 9451, 8189
8865, 261, 1917, 5231, 6823, 1918, 5235, 5233, 9787, 10095, 10375
8866, 1554, 233, 4499, 6824, 1555, 4504, 4507, 10089, 9780, 10376
8867, 1502, 4355, 208, 6878, 4359, 4358, 1504, 10400, 10395, 9916
8868, 1908, 6869, 5209, 6873, 10351, 10417, 5212, 10176, 10071, 10177
8869, 321, 6821, 5131, 6872, 10338, 10337, 5137, 10240, 9607, 10260
8870, 868, 51, 50, 588, 9097, 541, 9795, 2724, 2347, 2348
8871, 4399, 6822, 204, 6880, 10341, 10340, 4402, 10263, 9533, 10221
8872, 1908, 5208, 6869, 6873, 5217, 10311, 10351, 10176, 10183, 10071
8873, 4477, 6877, 1542, 6881, 10418, 10357, 4484, 10181, 10077, 10182
8874, 1878, 1881, 5098, 6870, 5108, 5106, 5107, 10401, 10365, 10385
8875, 39, 38, 838, 560, 529, 9668, 9069, 2317, 2311, 2699
8876, 15, 3689, 17, 6845, 3741, 3740, 441, 9757, 7739, 10041
8877, 1878, 5099, 1881, 6870, 5102, 5103, 5108, 10401, 10419, 10365
8878, 1542, 6877, 4476, 6881, 10357, 10312, 4481, 10182, 10077, 10189
8879, 1502, 4366, 1506, 6878, 4371, 4370, 4376, 10400, 10386, 10367
8880, 4367, 1502, 1506, 6878, 4374, 4376, 4375, 10420, 10400, 10367
8881, 1920, 5242, 262, 6823, 5246, 5244, 1921, 10192, 10230, 9814
8882, 628, 798, 73, 787, 2637, 10305, 2551, 10279, 10280, 789
8883, 632, 736, 89, 801, 10278, 737, 2587, 2625, 10078, 10079
8884, 838, 38, 37, 560, 9668, 528, 10146, 2699, 2311, 2312
8885, 4510, 1558, 234, 6824, 4518, 1559, 4515, 10236, 10199, 9810
8886, 5132, 1887, 6821, 6872, 5135, 10315, 10421, 10254, 10255, 9607
8887, 204, 205, 190, 6822, 1477, 4304, 4303, 10340, 10317, 10218
8888, 322, 321, 309, 6821, 1855, 5037, 5038, 10314, 10338, 7008
8889, 341, 340, 6493, 6861, 2002, 6562, 6561, 8163, 8116, 9861
8890, 4400, 6822, 1514, 6880, 10422, 10316, 4407, 10259, 9533, 10258
8891, 1494, 4356, 214, 6878, 4363, 4362, 1495, 10373, 10415, 9108
8892, 5131, 6821, 1887, 6872, 10337, 10315, 5140, 10260, 9607, 10255
8893, 5088, 1872, 248, 6870, 5092, 1873, 5089, 10414, 10372, 9110
8894, 1884, 5110, 6821, 6870, 5114, 10423, 10284, 10363, 10364, 10243
8895, 303, 134, 186, 1292, 10209, 9990, 10122, 9879, 10416, 10266
8896, 1514, 6822, 4399, 6880, 10316, 10341, 4404, 10258, 9533, 10263
8897, 1893, 5154, 6871, 6872, 5157, 10324, 10325, 10251, 10424, 9609
8898, 1522, 6879, 4422, 6880, 10336, 10334, 4429, 10268, 9534, 10425
8899, 1510, 6822, 4378, 6878, 10276, 10426, 4386, 10366, 10427, 10368
8900, 1893, 6871, 5153, 6872, 10325, 10339, 5162, 10251, 9609, 10307
8901, 1884, 6821, 5109, 6870, 10284, 10320, 5117, 10363, 10243, 10370
8902, 5253, 1920, 262, 6823, 5256, 1921, 5254, 10428, 10192, 9814
8903, 234, 1558, 4521, 6824, 1559, 4528, 4527, 9810, 10199, 10429
8904, 326, 5087, 325, 6870, 5094, 5093, 1859, 9913, 10399, 9912
8905, 1510, 4377, 6822, 6878, 4381, 10329, 10276, 10366, 10371, 10427
8906, 208, 4355, 209, 6878, 4358, 4357, 1481, 9916, 10395, 9917
8907, 88, 632, 739, 801, 2585, 10392, 740, 9785, 2625, 10096
8908, 784, 74, 798, 628, 786, 9782, 10350, 10390, 2553, 2637
8909, 5121, 1884, 250, 6821, 5124, 1885, 5122, 10358, 10284, 9906
8910, 1510, 4389, 222, 6822, 4396, 4395, 1511, 10276, 10359, 9904
8911, 5109, 6821, 323, 6870, 10320, 10282, 5115, 10370, 10243, 10383
8912, 6428, 340, 360, 6861, 6563, 2100, 6564, 9315, 8116, 10273
8913, 3652, 122, 121, 6875, 3788, 1161, 3789, 9590, 8149, 10304
8914, 206, 6822, 4377, 6878, 10275, 10329, 4380, 10384, 10427, 10371
8915, 193, 4520, 194, 6824, 4523, 4522, 1466, 10086, 10212, 10200
8916, 311, 5252, 310, 6823, 5259, 5258, 1844, 10191, 10210, 9075
8917, 1546, 4488, 231, 6881, 4495, 4494, 1547, 10150, 10379, 9246
8918, 3640, 3694, 13, 6876, 3739, 3738, 3734, 9929, 9311, 8870
8919, 260, 1914, 5220, 6873, 1915, 5224, 5222, 10430, 10171, 10377
8920, 259, 5220, 1911, 6873, 5221, 5223, 1912, 9254, 10377, 10164
8921, 232, 4488, 1550, 6881, 4493, 4496, 1551, 10431, 10379, 10180
8922, 65, 61, 98, 60, 2374, 9619, 876, 2375, 551, 9662
8923, 5110, 250, 1884, 6821, 5112, 1885, 5114, 10423, 9906, 10284
8924, 4378, 1510, 222, 6822, 4386, 1511, 4383, 10426, 10276, 9904
8925, 224, 1518, 4411, 6880, 1519, 4418, 4417, 10303, 10222, 10398
8926, 1893, 5143, 253, 6872, 5147, 5145, 1894, 10251, 10397, 9608
8927, 5121, 251, 1887, 6821, 5123, 1888, 5125, 10358, 9923, 10315
8928, 1890, 252, 5143, 6872, 1891, 5144, 5146, 10239, 10308, 10397
8929, 325, 5098, 324, 6870, 5105, 5104, 1858, 9912, 10385, 9981
8930, 4389, 1514, 223, 6822, 4397, 1515, 4394, 10359, 10316, 9914
8931, 207, 4366, 208, 6878, 4369, 4368, 1480, 9983, 10386, 9916
8932, 1522, 225, 4411, 6880, 1523, 4416, 4419, 10268, 9532, 10398
8933, 1887, 251, 5132, 6821, 1888, 5133, 5135, 10315, 9923, 10421
8934, 4400, 223, 1514, 6822, 4406, 1515, 4407, 10422, 9914, 10316
8935, 232, 1550, 4499, 6881, 1551, 4506, 4505, 10431, 10180, 10178
8936, 260, 5231, 1914, 6873, 5232, 5234, 1915, 10430, 10175, 10171
8937, 1546, 231, 4477, 6881, 1547, 4482, 4485, 10150, 9246, 10181
8938, 259, 1911, 5209, 6873, 1912, 5213, 5211, 9254, 10164, 10177
8939, 48, 49, 587, 867, 539, 2345, 2343, 9466, 8677, 2731
8940, 4433, 226, 1526, 6879, 4439, 1527, 4440, 10409, 9613, 10335
8941, 309, 6821, 321, 6872, 7008, 10338, 5037, 10237, 9607, 10240
8942, 190, 204, 6822, 6880, 4303, 10340, 10218, 10219, 10221, 9533
8943, 1899, 5165, 255, 6871, 5169, 5167, 1900, 10318, 10408, 9496
8944, 5165, 1896, 254, 6871, 5168, 1897, 5166, 10408, 10326, 9610
8945, 227, 4433, 1530, 6879, 4438, 4441, 1531, 9487, 10409, 10333
8946, 1522, 4422, 225, 6880, 4429, 4428, 1523, 10268, 10425, 9532
8947, 1893, 253, 5154, 6872, 1894, 5155, 5157, 10251, 9608, 10424
8948, 20, 22, 6457, 6853, 458, 6525, 6524, 10404, 10347, 9150
8949, 1538, 4466, 229, 6877, 4473, 4472, 1539, 10327, 10413, 9548
8950, 1908, 5198, 258, 6869, 5202, 5200, 1909, 10351, 10412, 9644
8951, 1518, 224, 4400, 6880, 1519, 4405, 4408, 10222, 10303, 10259
8952, 1890, 5132, 252, 6872, 5136, 5134, 1891, 10239, 10254, 10308
8953, 257, 5198, 1905, 6869, 5199, 5201, 1906, 9553, 10412, 10345
8954, 1542, 230, 4466, 6877, 1543, 4471, 4474, 10357, 9650, 10413
8955, 1502, 4367, 220, 6878, 4374, 4373, 1503, 10400, 10420, 9589
8956, 249, 1881, 5099, 6870, 1882, 5103, 5101, 10432, 10365, 10419
8957, 5099, 1878, 247, 6870, 5102, 1879, 5100, 10419, 10401, 9587
8958, 1506, 221, 4367, 6878, 1507, 4372, 4375, 10367, 10433, 10420
8959, 6467, 16, 18, 6828, 6518, 440, 6519, 10035, 10406, 10434
8960, 14, 16, 6472, 6828, 431, 6516, 6515, 10380, 10406, 9833
8961, 186, 134, 135, 1292, 9990, 1184, 4243, 10266, 10416, 10127
8962, 1530, 4444, 227, 6879, 4451, 4450, 1531, 10333, 10331, 9487
8963, 1899, 255, 5176, 6871, 1900, 5177, 5179, 10318, 9496, 10322
8964, 258, 5209, 6869, 6873, 5210, 10417, 9644, 9253, 10177, 10071
8965, 1409, 1416, 133, 1190, 10313, 10435, 10436, 10126, 4255, 4008
8966, 230, 6877, 4477, 6881, 9650, 10418, 4483, 9244, 10077, 10181
8967, 254, 1896, 5154, 6871, 1897, 5158, 5156, 9610, 10326, 10324
8968, 1526, 226, 4422, 6879, 1527, 4427, 4430, 10335, 9613, 10334
8969, 739, 632, 89, 801, 10392, 2587, 741, 10096, 2625, 10079
8970, 784, 798, 73, 628, 10350, 10305, 785, 10390, 2637, 2551
8971, 230, 1542, 4477, 6877, 1543, 4484, 4483, 9650, 10357, 10418
8972, 5209, 1908, 258, 6869, 5212, 1909, 5210, 10417, 10351, 9644
8973, 5075, 1875, 334, 333, 5078, 10437, 5081, 5086, 5085, 1870
8974, 216, 4343, 1491, 213, 4348, 4350, 4352, 1497, 4347, 10438
8975, 257, 1905, 5187, 6869, 1906, 5191, 5189, 9553, 10345, 10352
8976, 253, 6871, 5154, 6872, 9605, 10324, 5155, 9608, 9609, 10424
8977, 4422, 6879, 225, 6880, 10334, 9529, 4428, 10425, 9534, 9532
8978, 4455, 1538, 229, 6877, 4463, 1539, 4460, 10353, 10327, 9548
8979, 221, 1506, 4378, 6878, 1507, 4385, 4384, 10433, 10367, 10368
8980, 5110, 1881, 249, 6870, 5113, 1882, 5111, 10364, 10365, 10432
8981, 247, 1878, 5088, 6870, 1879, 5091, 5090, 9587, 10401, 10414
8982, 4356, 1502, 220, 6878, 4364, 1503, 4361, 10415, 10400, 9589
8983, 230, 4477, 231, 6881, 4483, 4482, 1549, 9244, 10181, 9246
8984, 258, 259, 5209, 6873, 1673, 5211, 5210, 9253, 9254, 10177
8985, 94, 112, 69, 727, 10229, 10155, 10227, 10407, 9016, 10439
8986, 5132, 6821, 251, 6872, 10421, 9923, 5133, 10254, 9607, 10440
8987, 4400, 223, 6822, 6880, 4406, 9914, 10422, 10259, 10441, 9533
8988, 3640, 13, 11, 6876, 3734, 423, 3735, 9929, 8870, 8871
8989, 3694, 15, 13, 6876, 3737, 432, 3738, 9311, 9491, 8870
8990, 4400, 224, 223, 6880, 4405, 1521, 4406, 10259, 10303, 10441
8991, 5132, 251, 252, 6872, 5133, 1645, 5134, 10254, 10440, 10308
8992, 228, 227, 4444, 6879, 1537, 4450, 4449, 9234, 9487, 10331
8993, 256, 5176, 255, 6871, 5178, 5177, 1661, 9497, 10322, 9496
8994, 234, 4521, 235, 6824, 4527, 4526, 1565, 9810, 10429, 9080
8995, 262, 263, 5253, 6823, 1689, 5255, 5254, 9814, 9074, 10428
8996, 5154, 253, 254, 6871, 5155, 1653, 5156, 10324, 9605, 9610
8997, 4422, 226, 225, 6879, 4427, 1529, 4428, 10334, 9613, 9529
8998, 4455, 229, 228, 6877, 4460, 1541, 4461, 10353, 9548, 9233
8999, 5187, 256, 257, 6869, 5188, 1665, 5189, 10352, 9552, 9553
9000, 262, 5242, 261, 6823, 5244, 5243, 1685, 9814, 10230, 9787
9001, 4510, 234, 233, 6824, 4515, 1561, 4516, 10236, 9810, 9780
9002, 1963, 1964, 1436, 5431, 1970, 5672, 5664, 5481, 5480, 9682
9003, 5088, 248, 247, 6870, 5089, 1626, 5090, 10414, 9110, 9587
9004, 214, 4356, 220, 6878, 4362, 4361, 1505, 9108, 10415, 9589
9005, 93, 69, 112, 727, 726, 10155, 9541, 729, 10439, 9016
9006, 797, 71, 610, 627, 10442, 10443, 10405, 2634, 2546, 10389
9007, 94, 69, 70, 727, 10227, 621, 2621, 10407, 10439, 10388
9008, 3289, 978, 977, 895, 3312, 984, 3313, 7665, 2915, 2909
9009, 1243, 1370, 145, 1192, 4234, 1371, 1244, 4043, 10054, 4042
9010, 141, 1231, 1390, 1191, 1232, 4238, 1391, 4033, 4034, 10128
9011, 1279, 157, 1195, 1310, 1280, 4069, 4070, 4222, 1311, 9970
9012, 1267, 1330, 153, 1194, 4226, 1331, 1268, 4061, 7481, 4060
9013, 1264, 1194, 153, 1335, 4059, 4060, 1266, 4227, 9947, 1337
9014, 141, 1395, 1228, 1191, 1397, 4239, 1230, 4033, 9972, 4032
9015, 157, 1195, 1315, 1276, 4069, 10129, 1317, 1278, 4068, 4223
9016, 1375, 1240, 145, 1192, 4235, 1242, 1377, 9227, 4041, 4042
9017, 1255, 1350, 149, 1193, 4230, 1351, 1256, 4052, 9444, 4051
9018, 1355, 1252, 149, 1193, 4231, 1254, 1357, 10130, 4050, 4051
9019, 250, 251, 5121, 6821, 1641, 5123, 5122, 9906, 9923, 10358
9020, 222, 4389, 223, 6822, 4395, 4394, 1517, 9904, 10359, 9914
9021, 232, 231, 4488, 6881, 1553, 4494, 4493, 10431, 9246, 10379
9022, 5220, 259, 260, 6873, 5221, 1677, 5222, 10377, 9254, 10430
9023, 225, 224, 4411, 6880, 1525, 4417, 4416, 9532, 10303, 10398
9024, 5143, 252, 253, 6872, 5144, 1649, 5145, 10397, 10308, 9608
9025, 224, 6822, 223, 6880, 9860, 9914, 1521, 10303, 9533, 10441
9026, 251, 6821, 252, 6872, 9923, 9870, 1645, 10440, 9607, 10308
9027, 5165, 254, 255, 6871, 5166, 1657, 5167, 10408, 9610, 9496
9028, 226, 4433, 227, 6879, 4439, 4438, 1533, 9613, 10409, 9487
9029, 257, 258, 5198, 6869, 1669, 5200, 5199, 9553, 9644, 10412
9030, 4466, 230, 229, 6877, 4471, 1545, 4472, 10413, 9650, 9548
9031, 247, 249, 5099, 6870, 1633, 5101, 5100, 9587, 10432, 10419
9032, 4367, 221, 220, 6878, 4372, 1509, 4373, 10420, 10433, 9589
9033, 1219, 1409, 133, 1190, 4242, 10436, 4007, 4010, 10126, 4008
9034, 1292, 134, 135, 1288, 10416, 1184, 10127, 4075, 4012, 4013
9035, 161, 134, 1292, 1288, 1291, 10416, 1294, 1290, 4012, 4075
9036, 1409, 133, 132, 1219, 10436, 1178, 1410, 4242, 4007, 1220
9037, 678, 772, 77, 629, 2613, 773, 679, 2561, 10378, 2560
9038, 784, 73, 666, 628, 785, 667, 2617, 10390, 2551, 2552
9039, 714, 736, 89, 632, 2601, 737, 715, 2588, 10278, 2587
9040, 748, 85, 702, 631, 749, 703, 2605, 9432, 2578, 2579
9041, 699, 631, 85, 751, 2577, 2578, 701, 2606, 10391, 753
9042, 663, 628, 73, 787, 2550, 2551, 665, 2618, 10279, 789
9043, 711, 632, 89, 739, 2586, 2587, 713, 2602, 10392, 741
9044, 81, 690, 760, 630, 691, 2609, 761, 2569, 2570, 10207
9045, 77, 629, 775, 675, 2560, 10208, 777, 677, 2559, 2614
9046, 630, 81, 687, 763, 2569, 689, 2568, 10393, 765, 2610
9047, 71, 618, 610, 627, 2531, 2530, 10443, 2546, 2532, 10389
9048, 727, 69, 70, 723, 10439, 621, 10388, 2598, 2539, 2540
9049, 727, 93, 69, 723, 729, 726, 10439, 2598, 725, 2539
9050, 66, 71, 618, 610, 656, 2531, 619, 611, 10443, 2530
9051, 180, 143, 4178, 4184, 1379, 4180, 4179, 4189, 4188, 9306
9052, 236, 1571, 4678, 1566, 1572, 10349, 4705, 1568, 4533, 4704
9053, 169, 154, 4112, 4118, 1324, 4114, 4113, 4123, 4122, 8181
9054, 171, 152, 4124, 4130, 1334, 4126, 4125, 4135, 4134, 8476
9055, 4148, 149, 174, 4142, 4152, 1349, 4153, 9838, 4144, 4143
9056, 135, 1300, 159, 186, 6961, 1301, 4015, 4243, 7693, 7690
9057, 1419, 151, 1194, 1193, 10293, 4056, 4263, 4262, 4055, 1205
9058, 801, 3404, 3409, 3417, 6953, 3464, 8638, 10444, 3476, 3475
9059, 1300, 135, 159, 1285, 6961, 4015, 1301, 4220, 4016, 1286
9060, 1405, 139, 1190, 1222, 1407, 4028, 6960, 4241, 1224, 4027
9061, 143, 1380, 1192, 1237, 1381, 6965, 4038, 1238, 4236, 4039
9062, 1417, 5442, 5430, 1416, 10445, 5499, 10446, 1426, 10185, 10186
9063, 798, 75, 629, 628, 10168, 2556, 2636, 2637, 2555, 640
9064, 1193, 1418, 147, 1192, 4260, 10246, 4047, 1204, 4261, 4046
9065, 1195, 1305, 159, 1282, 6962, 1307, 4014, 4072, 4221, 1284
9066, 186, 159, 135, 1195, 7690, 4015, 4243, 4245, 4014, 1207
9067, 5789, 5592, 5786, 5795, 6920, 7601, 9187, 5844, 6921, 5856
9068, 1325, 155, 1194, 1270, 1327, 4064, 6964, 4225, 1272, 4063
9069, 5965, 5969, 5966, 5593, 6038, 6030, 9481, 6924, 6925, 7613
9070, 139, 1191, 1416, 1190, 4029, 4257, 10447, 4028, 1202, 4255
9071, 1434, 5963, 1414, 1433, 10448, 10449, 4276, 1443, 7159, 4274
9072, 4088, 165, 158, 4094, 4089, 1304, 4090, 9796, 4099, 4098
9073, 155, 1420, 1194, 1195, 10249, 4264, 4064, 4065, 4247, 1206
9074, 799, 79, 630, 629, 10396, 2565, 2639, 2638, 2564, 641
9075, 1419, 1418, 5790, 1193, 1428, 10450, 8153, 4262, 4260, 9445
9076, 1418, 5790, 5785, 5799, 10450, 5825, 10201, 10451, 5854, 5853
9077, 172, 151, 4130, 4136, 1339, 4132, 4131, 4141, 4140, 8342
9078, 1419, 5788, 1418, 1439, 8154, 10452, 1428, 4285, 7197, 4286
9079, 4136, 173, 150, 4142, 4137, 1344, 4138, 9454, 4147, 4146
9080, 5963, 1413, 5958, 5973, 10453, 10158, 6022, 6026, 10454, 6025
9081, 4683, 1704, 1816, 277, 4758, 5266, 10374, 4757, 1706, 1818
9082, 2071, 1432, 187, 4265, 5624, 1441, 5622, 7955, 4271, 4268
9083, 1413, 5963, 1414, 5973, 10453, 10449, 1423, 10454, 6026, 9465
9084, 1414, 1188, 1187, 1212, 4252, 1199, 4251, 10149, 4024, 4074
9085, 5963, 1413, 1414, 1433, 10453, 1423, 10449, 7159, 4275, 4274
9086, 849, 96, 2704, 3074, 855, 2706, 2710, 7716, 7362, 7559
9087, 331, 352, 2018, 332, 2025, 5568, 5567, 1868, 5569, 10145
9088, 1001, 99, 2751, 891, 2866, 2754, 7957, 2868, 900, 2757
9089, 596, 65, 61, 2734, 602, 2374, 2377, 2738, 2737, 8472
9090, 61, 596, 2734, 552, 2377, 2738, 8472, 554, 2378, 8474
9091, 87, 801, 631, 632, 10203, 2642, 2582, 2583, 2625, 643
9092, 91, 632, 733, 717, 2542, 8752, 735, 719, 2590, 2600
9093, 730, 70, 91, 720, 8751, 2543, 731, 2599, 2544, 721
9094, 94, 91, 70, 632, 10455, 2543, 2621, 2623, 2542, 644
9095, 3404, 801, 3409, 1075, 6953, 8638, 3464, 9836, 8640, 8639
9096, 70, 730, 91, 94, 8751, 731, 2543, 2621, 9887, 10455
9097, 87, 631, 745, 705, 2582, 8755, 747, 707, 2581, 2604
9098, 897, 3200, 898, 799, 10456, 7181, 907, 2772, 10457, 2771
9099, 800, 3200, 799, 898, 9778, 10457, 809, 2770, 7181, 2771
9100, 897, 3200, 966, 898, 10456, 3236, 2924, 907, 7181, 2925
9101, 570, 63, 2260, 2704, 576, 2389, 2388, 2708, 2707, 7558
9102, 557, 2687, 62, 2268, 2691, 2690, 563, 2379, 7780, 2380
9103, 1875, 330, 6356, 329, 1877, 6385, 6384, 5082, 1866, 8222
9104, 893, 3495, 795, 892, 10458, 10459, 2764, 902, 7255, 2761
9105, 893, 3495, 892, 1015, 10458, 7255, 902, 2897, 3521, 2898
9106, 3207, 800, 3196, 3200, 10460, 9776, 3271, 3260, 9778, 3268
9107, 800, 799, 3207, 3196, 809, 10461, 10460, 9776, 10462, 3271
9108, 799, 3196, 3201, 3207, 10462, 3253, 10141, 10461, 3271, 3272
9109, 629, 75, 778, 672, 2556, 779, 8757, 2557, 673, 2615
9110, 3200, 800, 799, 3207, 9778, 809, 10457, 3260, 10460, 10461
9111, 800, 799, 3196, 630, 809, 10462, 9776, 2640, 2639, 10206
9112, 75, 629, 778, 798, 2556, 8757, 779, 10168, 2636, 9732
9113, 628, 68, 790, 660, 2536, 791, 8753, 2537, 661, 2619
9114, 1191, 139, 1400, 1225, 4029, 1401, 6963, 4030, 1226, 4240
9115, 614, 68, 627, 657, 616, 2535, 8750, 2620, 659, 2534
9116, 627, 797, 68, 614, 2634, 10463, 2535, 8750, 9841, 616
9117, 3293, 3290, 2857, 1029, 3349, 7061, 6910, 7089, 7309, 7088
9118, 798, 3292, 3279, 3282, 10464, 3356, 7251, 10465, 3341, 6916
9119, 3284, 1030, 797, 796, 9926, 9928, 7253, 7252, 10466, 806
9120, 800, 83, 631, 630, 10410, 2574, 2641, 2640, 2573, 642
9121, 215, 1491, 6355, 219, 1493, 6375, 6374, 1501, 4351, 9437
9122, 795, 3495, 794, 892, 10459, 9921, 804, 2761, 7255, 2760
9123, 794, 1043, 1042, 3499, 10467, 1049, 8582, 9919, 9494, 9389
9124, 1434, 5963, 1433, 2085, 10448, 7159, 1443, 5653, 6000, 5654
9125, 1414, 1413, 5973, 1948, 1423, 10454, 9465, 8709, 8710, 8210
9126, 801, 3404, 3417, 3415, 6953, 3476, 10444, 6950, 3432, 3477
9127, 143, 1417, 1191, 1192, 10233, 4258, 4037, 4038, 4259, 1203
9128, 1190, 1416, 139, 1405, 4255, 10447, 4028, 6960, 8647, 1407
9129, 186, 1420, 5884, 1804, 1430, 7313, 7314, 7689, 9064, 9872
9130, 797, 68, 628, 627, 10463, 2536, 2635, 2634, 2535, 639
9131, 798, 3292, 3282, 797, 10464, 3341, 10465, 807, 10152, 10153
9132, 281, 6047, 5429, 336, 8427, 9289, 5447, 1960, 8429, 5446
9133, 167, 156, 4100, 4106, 1314, 4102, 4101, 4111, 4110, 8946
9134, 1412, 5879, 186, 4265, 6995, 8884, 1421, 4269, 6996, 4267
9135, 15, 424, 13, 6812, 427, 2178, 432, 9490, 10468, 8868
9136, 433, 424, 15, 6812, 2186, 427, 2185, 10469, 10468, 9490
9137, 415, 13, 424, 6812, 418, 2178, 2179, 9808, 8868, 10468
9138, 433, 15, 17, 6812, 2185, 441, 436, 10469, 9490, 10040
9139, 442, 433, 17, 6812, 2193, 436, 2192, 10470, 10469, 10040
9140, 442, 17, 19, 6812, 2192, 450, 445, 10470, 10040, 10471
9141, 13, 415, 11, 6812, 418, 2171, 423, 8868, 9808, 8869
9142, 19, 21, 442, 6812, 459, 2199, 445, 10471, 10472, 10470
9143, 415, 406, 11, 6812, 2172, 409, 2171, 9808, 9992, 8869
9144, 21, 451, 442, 6812, 454, 2202, 2199, 10472, 10473, 10470
9145, 9, 11, 406, 6812, 414, 409, 2164, 10474, 8869, 9992
9146, 478, 25, 27, 6814, 2220, 486, 481, 10131, 10382, 10381
9147, 487, 478, 27, 6814, 2228, 481, 2227, 10064, 10131, 10381
9148, 29, 487, 27, 6814, 490, 2227, 495, 10355, 10064, 10381
9149, 478, 469, 25, 6814, 2221, 472, 2220, 10131, 10132, 10382
9150, 487, 29, 496, 6814, 490, 2234, 2235, 10064, 10355, 9739
9151, 25, 469, 460, 6814, 472, 2216, 2213, 10382, 10132, 10475
9152, 31, 496, 29, 6814, 499, 2234, 504, 10354, 9739, 10355
9153, 25, 460, 23, 6814, 2213, 463, 477, 10382, 10475, 10476
9154, 505, 496, 31, 6814, 2242, 499, 2241, 10205, 9739, 10354
9155, 505, 31, 33, 6814, 2241, 513, 508, 10205, 10354, 10477
9156, 453, 24, 22, 6818, 2207, 467, 457, 10140, 10211, 10478
9157, 453, 462, 24, 6818, 2209, 466, 2207, 10140, 10139, 10211
9158, 24, 471, 26, 6818, 2214, 475, 476, 10211, 10479, 10123
9159, 24, 462, 471, 6818, 466, 2215, 2214, 10211, 10139, 10479
9160, 16, 435, 18, 6828, 2187, 439, 440, 10406, 9622, 10434
9161, 14, 426, 16, 6828, 2180, 430, 431, 10380, 9848, 10406
9162, 435, 16, 426, 6828, 2187, 430, 2188, 9622, 10406, 9848
9163, 417, 426, 14, 6828, 2181, 2180, 421, 9993, 9848, 10380
9164, 18, 435, 444, 6828, 439, 2195, 2194, 10434, 9622, 9623
9165, 408, 14, 12, 6828, 2173, 422, 412, 10480, 10380, 10074
9166, 408, 417, 14, 6828, 2174, 421, 2173, 10480, 9993, 10380
9167, 10, 408, 12, 6828, 2166, 412, 413, 8570, 10480, 10074
9168, 10, 399, 408, 6828, 403, 2167, 2166, 8570, 9508, 10480
9169, 1188, 1414, 1415, 6890, 4252, 1424, 4253, 9969, 8913, 9470
9170, 5610, 5797, 5784, 5794, 7027, 5848, 7243, 7486, 5850, 5810
9171, 5784, 5797, 5610, 1752, 5848, 7027, 7243, 7245, 7028, 7026
9172, 1417, 1400, 1581, 140, 8241, 8707, 10106, 8242, 1402, 8706
9173, 2849, 3367, 105, 2848, 9680, 10481, 2878, 2879, 9528, 2875
9174, 1799, 186, 1412, 5879, 10121, 1421, 9694, 9499, 8884, 6995
9175, 3069, 3070, 648, 1044, 3091, 10482, 8606, 3104, 3101, 9209
9176, 3200, 3192, 897, 966, 3237, 10045, 10456, 3236, 3232, 2924
9177, 3032, 3029, 2271, 836, 3047, 7775, 8122, 8152, 7772, 7774
9178, 2271, 3029, 3032, 1029, 7775, 3047, 8122, 8101, 3061, 3058
9179, 3070, 3073, 647, 1043, 3088, 8539, 8169, 3102, 3099, 8773
9180, 3070, 647, 3073, 850, 8169, 8539, 3088, 8171, 8170, 8542
9181, 4685, 5357, 1454, 4695, 7186, 8378, 7624, 4769, 7954, 8904
9182, 4685, 1454, 5357, 5356, 7624, 8378, 7186, 7187, 7623, 5415
9183, 151, 1340, 1194, 1261, 1341, 10483, 4056, 1262, 4228, 4057
9184, 151, 1194, 1340, 1419, 4056, 10483, 1341, 10293, 4263, 9869
9185, 152, 1194, 1340, 1261, 4058, 10483, 1342, 1263, 4057, 4228
9186, 152, 1340, 1194, 1419, 1342, 10483, 4058, 10102, 9869, 4263
9187, 5610, 5797, 5594, 6043, 7027, 7431, 5741, 7024, 6941, 7789
9188, 5594, 5797, 5610, 5794, 7431, 7027, 5741, 7432, 5850, 7486
9189, 6851, 4543, 5359, 4541, 7386, 7067, 6946, 6945, 4552, 6942
9190, 6851, 5359, 4543, 6846, 6946, 7067, 7386, 7474, 7068, 6978
9191, 216, 6875, 121, 122, 8150, 10304, 4609, 1614, 8149, 1161
9192, 6832, 333, 353, 354, 8711, 5570, 10287, 8534, 2029, 2030
9193, 159, 1804, 1420, 186, 7691, 9064, 10484, 7690, 7689, 1430
9194, 159, 1195, 1420, 1305, 4014, 4247, 10484, 1307, 6962, 8244
9195, 1420, 1195, 159, 186, 4247, 4014, 10484, 1430, 4245, 7690
9196, 5963, 1434, 5961, 2085, 10448, 9793, 6005, 6000, 5653, 6004
9197, 3207, 3206, 799, 3192, 3264, 10485, 10461, 3261, 3262, 10486
9198, 3207, 799, 3206, 3201, 10461, 10485, 3264, 3272, 10141, 3275
9199, 6894, 3028, 1115, 3112, 7459, 7475, 7400, 7183, 7458, 7399
9200, 6894, 1115, 3028, 1033, 7400, 7475, 7459, 7745, 8524, 3041
9201, 742, 87, 632, 801, 743, 2583, 8756, 9784, 10203, 2625
9202, 742, 632, 87, 708, 8756, 2583, 743, 2603, 2584, 709
9203, 75, 781, 628, 798, 783, 8754, 2555, 10168, 9783, 2637
9204, 75, 628, 781, 669, 2555, 8754, 783, 671, 2554, 2616
9205, 147, 1365, 1192, 1418, 1367, 10487, 4046, 10246, 10226, 4261
9206, 147, 1192, 1365, 1246, 4046, 10487, 1367, 1248, 4045, 4233
9207, 146, 1192, 1365, 1418, 4044, 10487, 1366, 10136, 4261, 10226
9208, 146, 1365, 1192, 1246, 1366, 10487, 4044, 1247, 4233, 4045
9209, 6843, 489, 28, 30, 7347, 2229, 10270, 7340, 493, 494
9210, 6901, 3033, 6867, 1028, 7321, 7728, 7180, 7607, 3040, 7606
9211, 6901, 6867, 3033, 3071, 7180, 7728, 7321, 7134, 7178, 7318
9212, 6849, 5546, 339, 347, 6986, 5549, 10488, 7004, 5552, 2014
9213, 895, 3292, 798, 797, 7664, 10464, 2767, 2765, 10152, 807
9214, 895, 798, 3292, 3279, 2767, 10464, 7664, 7250, 7251, 3356
9215, 1075, 94, 91, 730, 10274, 10455, 10204, 10197, 9887, 731
9216, 6843, 480, 28, 489, 10267, 484, 10270, 7347, 2230, 2229
9217, 757, 83, 630, 693, 759, 2573, 8758, 2608, 695, 2572
9218, 1073, 1074, 1117, 3153, 1080, 10489, 7461, 3188, 3187, 7353
9219, 1073, 1117, 1074, 6830, 7461, 10489, 1080, 8257, 7306, 7630
9220, 1117, 1074, 1056, 3153, 10489, 10490, 7303, 7353, 3187, 7069
9221, 1117, 1056, 1074, 6830, 7303, 10490, 10489, 7306, 7202, 7630
9222, 1056, 1074, 6857, 3153, 10490, 9131, 7204, 7069, 3187, 7225
9223, 1056, 6857, 1074, 6830, 7204, 9131, 10490, 7202, 7206, 7630
9224, 1417, 1436, 5442, 1416, 4281, 9681, 10445, 1426, 4280, 10185
9225, 1417, 5442, 1436, 5437, 10445, 9681, 4281, 7121, 5503, 7120
9226, 797, 1031, 68, 614, 10231, 10080, 10463, 9841, 8456, 616
9227, 1436, 1435, 5445, 1416, 1445, 10491, 9706, 4280, 4278, 10195
9228, 1436, 5445, 1435, 5438, 9706, 10491, 1445, 7831, 5506, 7370
9229, 309, 5546, 1834, 2008, 5550, 6981, 1838, 2009, 5551, 6254
9230, 1834, 5546, 309, 6821, 6981, 5550, 1838, 6983, 6982, 7008
9231, 630, 766, 79, 799, 8759, 767, 2565, 2639, 10342, 10396
9232, 79, 766, 630, 684, 767, 8759, 2565, 685, 2611, 2566
9233, 6884, 4963, 6859, 4961, 7048, 7298, 7078, 7062, 5015, 7434
9234, 6884, 6859, 4963, 6865, 7078, 7298, 7048, 6955, 7075, 7045
9235, 798, 2859, 3282, 3279, 8426, 10492, 10465, 7251, 7023, 6916
9236, 798, 3282, 2859, 1032, 10465, 10492, 8426, 9540, 9510, 7256
9237, 3291, 3282, 2859, 3279, 3352, 10492, 6918, 3355, 6916, 7023
9238, 5971, 359, 335, 355, 5977, 10493, 9924, 5976, 2104, 5573
9239, 5957, 359, 335, 5606, 5974, 10493, 9735, 9945, 5641, 8394
9240, 5957, 335, 359, 355, 9735, 10493, 5974, 5975, 5573, 2104
9241, 1416, 1580, 139, 1405, 10016, 8637, 10447, 8647, 10018, 1407
9242, 1029, 6901, 3032, 6889, 7804, 10494, 3058, 9585, 7322, 8125
9243, 1029, 3032, 6901, 1028, 3058, 10494, 7804, 1035, 3059, 7607
9244, 3033, 3032, 6901, 6889, 3044, 10494, 7321, 7320, 8125, 7322
9245, 3033, 6901, 3032, 1028, 7321, 10494, 3044, 3040, 7607, 3059
9246, 5882, 5883, 6829, 5870, 5942, 8043, 8722, 5939, 5940, 9181
9247, 6829, 5883, 5882, 5877, 8043, 5942, 8722, 9256, 5950, 5943
9248, 977, 3284, 894, 3290, 3314, 10495, 2908, 3309, 3316, 7366
9249, 977, 894, 3284, 895, 2908, 10495, 3314, 2909, 904, 7254
9250, 796, 894, 3284, 3290, 2762, 10495, 7252, 7307, 7366, 3316
9251, 796, 3284, 894, 895, 7252, 10495, 2762, 2766, 7254, 904
9252, 139, 1400, 1416, 1191, 1401, 10496, 10447, 4029, 6963, 4257
9253, 1417, 1416, 1400, 1191, 1426, 10496, 8241, 4258, 4257, 6963
9254, 6834, 4661, 4884, 4676, 7610, 8500, 7714, 7609, 4803, 8422
9255, 6834, 4884, 4661, 4892, 7714, 8500, 7610, 7718, 4904, 7986
9256, 2842, 3280, 3277, 1028, 8168, 3345, 7415, 7414, 7380, 6970
9257, 3277, 3280, 2842, 3287, 3345, 8168, 7415, 3308, 3301, 8164
9258, 6840, 1192, 1380, 144, 8288, 6965, 9192, 9191, 4040, 1382
9259, 6903, 1800, 1832, 5364, 6913, 7467, 10497, 6914, 6912, 7469
9260, 1832, 1800, 6903, 304, 7467, 6913, 10497, 1835, 4998, 9102
9261, 1832, 5023, 6903, 5364, 5026, 7812, 10497, 7469, 8175, 6914
9262, 6903, 5023, 1832, 304, 7812, 5026, 10497, 9102, 5025, 1835
9263, 5793, 5788, 1418, 5799, 5841, 10452, 10294, 5867, 5866, 10451
9264, 498, 34, 515, 507, 2243, 2249, 9963, 2244, 511, 2250
9265, 6856, 4680, 237, 4666, 8462, 4707, 8498, 7577, 4711, 4710
9266, 6856, 237, 4680, 4542, 8498, 4707, 8462, 8936, 4559, 8048
9267, 3416, 1074, 801, 2844, 7627, 8641, 10498, 7626, 7628, 9457
9268, 3416, 3407, 801, 3417, 3485, 9456, 10498, 3488, 3487, 10444
9269, 801, 3407, 3416, 2844, 9456, 3485, 10498, 9457, 8495, 7626
9270, 1208, 186, 1412, 1799, 9944, 1421, 9826, 9857, 10121, 9694
9271, 1208, 1412, 186, 1185, 9826, 1421, 9944, 4018, 4246, 4244
9272, 4112, 6095, 169, 4118, 8179, 6169, 4113, 8181, 8180, 4123
9273, 169, 6095, 4112, 6121, 6169, 8179, 4113, 6165, 6170, 8187
9274, 6869, 1666, 6849, 1662, 9645, 9196, 7190, 9551, 4641, 9189
9275, 5430, 5443, 1417, 1581, 5500, 10499, 10446, 9133, 8811, 10106
9276, 5615, 5443, 1417, 5437, 7426, 10499, 8259, 7049, 5510, 7121
9277, 6863, 1112, 2851, 1047, 7587, 8137, 7859, 7290, 7586, 7858
9278, 6863, 2851, 1112, 6837, 7859, 8137, 7587, 7511, 8508, 7866
9279, 289, 5610, 6820, 1752, 7242, 8160, 7751, 1758, 7026, 8159
9280, 6820, 5610, 289, 5611, 8160, 7242, 7751, 8374, 5768, 8372
9281, 1043, 648, 1044, 795, 8774, 9209, 1050, 8772, 8770, 9902
9282, 1043, 1044, 648, 3070, 1050, 9209, 8774, 3102, 3101, 10482
9283, 4891, 6868, 6820, 289, 7703, 7484, 7778, 4917, 7752, 7751
9284, 6820, 6868, 4891, 6101, 7484, 7703, 7778, 7777, 7297, 7118
9285, 3409, 801, 3416, 1074, 8638, 10498, 3471, 8201, 8641, 7627
9286, 3409, 3416, 801, 3417, 3471, 10498, 8638, 3475, 3488, 10444
9287, 6887, 1840, 310, 1834, 9727, 1843, 10500, 7437, 5047, 5046
9288, 310, 1840, 6887, 4684, 1843, 9727, 10500, 9072, 9488, 8310
9289, 310, 6823, 6887, 1834, 9075, 7438, 10500, 5046, 7227, 7437
9290, 6887, 6823, 310, 4684, 7438, 9075, 10500, 8310, 9076, 9072
9291, 6860, 2837, 3506, 2862, 9726, 10501, 7869, 7870, 2907, 7059
9292, 3497, 3506, 2837, 2862, 3574, 10501, 8985, 7058, 7059, 2907
9293, 452, 339, 6849, 6365, 10502, 10488, 7302, 7300, 9261, 7154
9294, 453, 461, 339, 452, 2212, 10503, 10002, 456, 2210, 10502
9295, 6365, 461, 339, 308, 7867, 10503, 9261, 9262, 10504, 2000
9296, 6365, 339, 461, 452, 9261, 10503, 7867, 7300, 10502, 2210
9297, 6855, 1058, 775, 1059, 7698, 10505, 8345, 7696, 1065, 8344
9298, 799, 775, 1058, 1059, 9975, 10505, 8862, 9323, 8344, 1065
9299, 6856, 4673, 4691, 4677, 7573, 4851, 7694, 7574, 4837, 4815
9300, 6856, 4691, 4673, 6834, 7694, 4851, 7573, 7768, 7267, 7939
9301, 3407, 801, 3415, 899, 9456, 6950, 3448, 7602, 2756, 7237
9302, 3407, 3415, 801, 3417, 3448, 6950, 9456, 3487, 3477, 10444
9303, 389, 379, 4685, 380, 2154, 10506, 8107, 2155, 383, 8106
9304, 2108, 6047, 5439, 238, 6069, 10507, 8875, 9208, 9360, 9752
9305, 2108, 5439, 6047, 5429, 8875, 10507, 6069, 8464, 5453, 9289
9306, 281, 5439, 6047, 238, 5450, 10507, 8427, 4868, 9752, 9360
9307, 281, 6047, 5439, 5429, 8427, 10507, 5450, 5447, 9289, 5453
9308, 6820, 6111, 299, 1803, 7037, 6248, 8537, 7846, 7041, 8688
9309, 6820, 299, 6111, 6096, 8537, 6248, 7037, 7039, 6244, 6249
9310, 6887, 1686, 6823, 4684, 8311, 7971, 7438, 8310, 4716, 9076
9311, 6887, 6823, 1686, 6849, 7438, 7971, 8311, 7439, 7228, 7973
9312, 6867, 2296, 835, 3033, 7727, 8803, 10508, 7728, 7726, 8804
9313, 835, 2296, 6867, 2268, 8803, 7727, 10508, 10509, 2427, 7782
9314, 6867, 2687, 835, 2268, 7781, 2693, 10508, 7782, 7780, 10509
9315, 1662, 6849, 256, 1658, 9189, 10510, 4639, 4638, 7909, 1660
9316, 1662, 256, 6849, 6869, 4639, 10510, 9189, 9551, 9552, 7190
9317, 6871, 256, 6849, 1658, 9497, 10510, 7192, 7910, 1660, 7909
9318, 6871, 6849, 256, 6869, 7192, 10510, 9497, 7193, 7190, 9552
9319, 6867, 2274, 853, 3068, 8298, 9506, 8618, 8139, 8299, 9248
9320, 6867, 853, 2274, 2303, 8618, 9506, 8298, 7568, 9325, 2460
9321, 308, 6365, 462, 307, 9262, 8029, 10020, 1830, 8031, 8032
9322, 462, 6365, 308, 461, 8029, 9262, 10020, 465, 7867, 10504
9323, 3074, 6357, 646, 2272, 7125, 6396, 8604, 7985, 7984, 8712
9324, 3074, 646, 6357, 1042, 8604, 6396, 7125, 3081, 7732, 7123
9325, 6900, 517, 1615, 1618, 8703, 10511, 8550, 7952, 8702, 4604
9326, 6850, 6113, 1581, 6114, 8095, 7765, 8519, 8245, 6279, 7647
9327, 1419, 5790, 1979, 1757, 8153, 5824, 10225, 9960, 8231, 5517
9328, 1419, 1979, 5790, 5800, 10225, 5824, 8153, 8155, 5806, 5826
9329, 189, 6362, 460, 461, 7872, 8081, 8886, 8089, 7922, 464
9330, 460, 6362, 189, 188, 8081, 7872, 8886, 8079, 8083, 1451
9331, 6833, 6883, 6834, 6816, 8283, 7643, 7708, 7707, 7769, 7709
9332, 6834, 6883, 6833, 4887, 7643, 8283, 7708, 7796, 8225, 7797
9333, 5587, 335, 1952, 5971, 8395, 1959, 10512, 9356, 9924, 7923
9334, 1952, 335, 5587, 5607, 1959, 8395, 10512, 7441, 7440, 5769
9335, 1952, 5616, 5587, 5971, 8065, 5766, 10512, 7923, 8066, 9356
9336, 5587, 5616, 1952, 5607, 5766, 8065, 10512, 5769, 5770, 7441
9337, 2264, 54, 86, 748, 2354, 827, 10513, 8518, 2675, 750
9338, 2283, 89, 6857, 739, 7223, 10514, 7140, 9353, 741, 10097
9339, 2283, 6857, 89, 3150, 7140, 10514, 7223, 7129, 7139, 7222
9340, 801, 6857, 89, 739, 9001, 10514, 10079, 10096, 10097, 741
9341, 801, 89, 6857, 3150, 10079, 10514, 9001, 9535, 7222, 7139
9342, 882, 3150, 2301, 3151, 9569, 10515, 9476, 9478, 3180, 9381
9343, 882, 2301, 3150, 2263, 9476, 10515, 9569, 9568, 2370, 7130
9344, 58, 2301, 3150, 3151, 2368, 10515, 8843, 9383, 9381, 3180
9345, 58, 3150, 2301, 2263, 8843, 10515, 2368, 2366, 7130, 2370
9346, 295, 6859, 6838, 4886, 7562, 8012, 9333, 9054, 7961, 8013
9347, 5019, 5018, 6823, 5022, 5056, 10516, 10214, 5052, 5066, 8597
9348, 5019, 6823, 5018, 6873, 10214, 10516, 5056, 9745, 10245, 9950
9349, 5021, 6823, 5018, 5022, 7226, 10516, 5067, 5065, 8597, 5066
9350, 5021, 5018, 6823, 6873, 5067, 10516, 7226, 10072, 9950, 10245
9351, 4291, 4288, 6824, 4292, 4337, 10517, 8576, 4333, 4336, 8575
9352, 4291, 6824, 4288, 6881, 8576, 10517, 4337, 10076, 10253, 9954
9353, 4289, 6824, 4288, 4292, 10217, 10517, 4326, 4322, 8575, 4336
9354, 4289, 4288, 6824, 6881, 4326, 10517, 10217, 9756, 9954, 10253
9355, 2108, 5589, 2060, 6046, 8651, 5724, 6067, 6068, 8652, 6060
9356, 2060, 5589, 2108, 5598, 5724, 8651, 6067, 5731, 5730, 8463
9357, 6849, 435, 434, 425, 10518, 438, 9374, 9558, 2191, 2189
9358, 426, 6849, 435, 347, 10519, 10518, 2188, 10520, 7004, 10521
9359, 426, 435, 6849, 425, 2188, 10518, 10519, 429, 2191, 9558
9360, 5969, 5618, 5597, 5593, 6926, 5775, 7219, 6925, 5663, 5762
9361, 5969, 5597, 5618, 6852, 7219, 5775, 6926, 7753, 7541, 7754
9362, 5796, 5799, 1418, 5785, 5855, 10451, 10295, 5852, 5853, 10201
9363, 1418, 5799, 5796, 5793, 10451, 5855, 10295, 10294, 5867, 5858
9364, 5021, 6873, 6849, 6869, 10072, 10522, 7002, 7189, 10071, 7190
9365, 5021, 6849, 6873, 6823, 7002, 10522, 10072, 7226, 7228, 10245
9366, 3420, 793, 6837, 2846, 7531, 8977, 9151, 8484, 9203, 9538
9367, 3420, 6837, 793, 1071, 9151, 8977, 7531, 7533, 7510, 7532
9368, 4291, 6881, 6849, 6824, 10076, 10523, 7800, 8576, 10253, 7891
9369, 4291, 6849, 6881, 6877, 7800, 10523, 10076, 8790, 8789, 10077
9370, 5970, 5597, 5595, 5959, 7538, 5727, 7349, 6028, 7218, 7350
9371, 5595, 5597, 5970, 2059, 5727, 7538, 7349, 5717, 5725, 8815
9372, 5546, 6849, 6870, 6821, 6986, 10524, 10242, 6982, 6985, 10243
9373, 1627, 6849, 6870, 6365, 7155, 10524, 9111, 6381, 7154, 9109
9374, 189, 6849, 6878, 6362, 7873, 8239, 9592, 7872, 7508, 8238
9375, 462, 6365, 327, 328, 8029, 10525, 10526, 8028, 8030, 1861
9376, 327, 6365, 462, 471, 10525, 8029, 10526, 10057, 8216, 2215
9377, 835, 2268, 557, 2296, 10509, 2379, 2696, 8803, 2427, 2426
9378, 557, 2268, 835, 2687, 2379, 10509, 2696, 2691, 7780, 2693
9379, 6820, 6841, 1325, 154, 8620, 9399, 10527, 7749, 8964, 1326
9380, 1325, 1194, 6820, 154, 6964, 7479, 10527, 1326, 4062, 7749
9381, 6849, 1650, 6871, 1654, 9148, 9611, 7192, 7908, 4632, 7911
9382, 6887, 1454, 372, 364, 7625, 8236, 8718, 9806, 9319, 2142
9383, 91, 632, 801, 733, 2542, 2625, 10528, 735, 8752, 9730
9384, 1454, 1212, 6887, 372, 8234, 10529, 7625, 8236, 6803, 8718
9385, 1454, 6887, 1212, 5356, 7625, 10529, 8234, 7623, 6929, 7876
9386, 5361, 6887, 1212, 372, 7083, 10529, 7875, 9788, 8718, 6803
9387, 5361, 1212, 6887, 5356, 7875, 10529, 7083, 5403, 7876, 6929
9388, 6849, 416, 426, 425, 8439, 2183, 10519, 9558, 2184, 429
9389, 6864, 2292, 839, 2281, 9023, 9696, 9286, 9204, 2323, 9602
9390, 6864, 839, 2292, 3030, 9286, 9696, 9023, 9025, 9560, 9021
9391, 648, 647, 3070, 6358, 653, 8169, 10482, 6402, 6401, 9081
9392, 648, 3070, 647, 1043, 10482, 8169, 653, 8774, 3102, 8773
9393, 109, 1114, 2848, 3367, 8619, 8801, 10530, 9940, 3389, 9528
9394, 2848, 1114, 109, 3280, 8801, 8619, 10530, 9100, 8167, 9976
9395, 1028, 6867, 109, 3033, 7606, 7759, 1034, 3040, 7728, 3036
9396, 109, 6867, 1028, 1114, 7759, 7606, 1034, 8619, 7605, 7604
9397, 6819, 6436, 349, 6423, 7524, 6575, 9615, 7501, 6584, 6583
9398, 5969, 5970, 6852, 5967, 6031, 7539, 7753, 6039, 6034, 8926
9399, 5969, 6852, 5970, 5959, 7753, 7539, 6031, 6029, 7540, 6028
9400, 5872, 5883, 1803, 5600, 5949, 8039, 10531, 8352, 8038, 8040
9401, 1803, 5883, 5872, 5875, 8039, 5949, 10531, 8387, 5941, 5948
9402, 1803, 1420, 5872, 5600, 9065, 8202, 10531, 8040, 9386, 8352
9403, 5872, 1420, 1803, 5875, 8202, 9065, 10531, 5948, 9066, 8387
9404, 4265, 5869, 187, 5880, 7600, 10362, 4268, 8057, 5897, 9823
9405, 4265, 187, 5869, 186, 4268, 10362, 7600, 4267, 1431, 7445
9406, 303, 134, 1799, 186, 10209, 10532, 1805, 10122, 9990, 10121
9407, 303, 1799, 134, 6468, 1805, 10532, 10209, 9874, 9873, 6557
9408, 1208, 1799, 134, 186, 9857, 10532, 1209, 9944, 10121, 9990
9409, 1208, 134, 1799, 6468, 1209, 10532, 9857, 7395, 6557, 9873
9410, 6846, 2109, 2108, 238, 7276, 2115, 7325, 7402, 7466, 9208
9411, 6846, 2108, 2109, 6082, 7325, 2115, 7276, 7798, 6087, 6088
9412, 1875, 6365, 470, 6356, 6383, 7494, 10533, 6384, 6413, 7493
9413, 470, 6365, 1875, 471, 7494, 6383, 10533, 474, 8216, 10534
9414, 6885, 6452, 6832, 6454, 6932, 10535, 9582, 6933, 6768, 8794
9415, 6885, 6832, 6452, 6862, 9582, 10535, 6932, 8049, 9593, 7030
9416, 6453, 6832, 6452, 6454, 8795, 10535, 6760, 6767, 8794, 6768
9417, 6453, 6452, 6832, 6862, 6760, 10535, 8795, 8279, 7030, 9593
9418, 85, 3110, 2276, 751, 7658, 7017, 10536, 753, 8697, 8696
9419, 2276, 3110, 85, 2264, 7017, 7658, 10536, 2355, 7019, 7657
9420, 2276, 53, 85, 751, 2352, 829, 10536, 8696, 2679, 753
9421, 85, 53, 2276, 2264, 829, 2352, 10536, 7657, 2353, 2355
9422, 6811, 210, 6875, 213, 10014, 10537, 9789, 10015, 1489, 8148
9423, 6811, 6875, 210, 6831, 9789, 10537, 10014, 10049, 10119, 7930
9424, 123, 6875, 210, 213, 8189, 10537, 4342, 1490, 8148, 1489
9425, 337, 289, 356, 5800, 5514, 10538, 2097, 5803, 10215, 5804
9426, 1419, 289, 356, 5586, 8371, 10538, 10220, 9707, 9708, 5634
9427, 1419, 356, 289, 5800, 10220, 10538, 8371, 8155, 5804, 10215
9428, 1193, 5790, 1345, 150, 9445, 10539, 6966, 4053, 8229, 1346
9429, 1757, 1345, 5790, 150, 9949, 10539, 8231, 8233, 1346, 8229
9430, 6881, 1670, 6849, 6824, 9245, 9140, 10523, 10253, 9138, 7891
9431, 2261, 3069, 3070, 648, 7378, 3091, 8392, 8608, 8606, 10482
9432, 2261, 3070, 3069, 851, 8392, 3091, 7378, 7377, 8391, 7376
9433, 5586, 289, 5610, 5611, 9708, 7242, 5767, 5688, 8372, 5768
9434, 5586, 5610, 289, 5784, 5767, 7242, 9708, 7487, 7243, 7244
9435, 6849, 189, 451, 452, 7873, 8885, 8916, 7302, 7871, 455
9436, 6849, 451, 189, 212, 8916, 8885, 7873, 10540, 10081, 1487
9437, 6887, 398, 4685, 389, 9489, 10541, 7188, 8109, 2163, 8107
9438, 6887, 4685, 398, 6849, 7188, 10541, 9489, 7439, 7890, 9216
9439, 1453, 4685, 398, 389, 7889, 10541, 8925, 8923, 8107, 2163
9440, 1453, 398, 4685, 6849, 8925, 10541, 7889, 7801, 9216, 7890
9441, 3661, 1615, 118, 1618, 8549, 4603, 3783, 7950, 4604, 1619
9442, 118, 1615, 3661, 3646, 4603, 8549, 3783, 3779, 8548, 3782
9443, 347, 453, 443, 444, 10003, 2205, 10542, 10543, 2201, 447
9444, 5617, 5795, 5596, 5592, 6923, 7052, 5772, 5685, 6921, 5715
9445, 5617, 5596, 5795, 6844, 5772, 7052, 6923, 8425, 7894, 8132
9446, 71, 797, 626, 627, 10442, 2633, 2547, 2546, 2634, 638
9447, 1754, 6883, 6844, 1753, 7947, 10544, 8406, 1760, 7946, 9866
9448, 1754, 6844, 6883, 2109, 8406, 10544, 7947, 8405, 8053, 7275
9449, 2110, 6844, 6883, 1753, 9037, 10544, 8694, 8881, 9866, 7946
9450, 2110, 6883, 6844, 2109, 8694, 10544, 9037, 2116, 7275, 8053
9451, 6890, 5358, 1949, 1950, 7143, 5405, 8912, 7141, 5404, 1956
9452, 6890, 1949, 5358, 1455, 8912, 5405, 7143, 9118, 8523, 8522
9453, 417, 416, 6849, 1834, 420, 8439, 10545, 8984, 8436, 6984
9454, 6849, 416, 417, 426, 8439, 420, 10545, 10519, 2183, 2181
9455, 417, 6849, 347, 1834, 10545, 7004, 10546, 8984, 6984, 7003
9456, 347, 6849, 417, 426, 7004, 10545, 10546, 10520, 10519, 2181
9457, 417, 347, 346, 1834, 10546, 2013, 9867, 8984, 7003, 8514
9458, 191, 1455, 5358, 4293, 1459, 8522, 7700, 4310, 4312, 7161
9459, 191, 5358, 1455, 6890, 7700, 8522, 1459, 7748, 7143, 9118
9460, 6882, 158, 1420, 1310, 10547, 8243, 9959, 10272, 1312, 9971
9461, 799, 3192, 3200, 3207, 10486, 3237, 10457, 10461, 3261, 3260
9462, 799, 3200, 3192, 897, 10457, 3237, 10486, 2772, 10456, 10045
9463, 6356, 498, 331, 329, 9041, 9749, 8221, 8222, 9750, 1867
9464, 517, 219, 1615, 1618, 8787, 1617, 10511, 8702, 4605, 4604
9465, 6890, 6046, 5367, 6852, 8653, 10548, 7142, 7472, 8671, 7470
9466, 6890, 5367, 6046, 2108, 7142, 10548, 8653, 7666, 7323, 6068
9467, 2107, 5367, 6046, 6852, 7682, 10548, 6064, 7756, 7470, 8671
9468, 2107, 6046, 5367, 2108, 6064, 10548, 7682, 2114, 6068, 7323
9469, 6904, 1752, 6859, 2111, 9363, 7563, 7101, 7996, 7917, 7921
9470, 6904, 6859, 1752, 4890, 7101, 7563, 9363, 8246, 7564, 4928
9471, 1216, 1415, 5428, 1578, 9852, 10549, 10550, 9690, 9485, 9673
9472, 2264, 86, 111, 748, 10513, 9431, 7102, 8518, 750, 8517
9473, 6900, 3716, 6364, 3661, 9266, 8918, 7951, 7953, 3771, 7949
9474, 6900, 6364, 3716, 2290, 7951, 8918, 9266, 8442, 8441, 8921
9475, 6883, 280, 1582, 4544, 8661, 9764, 7591, 7403, 9689, 4566
9476, 6883, 1582, 280, 283, 7591, 9764, 8661, 7592, 7590, 1744
9477, 480, 332, 1875, 6356, 9391, 5084, 10551, 8797, 9393, 6384
9478, 1875, 332, 480, 333, 5084, 9391, 10551, 5085, 1869, 10065
9479, 6885, 2022, 6424, 2018, 7852, 9461, 8019, 8490, 5565, 9760
9480, 6885, 6424, 2022, 6439, 8019, 9461, 7852, 7854, 6591, 7836
9481, 6858, 397, 7, 388, 10552, 2157, 8562, 8564, 2158, 391
9482, 6824, 4685, 193, 235, 7887, 10553, 10086, 9080, 4699, 9880
9483, 6824, 193, 4685, 1453, 10086, 10553, 7887, 7888, 4316, 7889
9484, 1462, 193, 4685, 235, 1465, 10553, 8690, 4535, 9880, 4699
9485, 1462, 4685, 193, 1453, 8690, 10553, 1465, 4317, 7889, 4316
9486, 94, 69, 622, 70, 10227, 2538, 2622, 2621, 621, 633
9487, 183, 4202, 6113, 6118, 4207, 7762, 6204, 6208, 7659, 6209
9488, 6849, 451, 243, 442, 8916, 10554, 8339, 8915, 2202, 9277
9489, 6849, 243, 451, 212, 8339, 10554, 8916, 10540, 1606, 10081
9490, 6808, 451, 243, 212, 10082, 10554, 10062, 10063, 10081, 1606
9491, 68, 790, 797, 628, 791, 10555, 10463, 2536, 8753, 2635
9492, 798, 797, 790, 628, 807, 10555, 9728, 2637, 2635, 8753
9493, 3682, 6858, 1170, 3680, 9338, 9922, 3832, 3726, 9012, 3835
9494, 1170, 6858, 3682, 6135, 9922, 9338, 3832, 6262, 9339, 9336
9495, 5885, 5881, 6836, 5878, 5934, 8317, 9036, 5946, 5952, 9112
9496, 5885, 6836, 5881, 5868, 9036, 8317, 5934, 5930, 9394, 5933
9497, 83, 754, 631, 696, 755, 10556, 2574, 697, 2607, 2575
9498, 83, 631, 754, 800, 2574, 10556, 755, 10410, 2641, 10411
9499, 84, 631, 754, 696, 2576, 10556, 756, 698, 2575, 2607
9500, 84, 754, 631, 800, 756, 10556, 2576, 10402, 10411, 2641
9501, 461, 462, 339, 308, 465, 10557, 10503, 10504, 10020, 2000
9502, 461, 339, 462, 453, 10503, 10557, 465, 2212, 10002, 2209
9503, 6813, 339, 462, 308, 9829, 10557, 9988, 9710, 2000, 10020
9504, 6813, 462, 339, 453, 9988, 10557, 9829, 10004, 2209, 10002
9505, 6849, 452, 347, 339, 7302, 10558, 7004, 10488, 10502, 2014
9506, 6849, 347, 452, 443, 7004, 10558, 7302, 8914, 10542, 2203
9507, 453, 347, 452, 339, 10003, 10558, 456, 10002, 2014, 10502
9508, 453, 452, 347, 443, 456, 10558, 10003, 2205, 2203, 10542
9509, 2861, 3198, 2840, 2836, 6990, 8471, 3016, 2929, 6988, 2945
9510, 2861, 2840, 3198, 6866, 3016, 8471, 6990, 7899, 9385, 7900
9511, 5075, 334, 6365, 327, 5081, 10559, 9171, 5080, 1871, 10525
9512, 5075, 6365, 334, 1875, 9171, 10559, 5081, 5078, 6383, 10437
9513, 471, 6365, 334, 327, 8216, 10559, 10058, 10057, 10525, 1871
9514, 471, 334, 6365, 1875, 10058, 10559, 8216, 10534, 10437, 6383
9515, 5961, 1414, 5963, 5973, 10291, 10449, 6005, 6035, 9465, 6026
9516, 5961, 5963, 1414, 1434, 6005, 10449, 10291, 9793, 10448, 4276
9517, 3418, 3416, 6830, 3403, 3474, 7631, 8256, 3473, 3470, 8596
9518, 6830, 3416, 3418, 3412, 7631, 3474, 8256, 8974, 3486, 3480
9519, 6844, 5614, 6897, 6826, 8832, 9078, 7597, 8407, 9449, 8993
9520, 6844, 6897, 5614, 5588, 7597, 9078, 8832, 7595, 7596, 5774
9521, 470, 6356, 6355, 479, 7493, 6415, 8063, 2224, 8798, 9058
9522, 470, 6355, 6356, 6361, 8063, 6415, 7493, 7492, 6417, 6416
9523, 1043, 647, 794, 1042, 8773, 8583, 10467, 1049, 7733, 8582
9524, 6868, 4894, 288, 6112, 8114, 4919, 10560, 7702, 9475, 6237
9525, 288, 4894, 6868, 289, 4919, 8114, 10560, 1751, 4920, 7752
9526, 288, 4891, 6868, 6112, 4918, 7703, 10560, 6237, 7701, 7702
9527, 6868, 4891, 288, 289, 7703, 4918, 10560, 7752, 4917, 1751
9528, 3418, 3419, 115, 3406, 3484, 8877, 9013, 3481, 3482, 8878
9529, 115, 3419, 3418, 3410, 8877, 3484, 9013, 9343, 3466, 3472
9530, 6881, 1670, 232, 231, 9245, 4646, 10431, 9246, 1671, 1553
9531, 6881, 232, 1670, 6824, 10431, 4646, 9245, 10253, 9638, 9138
9532, 6849, 6873, 1674, 1670, 10522, 10561, 8047, 9140, 9255, 4647
9533, 6849, 1674, 6873, 6823, 8047, 10561, 10522, 7228, 8046, 10245
9534, 259, 1674, 6873, 1670, 4648, 10561, 9254, 1672, 4647, 9255
9535, 79, 769, 629, 799, 771, 10562, 2564, 10396, 10387, 2638
9536, 79, 629, 769, 681, 2564, 10562, 771, 683, 2563, 2612
9537, 78, 629, 769, 799, 2562, 10562, 770, 10361, 2638, 10387
9538, 78, 769, 629, 681, 770, 10562, 2562, 682, 2612, 2563
9539, 6830, 2854, 3361, 1117, 7305, 10563, 8258, 7306, 7304, 3375
9540, 6830, 3361, 2854, 2845, 8258, 10563, 7305, 8217, 9653, 2989
9541, 993, 3361, 2854, 1117, 3373, 10563, 2986, 3400, 3375, 7304
9542, 993, 2854, 3361, 2845, 2986, 10563, 3373, 2988, 2989, 9653
9543, 6849, 398, 1834, 407, 9216, 10564, 6984, 8438, 2170, 8437
9544, 6849, 1834, 398, 6887, 6984, 10564, 9216, 7439, 7437, 9489
9545, 408, 1834, 398, 407, 8983, 10564, 2169, 411, 8437, 2170
9546, 3204, 799, 3197, 3206, 10244, 9163, 10565, 3263, 10485, 3274
9547, 3197, 799, 3204, 2836, 9163, 10244, 10565, 6987, 9164, 9269
9548, 3197, 3198, 3204, 3206, 3256, 3230, 10565, 3274, 3273, 3263
9549, 3204, 3198, 3197, 2836, 3230, 3256, 10565, 9269, 6988, 6987
9550, 516, 330, 329, 6356, 8459, 1866, 10566, 8460, 6385, 8222
9551, 329, 330, 516, 515, 1866, 8459, 10566, 8786, 8785, 519
9552, 329, 498, 516, 6356, 9750, 9043, 10566, 8222, 9041, 8460
9553, 516, 498, 329, 515, 9043, 9750, 10566, 519, 9963, 8786
9554, 2286, 648, 3070, 6358, 8622, 10482, 8172, 8594, 6402, 9081
9555, 2286, 3070, 648, 2261, 8172, 10482, 8622, 2446, 8392, 8608
9556, 6355, 496, 218, 487, 9396, 9998, 9438, 9341, 2235, 9997
9557, 6494, 2273, 646, 2127, 8981, 9268, 9584, 6618, 9312, 6394
9558, 6494, 646, 2273, 2282, 9584, 9268, 8981, 8980, 8098, 2423
9559, 3, 6458, 373, 6456, 6503, 10567, 377, 6499, 6504, 9249
9560, 3, 373, 6458, 6786, 377, 10567, 6503, 6788, 6787, 9702
9561, 6133, 373, 6458, 6456, 9250, 10567, 9201, 7005, 9249, 6504
9562, 1116, 3205, 3362, 992, 8445, 7473, 3398, 3397, 8998, 3396
9563, 1116, 3362, 3205, 3208, 3398, 7473, 8445, 8446, 7044, 3270
9564, 517, 6355, 219, 215, 8880, 9437, 8787, 8788, 6374, 1501
9565, 6891, 3699, 3679, 3701, 9804, 4001, 8874, 8306, 4002, 4000
9566, 6891, 3679, 3699, 6874, 8874, 4001, 9804, 8749, 7790, 7791
9567, 406, 1453, 398, 397, 9442, 8925, 2168, 2165, 8922, 401
9568, 406, 398, 1453, 6849, 2168, 8925, 9442, 9217, 9216, 7801
9569, 6849, 6869, 1670, 1666, 7190, 10568, 9140, 9196, 9645, 4644
9570, 6849, 1670, 6869, 6873, 9140, 10568, 7190, 10522, 9255, 10071
9571, 258, 1670, 6869, 1666, 4645, 10568, 9644, 1668, 4644, 9645
9572, 258, 6869, 1670, 6873, 9644, 10568, 4645, 9253, 10071, 9255
9573, 2286, 215, 516, 517, 8595, 8738, 2406, 2407, 8788, 520
9574, 2286, 516, 215, 6358, 2406, 8738, 8595, 8594, 8739, 6378
9575, 6849, 190, 6879, 4291, 7802, 9889, 8791, 7800, 4307, 8792
9576, 6849, 6879, 190, 6822, 8791, 9889, 7802, 9232, 9530, 10218
9577, 3281, 105, 109, 114, 3297, 10569, 9635, 3296, 1110, 3577
9578, 2848, 105, 109, 3367, 2875, 10569, 10530, 9528, 10481, 9940
9579, 2830, 111, 2854, 2855, 9883, 10570, 3011, 2932, 7547, 3012
9580, 2830, 2854, 111, 3193, 3011, 10570, 9883, 7935, 7381, 9980
9581, 1056, 111, 2854, 3193, 1062, 10570, 7173, 7128, 9980, 7381
9582, 6849, 1623, 6878, 1627, 9231, 9598, 8239, 7155, 4611, 8237
9583, 6849, 6878, 1623, 6822, 8239, 9598, 9231, 9232, 10427, 9229
9584, 6877, 6849, 1670, 1666, 8789, 9140, 10571, 9197, 9196, 4644
9585, 1670, 6849, 6877, 6881, 9140, 8789, 10571, 9245, 10523, 10077
9586, 1670, 230, 6877, 1666, 4643, 9650, 10571, 4644, 1667, 9197
9587, 6877, 230, 1670, 6881, 9650, 4643, 10571, 10077, 9244, 9245
9588, 6838, 297, 6859, 295, 9154, 7920, 8012, 9333, 1791, 7562
9589, 6838, 6859, 297, 6815, 8012, 7920, 9154, 8069, 8068, 9152
9590, 6808, 6817, 6831, 245, 8691, 10572, 10050, 8764, 8765, 10573
9591, 6808, 6831, 6817, 6842, 10050, 10572, 8691, 8692, 8883, 8433
9592, 126, 6817, 6831, 6842, 10574, 10572, 9096, 9405, 8433, 8883
9593, 793, 645, 94, 1070, 9287, 10575, 802, 8494, 8895, 10228
9594, 793, 94, 645, 622, 802, 10575, 9287, 2624, 2622, 2541
9595, 69, 94, 645, 1070, 10227, 10575, 650, 10111, 10228, 8895
9596, 69, 645, 94, 622, 650, 10575, 10227, 2538, 2541, 2622
9597, 90, 3150, 58, 736, 10576, 8843, 819, 738, 8701, 2659
9598, 5973, 5972, 1414, 5956, 6020, 10290, 9465, 6017, 6018, 9464
9599, 5973, 1414, 5972, 5961, 9465, 10290, 6020, 6035, 10291, 6037
9600, 614, 3031, 38, 67, 8274, 9083, 2529, 615, 9211, 613
9601, 614, 38, 3031, 838, 2529, 9083, 8274, 8272, 9668, 8273
9602, 3151, 727, 60, 98, 9019, 2648, 9576, 9020, 9018, 9662
9603, 3151, 60, 727, 92, 9576, 2648, 9019, 9654, 814, 728
9604, 6876, 3666, 6858, 3705, 9126, 9218, 9933, 9127, 3936, 9257
9605, 6876, 6858, 3666, 6825, 9933, 9218, 9126, 9805, 8267, 8674
9606, 6858, 4, 3682, 6785, 9175, 3724, 9338, 9173, 6790, 9337
9607, 6858, 3682, 4, 3680, 9338, 3724, 9175, 9012, 3726, 3722
9608, 216, 1491, 487, 478, 4352, 10577, 10026, 10027, 8530, 2228
9609, 216, 487, 1491, 217, 10026, 10577, 4352, 1498, 10006, 4353
9610, 6355, 487, 1491, 478, 9341, 10577, 6375, 8529, 2228, 8530
9611, 6861, 328, 6813, 6832, 9241, 9989, 9711, 10124, 8667, 10085
9612, 6861, 6813, 328, 307, 9711, 9989, 9241, 8497, 9709, 1862
9613, 35, 31, 6814, 33, 3764, 10354, 10578, 514, 513, 10477
9614, 6814, 31, 35, 6900, 10354, 3764, 10578, 9743, 10356, 9265
9615, 6814, 505, 35, 33, 10205, 2248, 10578, 10477, 508, 514
9616, 517, 35, 6814, 505, 521, 10578, 10098, 2251, 2248, 10205
9617, 6814, 35, 517, 6900, 10578, 521, 10098, 9743, 9265, 8703
9618, 1029, 6889, 2271, 796, 9585, 7333, 8101, 7310, 8335, 8334
9619, 2271, 6889, 1029, 3032, 7333, 9585, 8101, 8122, 8125, 3058
9620, 283, 6833, 6883, 285, 9373, 8283, 7592, 1747, 8282, 7948
9621, 6883, 6833, 283, 6816, 8283, 9373, 7592, 7769, 7707, 9290
9622, 5442, 5445, 1416, 5431, 5507, 10195, 10185, 5504, 5505, 10261
9623, 5442, 1416, 5445, 5434, 10185, 10195, 5507, 5498, 10184, 5491
9624, 5885, 5882, 362, 5874, 5947, 9214, 8849, 5931, 5938, 9502
9625, 362, 5882, 5885, 5871, 9214, 5947, 8849, 8847, 5944, 5945
9626, 1355, 1418, 5790, 5785, 10579, 10450, 10580, 10581, 10201, 5825
9627, 5790, 1418, 1355, 1193, 10450, 10579, 10580, 9445, 4260, 10130
9628, 1355, 5790, 1756, 5785, 10580, 8413, 10143, 10581, 5825, 9563
9629, 1418, 1360, 148, 1193, 10187, 1362, 10582, 4260, 6967, 4049
9630, 1418, 148, 1355, 1193, 10582, 1356, 10579, 4260, 4049, 10130
9631, 341, 328, 6832, 342, 5543, 8667, 10583, 2004, 2005, 8609
9632, 6832, 328, 341, 6861, 8667, 5543, 10583, 10124, 9241, 8163
9633, 6832, 6469, 341, 342, 8780, 6567, 10583, 8609, 6566, 2004
9634, 341, 6469, 6832, 6861, 6567, 8780, 10583, 8163, 9406, 10124
9635, 6829, 5610, 6041, 2111, 8432, 10584, 8724, 8430, 8158, 6055
9636, 6829, 6041, 5610, 5601, 8724, 10584, 8432, 8489, 9659, 5745
9637, 2063, 6041, 5610, 2111, 6053, 10584, 5742, 6080, 6055, 8158
9638, 2063, 5610, 6041, 5601, 5742, 10584, 6053, 5744, 5745, 9659
9639, 6815, 301, 4964, 299, 9273, 4983, 8228, 8521, 1797, 7879
9640, 6815, 4964, 301, 4961, 8228, 4983, 9273, 8060, 4986, 4977
9641, 6855, 778, 2257, 2287, 9895, 10585, 7234, 7233, 9344, 2332
9642, 6855, 2257, 778, 75, 7234, 10585, 9895, 10169, 10586, 779
9643, 43, 2257, 778, 2287, 2328, 10585, 2658, 2330, 2332, 9344
9644, 43, 778, 2257, 75, 2658, 10585, 2328, 818, 779, 10586
9645, 76, 775, 798, 629, 776, 10587, 9733, 2558, 10208, 2636
9646, 799, 798, 775, 629, 808, 10587, 9975, 2638, 2636, 10208
9647, 6826, 280, 6104, 1582, 9765, 6218, 8207, 8248, 9764, 9317
9648, 6826, 6104, 280, 6090, 8207, 6218, 9765, 8208, 6226, 6225
9649, 5798, 5795, 6844, 5783, 5847, 8132, 7893, 5846, 5843, 9463
9650, 6844, 5795, 5798, 5792, 8132, 5847, 7893, 7892, 5857, 5861
9651, 6887, 364, 4685, 1454, 9806, 10588, 7188, 7625, 9319, 7624
9652, 6887, 4685, 364, 380, 7188, 10588, 9806, 8108, 8106, 2149
9653, 379, 4685, 364, 1454, 10506, 10588, 2147, 9321, 7624, 9319
9654, 379, 364, 4685, 380, 2147, 10588, 10506, 383, 2149, 8106
9655, 745, 55, 2258, 87, 2671, 2359, 10589, 747, 825, 8933
9656, 2258, 55, 745, 2284, 2359, 2671, 10589, 2361, 2357, 9408
9657, 2258, 6857, 745, 87, 7436, 10590, 10589, 8933, 8934, 747
9658, 745, 6857, 2258, 2284, 10590, 7436, 10589, 9408, 7150, 2361
9659, 1056, 1116, 3199, 3362, 9561, 8506, 7122, 6937, 3398, 7043
9660, 3199, 1116, 1056, 1057, 8506, 9561, 7122, 8072, 7877, 1063
9661, 1047, 1113, 3496, 1046, 9562, 8867, 7167, 1053, 7620, 8589
9662, 3496, 1113, 1047, 3364, 8867, 9562, 7167, 6949, 3383, 7408
9663, 2297, 878, 3154, 879, 9574, 8668, 8035, 9168, 885, 9169
9664, 2297, 3154, 878, 2278, 8035, 8668, 9574, 2463, 8120, 8891
9665, 6870, 1623, 6849, 1627, 9594, 9231, 10524, 9111, 4611, 7155
9666, 739, 6857, 2258, 88, 10097, 7436, 10591, 740, 8900, 8897
9667, 2258, 6857, 739, 2283, 7436, 10097, 10591, 2364, 7140, 9353
9668, 2258, 56, 739, 88, 2360, 2664, 10591, 8897, 823, 740
9669, 739, 56, 2258, 2283, 2664, 2360, 10591, 9353, 2362, 2364
9670, 54, 745, 2264, 86, 2672, 10592, 2354, 827, 746, 10513
9671, 54, 2264, 745, 2284, 2354, 10592, 2672, 2356, 2358, 9408
9672, 6857, 745, 2264, 2284, 10590, 10592, 7151, 7150, 9408, 2358
9673, 6849, 6879, 1646, 1650, 8791, 10593, 8412, 9148, 9149, 4629
9674, 226, 1646, 6879, 1650, 4628, 10593, 9613, 1651, 4629, 9149
9675, 5444, 5599, 2109, 5605, 8976, 8642, 8890, 8889, 5705, 8888
9676, 5444, 2109, 5599, 6897, 8890, 8642, 8976, 9524, 8054, 7982
9677, 284, 5319, 4885, 286, 5325, 9676, 10594, 1749, 5326, 4909
9678, 4885, 5319, 284, 6833, 9676, 5325, 10594, 7635, 9472, 9402
9679, 4885, 4887, 284, 286, 4910, 9401, 10594, 4909, 4906, 1749
9680, 284, 4887, 4885, 6833, 9401, 4910, 10594, 9402, 7797, 7635
9681, 1951, 6045, 2106, 1952, 8056, 6059, 8017, 1958, 7925, 7502
9682, 2106, 6045, 1951, 2107, 6059, 8056, 8017, 2113, 6063, 7683
9683, 212, 4588, 6849, 243, 4592, 8338, 10540, 1606, 4594, 8339
9684, 239, 1574, 6883, 4540, 4569, 7410, 9342, 4567, 4570, 8390
9685, 239, 6883, 1574, 4544, 9342, 7410, 4569, 4571, 7403, 4564
9686, 649, 2298, 648, 796, 9144, 8930, 654, 9358, 8333, 9355
9687, 649, 648, 2298, 3715, 654, 8930, 9144, 9143, 9300, 9141
9688, 244, 243, 415, 1453, 1607, 10595, 9807, 8515, 8336, 9441
9689, 6849, 415, 243, 1453, 9443, 10595, 8339, 7801, 9441, 8336
9690, 6849, 243, 415, 424, 8339, 10595, 9443, 9468, 9467, 2179
9691, 1189, 1216, 1416, 1190, 4025, 10596, 4256, 1201, 4009, 4255
9692, 133, 1216, 1416, 5428, 1218, 10596, 10435, 10597, 10550, 10194
9693, 133, 1416, 1216, 1190, 10435, 10596, 1218, 4008, 4255, 4009
9694, 1840, 5363, 6887, 1705, 9357, 8376, 9727, 5263, 9185, 9186
9695, 6887, 5363, 1840, 1833, 8376, 9357, 9727, 8728, 8665, 5064
9696, 6043, 1753, 2111, 1752, 8301, 9570, 6081, 7025, 1759, 7917
9697, 6043, 2111, 1753, 2110, 6081, 9570, 8301, 6079, 2117, 8881
9698, 6855, 781, 2257, 75, 10053, 10598, 7234, 10169, 783, 10586
9699, 6855, 2257, 781, 6864, 7234, 10598, 10053, 8614, 8364, 9701
9700, 43, 2257, 781, 75, 2328, 10598, 2653, 818, 10586, 783
9701, 43, 781, 2257, 6864, 2653, 10598, 2328, 9205, 9701, 8364
9702, 2270, 645, 2282, 793, 7988, 10599, 2422, 8134, 9287, 8136
9703, 2270, 2282, 645, 6494, 2422, 10599, 7988, 9781, 8980, 9583
9704, 646, 2282, 645, 793, 8098, 10599, 651, 8825, 8136, 9287
9705, 646, 645, 2282, 6494, 651, 10599, 8098, 9584, 9583, 8980
9706, 260, 1674, 6873, 259, 1676, 10561, 10430, 1677, 4648, 9254
9707, 260, 6873, 1674, 6823, 10430, 10561, 1676, 9786, 10245, 8046
9708, 867, 1060, 3109, 3113, 10600, 3149, 8680, 9712, 3146, 3138
9709, 867, 3109, 1060, 763, 8680, 3149, 10600, 8678, 8679, 10038
9710, 48, 80, 867, 3113, 828, 10601, 9466, 9428, 9482, 9712
9711, 48, 867, 80, 763, 9466, 10601, 828, 2678, 8678, 764
9712, 80, 1060, 867, 3113, 10167, 10600, 10601, 9482, 3146, 9712
9713, 80, 867, 1060, 763, 10601, 10600, 10167, 764, 8678, 10038
9714, 6849, 6870, 1630, 1623, 10524, 10602, 8297, 9231, 9594, 4614
9715, 6849, 1630, 6870, 6821, 8297, 10602, 10524, 6985, 8295, 10243
9716, 247, 1630, 6870, 1623, 4615, 10602, 9587, 1625, 4614, 9594
9717, 6878, 1623, 221, 220, 9598, 4613, 10433, 9589, 1624, 1509
9718, 6878, 221, 1623, 6822, 10433, 4613, 9598, 10427, 9815, 9229
9719, 40, 787, 3030, 72, 2646, 10603, 9022, 812, 788, 9693
9720, 40, 3030, 787, 6864, 9022, 10603, 2646, 9024, 9025, 9549
9721, 6808, 244, 6831, 243, 9500, 10604, 10050, 10062, 1607, 9618
9722, 6808, 6831, 244, 245, 10050, 10604, 9500, 8764, 10573, 1608
9723, 6826, 285, 2109, 1754, 9748, 10605, 8249, 8404, 7945, 8405
9724, 6826, 2109, 285, 283, 8249, 10605, 9748, 8247, 7589, 1747
9725, 6883, 2109, 285, 1754, 7275, 10605, 7948, 7947, 8405, 7945
9726, 6883, 285, 2109, 283, 7948, 10605, 7275, 7592, 1747, 7589
9727, 769, 1059, 6898, 78, 10109, 7710, 10606, 770, 9942, 9685
9728, 6898, 1059, 769, 3113, 7710, 10109, 10606, 8400, 3147, 9646
9729, 6898, 46, 769, 78, 8829, 2670, 10606, 9685, 824, 770
9730, 769, 46, 6898, 3113, 2670, 8829, 10606, 9646, 8828, 8400
9731, 6817, 3693, 3650, 127, 7551, 3808, 10607, 10292, 3807, 3803
9732, 3650, 3693, 6817, 6842, 3808, 7551, 10607, 6906, 7231, 8433
9733, 3650, 126, 6817, 127, 3804, 10574, 10607, 3803, 1166, 10292
9734, 6817, 126, 3650, 6842, 10574, 3804, 10607, 8433, 9405, 6906
9735, 4966, 2119, 1799, 6468, 8831, 9433, 4993, 9002, 6560, 9873
9736, 4966, 1799, 2119, 1812, 4993, 9433, 8831, 4991, 5006, 6152
9737, 225, 1646, 6879, 226, 1647, 10593, 9529, 1529, 4628, 9613
9738, 32, 36, 498, 34, 6542, 10608, 502, 512, 522, 2243
9739, 32, 498, 36, 6843, 502, 10608, 6542, 7341, 7339, 9891
9740, 515, 498, 36, 34, 9963, 10608, 518, 2249, 2243, 522
9741, 4293, 4541, 4539, 4678, 7283, 4555, 10609, 7841, 7355, 7644
9742, 4539, 4541, 4293, 192, 4555, 7283, 10609, 4554, 4545, 4311
9743, 1650, 253, 6871, 254, 4630, 9605, 9611, 1652, 1653, 9610
9744, 1417, 140, 4196, 1395, 8242, 4198, 9518, 9520, 1396, 4199
9745, 515, 36, 6439, 2273, 518, 6549, 10610, 2309, 2308, 7838
9746, 6439, 2022, 515, 2273, 7836, 8725, 10610, 7838, 7837, 2309
9747, 8, 390, 6456, 6, 394, 10611, 6505, 395, 2152, 6501
9748, 390, 6456, 381, 6133, 10611, 10612, 2153, 10613, 7005, 10297
9749, 390, 381, 6456, 6, 2153, 10612, 10611, 2152, 385, 6501
9750, 381, 6456, 365, 6133, 10612, 9252, 2146, 10297, 7005, 9251
9751, 381, 365, 6456, 6, 2146, 9252, 10612, 385, 2145, 6501
9752, 1413, 5963, 5957, 1433, 10453, 6002, 9946, 4275, 7159, 9941
9753, 1413, 5957, 5963, 5958, 9946, 6002, 10453, 10158, 6021, 6022
9754, 745, 631, 111, 86, 8755, 9430, 10614, 746, 2580, 9431
9755, 6892, 6812, 6895, 6808, 10105, 8854, 8962, 8960, 9188, 8693
9756, 6892, 6895, 6812, 6845, 8962, 8854, 10105, 9400, 8821, 8853
9757, 1615, 218, 6900, 6811, 4607, 10615, 8550, 9790, 9999, 9741
9758, 496, 6900, 218, 6811, 9742, 10615, 9998, 9740, 9741, 9999
9759, 335, 1947, 136, 5365, 1953, 8763, 9536, 5376, 5378, 8761
9760, 44, 76, 2287, 778, 820, 10616, 2331, 2657, 780, 9344
9761, 6855, 2287, 76, 778, 7233, 10616, 9896, 9895, 9344, 780
9762, 3150, 90, 801, 736, 10576, 9731, 9535, 8701, 738, 10078
9763, 1030, 649, 796, 1029, 9492, 9358, 10466, 1036, 8102, 7310
9764, 249, 1630, 6870, 247, 1632, 10602, 10432, 1633, 4615, 9587
9765, 249, 6870, 1630, 6821, 10432, 10602, 1632, 9905, 10243, 8295
9766, 630, 3196, 757, 82, 10206, 10617, 8758, 2571, 10134, 758
9767, 1061, 757, 3196, 82, 9809, 10617, 9629, 10133, 758, 10134
9768, 6467, 6435, 6827, 6492, 6708, 7282, 10618, 6624, 6707, 7343
9769, 6827, 6853, 6467, 6492, 9831, 9040, 10618, 7343, 9038, 6624
9770, 6467, 6853, 6827, 6828, 9040, 9831, 10618, 10035, 10394, 10369
9771, 6467, 6497, 6827, 6435, 6709, 10619, 10618, 6708, 6704, 7282
9772, 6827, 6497, 6467, 6828, 10619, 6709, 10618, 10369, 9932, 10035
9773, 6437, 6434, 6827, 6435, 6700, 7093, 10620, 6699, 6692, 7282
9774, 6497, 6437, 6827, 6435, 6705, 10620, 10619, 6704, 6699, 7282
9775, 6827, 6437, 6497, 6828, 10620, 6705, 10619, 10369, 9897, 9932
9776, 225, 1642, 6849, 1646, 4625, 8411, 10621, 1647, 4626, 8412
9777, 6849, 1642, 225, 6822, 8411, 4625, 10621, 9232, 9434, 9531
9778, 6849, 6879, 225, 1646, 8791, 9529, 10621, 8412, 10593, 1647
9779, 225, 6879, 6849, 6822, 9529, 8791, 10621, 9531, 9530, 9232
9780, 417, 6854, 6828, 408, 9769, 7413, 9993, 2174, 10022, 10480
9781, 6828, 6854, 417, 6807, 7413, 9769, 9993, 9624, 9299, 9768
9782, 5966, 1434, 1414, 5593, 9791, 4276, 10622, 7613, 5661, 9123
9783, 1414, 1434, 5966, 5972, 4276, 9791, 10622, 10290, 9792, 6036
9784, 1414, 5965, 5966, 5593, 9122, 9481, 10622, 9123, 6924, 7613
9785, 5966, 5965, 1414, 5972, 9481, 9122, 10622, 6036, 6019, 10290
9786, 5793, 2048, 5592, 1438, 5837, 5683, 10623, 10170, 5682, 5684
9787, 5592, 2048, 5793, 5786, 5683, 5837, 10623, 7601, 5833, 5838
9788, 4539, 192, 4678, 1571, 4554, 10624, 7644, 4553, 1573, 10349
9789, 4539, 4678, 192, 4293, 7644, 10624, 4554, 10609, 7841, 4311
9790, 1566, 4678, 192, 1571, 4704, 10624, 4531, 4533, 10349, 1573
9791, 1566, 192, 4678, 4293, 4531, 10624, 4704, 8319, 4311, 7841
9792, 305, 4962, 4683, 1816, 4996, 8822, 10625, 1817, 4973, 10374
9793, 4683, 4962, 305, 5023, 8822, 4996, 10625, 8824, 7807, 5024
9794, 4683, 1704, 305, 1816, 4758, 5267, 10625, 10374, 5266, 1817
9795, 305, 1704, 4683, 5023, 5267, 4758, 10625, 5024, 8320, 8824
9796, 1491, 218, 487, 6355, 4354, 9997, 10577, 6375, 9438, 9341
9797, 1491, 487, 218, 217, 10577, 9997, 4354, 4353, 10006, 1499
9798, 6812, 19, 6845, 17, 10471, 10147, 8853, 10040, 450, 10041
9799, 6134, 408, 1834, 399, 10626, 8983, 6259, 10627, 2167, 9421
9800, 6134, 1834, 408, 6854, 6259, 8983, 10626, 9578, 9298, 10022
9801, 3678, 6875, 3677, 3708, 9303, 9453, 3990, 3994, 9302, 3995
9802, 3677, 6875, 3678, 6874, 9453, 9303, 3990, 7614, 9579, 7706
9803, 1042, 646, 110, 3074, 7732, 8527, 1048, 3081, 8604, 3077
9804, 1042, 110, 646, 794, 1048, 8527, 7732, 8582, 9440, 8581
9805, 3151, 727, 1075, 92, 9019, 10628, 3164, 9654, 728, 10198
9806, 3151, 1075, 727, 112, 3164, 10628, 9019, 3158, 1082, 9016
9807, 94, 1075, 727, 92, 10274, 10628, 10407, 9888, 10198, 728
9808, 94, 727, 1075, 112, 10407, 10628, 10274, 10229, 9016, 1082
9809, 6892, 6812, 19, 6845, 10105, 10471, 10120, 9400, 8853, 10147
9810, 3110, 754, 800, 1061, 9688, 10411, 9986, 3123, 10137, 9966
9811, 3110, 800, 754, 84, 9986, 10411, 9688, 9679, 10402, 756
9812, 51, 2276, 3110, 52, 2349, 7017, 8996, 542, 2350, 8698
9813, 51, 3110, 2276, 868, 8996, 7017, 2349, 9097, 9098, 9479
9814, 3292, 895, 3284, 797, 7664, 7254, 3344, 10152, 2765, 7253
9815, 3284, 895, 3292, 3289, 7254, 7664, 3344, 3315, 7665, 3357
9816, 6890, 1188, 1949, 137, 9969, 10629, 8912, 9119, 4022, 8845
9817, 6890, 1949, 1188, 1414, 8912, 10629, 9969, 8913, 8911, 4252
9818, 1212, 1949, 1188, 137, 8844, 10629, 4024, 1215, 8845, 4022
9819, 1212, 1188, 1949, 1414, 4024, 10629, 8844, 10149, 4252, 8911
9820, 424, 243, 6812, 433, 9467, 10630, 10468, 2186, 9276, 10469
9821, 6808, 243, 6812, 244, 10062, 10630, 9188, 9500, 1607, 8673
9822, 460, 6814, 211, 6808, 10475, 10631, 8080, 10047, 9935, 10046
9823, 6811, 211, 6814, 6808, 10052, 10631, 9738, 9936, 10046, 9935
9824, 6854, 6437, 6827, 6828, 8851, 10620, 9193, 7413, 9897, 10369
9825, 6854, 6827, 6437, 6434, 9193, 10620, 8851, 8329, 7093, 6700
9826, 647, 795, 794, 624, 8771, 804, 8583, 2593, 2629, 2627
9827, 794, 795, 647, 1043, 804, 8771, 8583, 10467, 8772, 8773
9828, 6811, 6875, 217, 216, 9789, 10632, 10007, 10029, 8150, 1498
9829, 121, 217, 6875, 216, 1622, 10632, 10304, 4609, 1498, 8150
9830, 327, 6813, 462, 328, 10084, 9988, 10526, 1861, 9989, 8028
9831, 6133, 381, 1834, 1833, 10297, 10633, 6295, 6296, 9984, 1837
9832, 6133, 1834, 381, 390, 6295, 10633, 10297, 10613, 9422, 2153
9833, 6887, 1834, 381, 1833, 7437, 10633, 9734, 8728, 1837, 9984
9834, 6887, 381, 1834, 390, 9734, 10633, 7437, 9423, 2153, 9422
9835, 131, 1579, 1591, 3690, 9957, 4584, 6146, 3821, 9053, 9051
9836, 1591, 1579, 131, 1592, 4584, 9957, 6146, 1595, 4586, 6143
9837, 1534, 200, 6879, 4443, 1536, 10300, 10332, 4447, 4446, 10301
9838, 6879, 200, 1534, 6877, 10300, 1536, 10332, 8793, 9994, 9995
9839, 214, 4343, 6362, 1491, 4349, 10634, 6372, 1492, 4350, 6371
9840, 1414, 5965, 5956, 5972, 9122, 5992, 9464, 10290, 6019, 6018
9841, 1414, 5956, 5965, 1949, 9464, 5992, 9122, 8911, 9480, 9291
9842, 648, 796, 795, 625, 9355, 805, 8770, 2596, 2631, 2630
9843, 795, 796, 648, 6902, 805, 9355, 8770, 9903, 8567, 8727
9844, 763, 799, 3196, 3201, 10635, 10462, 10636, 10637, 10141, 3253
9845, 3196, 799, 763, 630, 10462, 10635, 10636, 10206, 2639, 10393
9846, 763, 3196, 1060, 3201, 10636, 9507, 10038, 10637, 3253, 9486
9847, 799, 766, 80, 630, 10342, 768, 10638, 2639, 8759, 2567
9848, 799, 80, 763, 630, 10638, 764, 10635, 2639, 2567, 10393
9849, 6857, 87, 111, 745, 8934, 10639, 7205, 10590, 747, 10614
9850, 6857, 111, 87, 801, 7205, 10639, 8934, 9001, 9210, 10203
9851, 631, 111, 87, 745, 9430, 10639, 2582, 8755, 10614, 747
9852, 631, 87, 111, 801, 2582, 10639, 9430, 2642, 10203, 9210
9853, 800, 751, 3110, 111, 10403, 8697, 9986, 9407, 9057, 3117
9854, 800, 3110, 751, 84, 9986, 8697, 10403, 10402, 9679, 752
9855, 1453, 4685, 379, 1454, 7889, 10506, 10640, 1457, 7624, 9321
9856, 379, 6135, 1453, 1454, 10641, 6272, 10640, 9321, 6267, 1457
9857, 6807, 347, 435, 444, 9943, 10521, 9620, 9621, 10543, 2195
9858, 111, 631, 751, 85, 9430, 10391, 9057, 7656, 2578, 753
9859, 111, 751, 631, 800, 9057, 10391, 9430, 9407, 10403, 2641
9860, 799, 3197, 3201, 1059, 9163, 3250, 10141, 9323, 9322, 9375
9861, 799, 3201, 3197, 3206, 10141, 3250, 9163, 10485, 3275, 3274
9862, 317, 1902, 6871, 5175, 1904, 10323, 10299, 5181, 5183, 10298
9863, 317, 6871, 1902, 6869, 10299, 10323, 1904, 10008, 7193, 10010
9864, 1834, 6134, 390, 6133, 6259, 10642, 9422, 6295, 6300, 10613
9865, 1834, 390, 6134, 399, 9422, 10642, 6259, 9421, 2160, 10627
9866, 6812, 243, 442, 433, 10630, 9277, 10470, 10469, 9276, 2193
9867, 26, 6843, 480, 28, 10348, 10267, 2222, 485, 10270, 484
9868, 6813, 6818, 327, 462, 10116, 10643, 10084, 9988, 10139, 10526
9869, 6813, 327, 6818, 6809, 10084, 10643, 10116, 10083, 10061, 10160
9870, 471, 327, 6818, 462, 10057, 10643, 10479, 2215, 10526, 10139
9871, 471, 6818, 327, 6809, 10479, 10643, 10057, 10059, 10160, 10061
9872, 6875, 120, 217, 121, 10005, 4608, 10632, 10304, 1160, 1622
9873, 209, 214, 211, 188, 10157, 10092, 4296, 4295, 9893, 1484
9874, 326, 328, 248, 307, 5030, 10110, 10156, 5028, 1862, 9911
9875, 6858, 388, 1453, 397, 8564, 8924, 9031, 10552, 2158, 8922
9876, 23, 6814, 6891, 25, 10476, 9956, 10281, 477, 10382, 10247
9877, 23, 6891, 6814, 6835, 10281, 9956, 10476, 10234, 9722, 10202
9878, 1418, 5789, 5785, 1755, 9134, 5822, 10201, 9763, 9762, 9737
9879, 5785, 5789, 1418, 5796, 5822, 9134, 10201, 5852, 5851, 10295
9880, 6892, 6808, 6848, 6835, 8960, 9961, 9840, 9964, 10104, 10075
9881, 6892, 6848, 6808, 6842, 9840, 9961, 8960, 8961, 9202, 8692
9882, 5075, 326, 248, 1872, 5079, 10156, 5076, 5077, 1874, 1873
9883, 4343, 214, 209, 1494, 4349, 10157, 4345, 4346, 1495, 1496
9884, 799, 3204, 3192, 3206, 10244, 3234, 10486, 10485, 3263, 3262
9885, 799, 3192, 3204, 897, 10486, 3234, 10244, 2772, 10045, 10044
9886, 5153, 320, 6871, 319, 5160, 10644, 10339, 5159, 1853, 10285
9887, 5153, 6871, 320, 6872, 10339, 10644, 5160, 10307, 9609, 10252
9888, 309, 6871, 320, 319, 9886, 10644, 5033, 5034, 10285, 1853
9889, 309, 320, 6871, 6872, 5033, 10644, 9886, 10237, 10252, 9609
9890, 203, 4421, 6879, 202, 4423, 10343, 10645, 1475, 4424, 10286
9891, 6879, 190, 203, 202, 9889, 4300, 10645, 10286, 4299, 1475
9892, 203, 190, 6879, 6880, 4300, 9889, 10645, 10269, 10219, 9534
9893, 309, 323, 6870, 324, 5039, 10383, 9370, 5040, 1857, 9981
9894, 309, 6870, 323, 6821, 9370, 10383, 5039, 7008, 10243, 10282
9895, 206, 190, 6878, 207, 4305, 9982, 10384, 1479, 4306, 9983
9896, 206, 6878, 190, 6822, 10384, 9982, 4305, 10275, 10427, 10218
9897, 203, 1522, 6879, 4421, 1524, 10336, 10645, 4423, 4426, 10343
9898, 6879, 1522, 203, 6880, 10336, 1524, 10645, 9534, 10268, 10269
9899, 3276, 1100, 1030, 1099, 3331, 3585, 9539, 3330, 1106, 3584
9900, 1031, 3276, 1030, 797, 9556, 9539, 1037, 10231, 10154, 9928
9901, 1030, 3276, 1031, 1100, 9539, 9556, 1037, 3585, 3331, 3586
9902, 1732, 1579, 5434, 1731, 4877, 9717, 5465, 1738, 4874, 5464
9903, 1580, 1579, 5434, 1732, 1586, 9717, 9779, 4876, 4877, 5465
9904, 6818, 22, 6421, 24, 10478, 6527, 8705, 10211, 467, 6528
9905, 6818, 6421, 22, 6853, 8705, 6527, 10478, 9931, 7448, 10347
9906, 469, 213, 6362, 210, 10011, 10646, 7579, 10012, 1489, 10647
9907, 469, 6362, 213, 1491, 7579, 10646, 10011, 7581, 6371, 10438
9908, 4343, 6362, 213, 210, 10634, 10646, 4347, 4344, 10647, 1489
9909, 4343, 213, 6362, 1491, 4347, 10646, 10634, 4350, 10438, 6371
9910, 1920, 5252, 5253, 1923, 5261, 10648, 5256, 5262, 5260, 5257
9911, 1920, 5253, 5252, 6823, 5256, 10648, 5261, 10192, 10428, 10210
9912, 235, 193, 4521, 1562, 9880, 10649, 4526, 1563, 1564, 4529
9913, 235, 4521, 193, 6824, 4526, 10649, 9880, 9080, 10429, 10086
9914, 1558, 4521, 4520, 1562, 4528, 10650, 4525, 4530, 4529, 4524
9915, 1558, 4520, 4521, 6824, 4525, 10650, 4528, 10199, 10212, 10429
9916, 4521, 193, 4520, 1562, 10649, 4523, 10650, 4529, 1564, 4524
9917, 4521, 4520, 193, 6824, 10650, 4523, 10649, 10429, 10212, 10086
9918, 228, 1534, 6879, 4444, 1535, 10332, 9234, 4449, 4452, 10331
9919, 228, 6879, 1534, 6877, 9234, 10332, 1535, 9233, 8793, 9995
9920, 1902, 256, 6871, 5176, 1903, 9497, 10323, 5180, 5178, 10322
9921, 1902, 6871, 256, 6869, 10323, 9497, 1903, 10010, 7193, 9552
9922, 1409, 133, 1580, 132, 10436, 10651, 9934, 1410, 1178, 9898
9923, 1409, 1580, 133, 1416, 9934, 10651, 10436, 10313, 10016, 10435
9924, 1579, 1580, 133, 132, 1586, 10651, 10321, 9899, 9898, 1178
9925, 71, 1030, 1031, 66, 10144, 1037, 10652, 656, 10101, 10100
9926, 1031, 1030, 71, 797, 1037, 10144, 10652, 10231, 9928, 10442
9927, 1031, 610, 71, 66, 10107, 10443, 10652, 10100, 611, 656
9928, 71, 610, 1031, 797, 10443, 10107, 10652, 10442, 10405, 10231
9929, 6823, 260, 5231, 261, 9786, 5232, 10375, 9787, 1681, 5233
9930, 6823, 5231, 260, 6873, 10375, 5232, 9786, 10245, 10175, 10430
9931, 232, 6824, 4499, 233, 9638, 10376, 4505, 1557, 9780, 4504
9932, 232, 4499, 6824, 6881, 4505, 10376, 9638, 10431, 10178, 10253
9933, 6821, 249, 5110, 250, 9905, 5111, 10423, 9906, 1637, 5112
9934, 6821, 5110, 249, 6870, 10423, 5111, 9905, 10243, 10364, 10432
9935, 221, 6822, 4378, 222, 9815, 10426, 4384, 1513, 9904, 4383
9936, 4378, 6822, 221, 6878, 10426, 9815, 4384, 10368, 10427, 10433
9937, 6850, 141, 6094, 4190, 9418, 10653, 8096, 9419, 4192, 9515
9938, 6850, 6094, 141, 4196, 8096, 10653, 9418, 8097, 8094, 4200
9939, 182, 6094, 141, 4190, 6201, 10653, 1389, 4191, 9515, 4192
9940, 182, 141, 6094, 4196, 1389, 10653, 6201, 4201, 4200, 8094
9941, 6850, 142, 6119, 4184, 9991, 10654, 9436, 9307, 4186, 9435
9942, 6850, 6119, 142, 4190, 9436, 10654, 9991, 9419, 9514, 4194
9943, 181, 6119, 142, 4184, 6198, 10654, 1384, 4185, 9435, 4186
9944, 181, 142, 6119, 4190, 1384, 10654, 6198, 4195, 4194, 9514
9945, 1755, 146, 6127, 4160, 8783, 10655, 8131, 8632, 4162, 8633
9946, 1755, 6127, 146, 4166, 8131, 10655, 8783, 8129, 8127, 4170
9947, 177, 6127, 146, 4160, 6186, 10655, 1364, 4161, 8633, 4162
9948, 177, 146, 6127, 4166, 1364, 10655, 6186, 4171, 4170, 8127
9949, 1579, 3690, 1216, 1578, 9053, 10656, 10657, 1585, 9052, 9690
9950, 3690, 1591, 1216, 1578, 9051, 9691, 10656, 9052, 4551, 9690
9951, 5442, 1417, 5443, 5437, 10445, 10499, 5502, 5503, 7121, 5510
9952, 5442, 5443, 1417, 5430, 5502, 10499, 10445, 5499, 5500, 10446
9953, 164, 159, 6120, 4088, 1299, 10658, 6154, 4093, 4092, 9797
9954, 164, 6120, 159, 4082, 6154, 10658, 1299, 4083, 9351, 4084
9955, 1804, 159, 6120, 4082, 7691, 10658, 9350, 9160, 4084, 9351
9956, 176, 147, 6126, 4160, 1359, 10659, 6183, 4165, 4164, 8635
9957, 176, 6126, 147, 4154, 6183, 10659, 1359, 4155, 8841, 4156
9958, 1755, 6126, 147, 4160, 8634, 10659, 9369, 8632, 8635, 4164
9959, 1755, 147, 6126, 4154, 9369, 10659, 8634, 8839, 4156, 8841
9960, 303, 161, 4966, 6468, 10159, 10660, 4989, 9874, 6556, 9002
9961, 303, 4966, 161, 4076, 4989, 10660, 10159, 9460, 9459, 4080
9962, 163, 4966, 161, 6468, 8830, 10660, 1297, 6559, 9002, 6556
9963, 163, 161, 4966, 4076, 1297, 10660, 8830, 4081, 4080, 9459
9964, 6882, 6106, 157, 4100, 9771, 10661, 10099, 9875, 9630, 4104
9965, 166, 6106, 157, 4094, 6156, 10661, 1309, 4095, 9909, 4096
9966, 166, 157, 6106, 4100, 1309, 10661, 6156, 4105, 4104, 9630
9967, 162, 160, 4965, 4082, 1296, 9318, 9894, 4087, 4086, 9162
9968, 162, 4965, 160, 4076, 9894, 9318, 1296, 4077, 9759, 4078
9969, 1345, 151, 1193, 1258, 1347, 4055, 6966, 4229, 1260, 4054
9970, 6362, 210, 214, 211, 10647, 10662, 6372, 8082, 1483, 10092
9971, 6362, 214, 210, 4343, 6372, 10662, 10647, 10634, 4349, 4344
9972, 209, 214, 210, 211, 10157, 10662, 1482, 4296, 10092, 1483
9973, 209, 210, 214, 4343, 1482, 10662, 10157, 4345, 4344, 4349
9974, 94, 801, 91, 632, 811, 10528, 10455, 2623, 2625, 2542
9975, 1192, 143, 6840, 1380, 4038, 10663, 8288, 6965, 1381, 9192
9976, 1192, 6840, 143, 1417, 8288, 10663, 4038, 4259, 8290, 10233
9977, 6850, 143, 6840, 1417, 9854, 10663, 8737, 9948, 10233, 8290
9978, 645, 69, 6477, 2126, 650, 6554, 9504, 6366, 2128, 6555
9979, 645, 6477, 69, 1070, 9504, 6554, 650, 8895, 9505, 10111
9980, 1581, 6113, 140, 4202, 7765, 10664, 8706, 7763, 7762, 4206
9981, 183, 6113, 140, 4196, 6204, 10664, 1394, 4197, 8093, 4198
9982, 183, 140, 6113, 4202, 1394, 10664, 6204, 4207, 4206, 7762
9983, 184, 139, 6125, 4208, 1399, 10665, 6211, 4213, 4212, 10224
9984, 184, 6125, 139, 4202, 6211, 10665, 1399, 4203, 7660, 4204
9985, 1580, 139, 6125, 4202, 8637, 10665, 7662, 7661, 4204, 7660
9986, 6840, 6110, 145, 4172, 8676, 10666, 9617, 8687, 8686, 4176
9987, 178, 6110, 145, 4166, 6189, 10666, 1369, 4167, 8128, 4168
9988, 178, 145, 6110, 4172, 1369, 10666, 6189, 4177, 4176, 8686
9989, 5788, 5790, 1418, 5799, 5865, 10450, 10452, 5866, 5854, 10451
9990, 5788, 1418, 5790, 1419, 10452, 10450, 5865, 8154, 1428, 8153
9991, 6840, 144, 6131, 4172, 9191, 10667, 7742, 8687, 4174, 8685
9992, 6840, 6131, 144, 4178, 7742, 10667, 9191, 7743, 7741, 4182
9993, 179, 6131, 144, 4172, 6192, 10667, 1374, 4173, 8685, 4174
9994, 179, 144, 6131, 4178, 1374, 10667, 6192, 4183, 4182, 7741
9995, 142, 1191, 1385, 1417, 4035, 10668, 1386, 10360, 4258, 10232
9996, 142, 1385, 1191, 1234, 1386, 10668, 4035, 1235, 4237, 4036
9997, 143, 1385, 1191, 1417, 1387, 10668, 4037, 10233, 10232, 4258
9998, 143, 1191, 1385, 1234, 4037, 10668, 1387, 1236, 4036, 4237
9999, 155, 1320, 1195, 1273, 1321, 10669, 4065, 1274, 4224, 4066
10000, 155, 1195, 1320, 1420, 4065, 10669, 1321, 10249, 4247, 10248
10001, 156, 1195, 1320, 1273, 4067, 10669, 1322, 1275, 4066, 4224
10002, 156, 1320, 1195, 1420, 1322, 10669, 4067, 10309, 10248, 4247
10003, 1193, 1360, 147, 1418, 6967, 1361, 4047, 4260, 10187, 10246
10004, 1193, 147, 1360, 1249, 4047, 1361, 6967, 4048, 1250, 4232
10005, 1780, 175, 1756, 4154, 6181, 10670, 4939, 9354, 4159, 8840
10006, 148, 1756, 175, 4154, 9892, 10670, 1354, 4158, 8840, 4159
10007, 148, 175, 1756, 4148, 1354, 10670, 9892, 4150, 4149, 9837
10008, 132, 131, 1579, 4214, 1177, 9957, 9899, 4216, 4215, 9601
10009, 132, 1579, 131, 3690, 9899, 9957, 1177, 3820, 9053, 3821
10010, 1415, 1416, 1216, 5428, 1425, 10596, 9852, 10549, 10194, 10550
10011, 1415, 1216, 1416, 1189, 9852, 10596, 1425, 4254, 4025, 4256
10012, 5428, 133, 5434, 1416, 10597, 10671, 5466, 10194, 10435, 10184
10013, 5428, 5434, 133, 1579, 5466, 10671, 10597, 9718, 9717, 10321
10014, 1580, 5434, 133, 1416, 9779, 10671, 10651, 10016, 10184, 10435
10015, 1580, 133, 5434, 1579, 10651, 10671, 9779, 1586, 10321, 9717
10016, 1580, 6125, 138, 4214, 7662, 10672, 10017, 9599, 9625, 4219
10017, 185, 6125, 138, 4208, 6210, 10672, 1404, 4209, 10224, 4210
10018, 185, 138, 6125, 4214, 1404, 10672, 6210, 4217, 4219, 9625
10019, 1579, 5428, 1216, 133, 9718, 10550, 10657, 10321, 10597, 1218
10020, 1579, 1216, 5428, 1578, 10657, 10550, 9718, 1585, 9690, 9673
10021, 1420, 5884, 5875, 5872, 7313, 5913, 9066, 8202, 5929, 5948
10022, 1420, 5875, 5884, 1804, 9066, 5913, 7313, 9064, 9067, 9872
10023, 6841, 155, 6091, 4106, 9952, 10673, 9060, 8950, 4108, 9059
10024, 6841, 6091, 155, 4112, 9060, 10673, 9952, 8182, 9293, 4116
10025, 168, 6091, 155, 4106, 6162, 10673, 1319, 4107, 9059, 4108
10026, 168, 155, 6091, 4112, 1319, 10673, 6162, 4117, 4116, 9293
10027, 1194, 155, 6820, 1420, 4064, 10674, 7479, 4264, 10249, 8361
10028, 1194, 6820, 155, 1325, 7479, 10674, 4064, 6964, 10527, 1327
10029, 6841, 6820, 155, 1420, 8620, 10674, 9952, 10250, 8361, 10249
10030, 6841, 155, 6820, 1325, 9952, 10674, 8620, 9399, 1327, 10527
10031, 5784, 289, 356, 337, 7244, 10538, 5801, 5802, 5514, 2097
10032, 5784, 356, 289, 5586, 5801, 10538, 7244, 7487, 5634, 9708
10033, 3405, 2751, 793, 3411, 8455, 2755, 10675, 3451, 7405, 7530
10034, 3405, 793, 2751, 94, 10675, 2755, 8455, 8015, 802, 2753
10035, 1070, 3405, 793, 3411, 10676, 10675, 8494, 8493, 3451, 7530
10036, 1070, 793, 3405, 94, 8494, 10675, 10676, 10228, 802, 8015
10037, 1125, 3405, 1070, 3411, 3429, 10676, 3621, 3449, 3451, 8493
10038, 1125, 1070, 3405, 94, 3621, 10676, 3429, 10302, 10228, 8015
10039, 1412, 5879, 1987, 1799, 6995, 5891, 10677, 9694, 9499, 5530
10040, 1412, 1987, 5879, 5876, 10677, 5891, 6995, 6994, 5898, 5900
10041, 1988, 1412, 1987, 1799, 10678, 10677, 1994, 5533, 9694, 5530
10042, 1988, 1987, 1412, 5876, 1994, 10677, 10678, 5899, 5898, 6994
10043, 1800, 1412, 1988, 1799, 8213, 10678, 5532, 1806, 9694, 5533
10044, 6819, 6861, 361, 345, 9559, 10679, 9817, 9329, 9720, 5955
10045, 346, 6861, 361, 360, 9801, 10679, 2101, 5954, 10273, 2102
10046, 346, 361, 6861, 345, 2101, 10679, 9801, 2012, 5955, 9720
10047, 6885, 352, 6832, 2018, 9672, 10680, 9582, 8490, 5568, 9581
10048, 98, 877, 6477, 2734, 883, 9008, 9544, 2736, 2740, 8473
10049, 98, 6477, 877, 3156, 9544, 9008, 883, 9655, 9009, 7035
10050, 113, 111, 104, 3194, 3605, 10681, 1096, 3211, 9862, 3212
10051, 111, 104, 800, 2830, 10681, 10682, 9407, 9883, 2873, 9884
10052, 111, 800, 104, 3194, 9407, 10682, 10681, 9862, 9777, 3212
10053, 800, 104, 898, 2830, 10682, 2870, 2770, 9884, 2873, 2872
10054, 111, 3193, 104, 2830, 9980, 3209, 10681, 9883, 7935, 2873
10055, 111, 104, 3193, 113, 10681, 3209, 9980, 3605, 1096, 3210
10056, 3505, 3495, 893, 1015, 3526, 10458, 10031, 3525, 3521, 2897
10057, 3491, 3499, 795, 3508, 3544, 10683, 9855, 3557, 3559, 9856
10058, 3491, 795, 3499, 1043, 9855, 10683, 3544, 9414, 8772, 9494
10059, 794, 3499, 795, 1043, 9919, 10683, 804, 10467, 9494, 8772
10060, 95, 835, 6867, 2687, 841, 10508, 7758, 2689, 2693, 7781
10061, 95, 6867, 835, 3033, 7758, 10508, 841, 8363, 7728, 8804
10062, 71, 649, 3700, 1154, 655, 9493, 3776, 1157, 6367, 3777
10063, 71, 3700, 649, 1030, 3776, 9493, 655, 10144, 7994, 9492
10064, 3498, 795, 3505, 3508, 8988, 10684, 3531, 3558, 9856, 3570
10065, 3498, 3505, 795, 893, 3531, 10684, 8988, 10030, 10031, 2764
10066, 3495, 3505, 795, 3508, 3526, 10684, 10459, 3569, 3570, 9856
10067, 3495, 795, 3505, 893, 10459, 10684, 3526, 10458, 2764, 10031
10068, 796, 3284, 1029, 3290, 7252, 10685, 7310, 7307, 3316, 7309
10069, 796, 1029, 3284, 1030, 7310, 10685, 7252, 10466, 1036, 9926
10070, 3283, 3284, 1029, 1030, 3342, 10685, 8186, 9511, 9926, 1036
10071, 3284, 3293, 1029, 3290, 3360, 7089, 10685, 3316, 3349, 7309
10072, 3284, 1029, 3293, 3283, 10685, 7089, 3360, 3342, 8186, 3359
10073, 6811, 218, 6875, 1615, 9999, 10686, 9789, 9790, 4607, 8599
10074, 6811, 6875, 218, 217, 9789, 10686, 9999, 10007, 10632, 1499
10075, 120, 6875, 218, 1615, 10005, 10686, 1621, 4606, 8599, 4607
10076, 120, 218, 6875, 217, 1621, 10686, 10005, 4608, 1499, 10632
10077, 1212, 1211, 1948, 5361, 1214, 9639, 7874, 7875, 8909, 5398
10078, 1212, 1948, 1211, 1187, 7874, 9639, 1214, 4074, 8708, 4073
10079, 6899, 5441, 1435, 1415, 9637, 10687, 10069, 9965, 10688, 4279
10080, 6868, 153, 6128, 4118, 9395, 10689, 8487, 8278, 4120, 8496
10081, 6868, 6128, 153, 4124, 8487, 10689, 9395, 8478, 8486, 4128
10082, 170, 6128, 153, 4118, 6172, 10689, 1329, 4119, 8496, 4120
10083, 170, 153, 6128, 4124, 1329, 10689, 6172, 4129, 4128, 8486
10084, 1947, 1187, 1948, 1413, 10690, 8708, 1954, 10262, 4250, 8710
10085, 1947, 1948, 1187, 1211, 1954, 8708, 10690, 8762, 9639, 4073
10086, 136, 1947, 1186, 1211, 8763, 10691, 4020, 1213, 8762, 4021
10087, 1186, 1187, 1947, 1413, 1198, 10690, 10691, 4249, 4250, 10262
10088, 1186, 1947, 1187, 1211, 10691, 10690, 1198, 4021, 8762, 4073
10089, 3495, 795, 3499, 3508, 10459, 10683, 3566, 3569, 9856, 3559
10090, 3495, 3499, 795, 794, 3566, 10683, 10459, 9921, 9919, 804
10091, 6365, 327, 248, 5075, 10525, 10692, 6382, 9171, 5080, 5076
10092, 6365, 248, 327, 328, 6382, 10692, 10525, 8030, 10110, 1861
10093, 326, 248, 327, 5075, 10156, 10692, 1860, 5079, 5076, 5080
10094, 326, 327, 248, 328, 1860, 10692, 10156, 5030, 1861, 10110
10095, 6814, 23, 451, 460, 10476, 2206, 10693, 10475, 463, 2208
10096, 397, 9, 6858, 7, 400, 10193, 10552, 2157, 405, 8562
10097, 3645, 245, 129, 6817, 10694, 1864, 3814, 7280, 8765, 9633
10098, 6854, 6436, 345, 6819, 9166, 10695, 9297, 9167, 7524, 9329
10099, 349, 6436, 345, 5559, 6575, 10695, 2017, 5563, 10238, 5560
10100, 349, 345, 6436, 6819, 2017, 10695, 6575, 9615, 9329, 7524
10101, 6813, 453, 6807, 6818, 10004, 10696, 9328, 10116, 10140, 10117
10102, 1417, 1438, 5617, 1437, 4283, 5673, 9678, 4284, 1447, 5674
10103, 190, 1453, 4588, 1610, 1456, 8337, 4591, 1611, 6214, 4593
10104, 190, 4588, 1453, 6849, 4591, 8337, 1456, 7802, 8338, 7801
10105, 6820, 1330, 6841, 154, 7480, 10697, 8620, 7749, 1332, 8964
10106, 6820, 6841, 1330, 6868, 8620, 10697, 7480, 7484, 8077, 7483
10107, 4118, 6841, 1330, 154, 8183, 10697, 4121, 4122, 8964, 1332
10108, 4118, 1330, 6841, 6868, 4121, 10697, 8183, 8278, 7483, 8077
10109, 2837, 795, 2862, 893, 8989, 10698, 2907, 2905, 2764, 2903
10110, 894, 2862, 795, 893, 2902, 10698, 2763, 903, 2903, 2764
10111, 471, 26, 6843, 480, 475, 10348, 10699, 2223, 2222, 10267
10112, 6843, 26, 471, 6818, 10348, 475, 10699, 10306, 10123, 10479
10113, 6843, 6809, 471, 480, 8193, 10059, 10699, 10267, 10068, 2223
10114, 471, 6809, 6843, 6818, 10059, 8193, 10699, 10479, 10160, 10306
10115, 3280, 105, 109, 2848, 3294, 10569, 9976, 9100, 2875, 10530
10116, 3280, 109, 105, 114, 9976, 10569, 3294, 3295, 3577, 1110
10117, 6812, 21, 6892, 19, 10472, 10700, 10105, 10471, 459, 10120
10118, 6812, 6892, 21, 6835, 10105, 10700, 10472, 10103, 9964, 10330
10119, 3681, 6892, 21, 19, 7915, 10700, 3746, 3747, 10120, 459
10120, 3681, 21, 6892, 6835, 3746, 10700, 7915, 9416, 10330, 9964
10121, 1420, 6882, 1305, 158, 9959, 10701, 8244, 8243, 10547, 1306
10122, 4088, 1305, 6882, 158, 4091, 10701, 10702, 4090, 1306, 10547
10123, 6825, 245, 3645, 6817, 7979, 10694, 10703, 8704, 8765, 7280
10124, 6825, 3648, 3645, 3658, 7720, 3865, 10703, 7721, 3867, 3816
10125, 3645, 3648, 6825, 6817, 3865, 7720, 10703, 7280, 7278, 8704
10126, 210, 124, 6875, 123, 4341, 10704, 10537, 4342, 1163, 8189
10127, 210, 6875, 124, 6831, 10537, 10704, 4341, 7930, 10119, 7905
10128, 3649, 6875, 124, 123, 9452, 10704, 3794, 3795, 8189, 1163
10129, 3649, 124, 6875, 6831, 3794, 10704, 9452, 9147, 7905, 10119
10130, 6862, 6470, 6818, 6488, 7029, 10705, 9835, 8321, 6631, 8051
10131, 6862, 6818, 6470, 6843, 9835, 10705, 7029, 9647, 10306, 8630
10132, 6420, 6818, 6470, 6488, 8052, 10705, 6632, 6630, 8051, 6631
10133, 6420, 6470, 6818, 6843, 6632, 10705, 8052, 8629, 8630, 10306
10134, 6456, 6442, 6828, 8, 6508, 7411, 10706, 6505, 6506, 9326
10135, 6828, 6442, 6456, 6133, 7411, 6508, 10706, 8070, 7007, 7005
10136, 6828, 390, 6456, 8, 9509, 10611, 10706, 9326, 394, 6505
10137, 6456, 390, 6828, 6133, 10611, 9509, 10706, 7005, 10613, 8070
10138, 460, 6362, 210, 469, 8081, 10647, 10707, 2216, 7579, 10012
10139, 210, 6362, 460, 211, 10647, 8081, 10707, 1483, 8082, 8080
10140, 460, 210, 6811, 469, 10707, 10014, 10708, 2216, 10012, 10013
10141, 6811, 210, 460, 211, 10014, 10707, 10708, 10052, 1483, 8080
10142, 460, 6811, 6814, 469, 10708, 9738, 10475, 2216, 10013, 10132
10143, 6814, 6811, 460, 211, 9738, 10708, 10475, 10631, 10052, 8080
10144, 6871, 6849, 253, 1650, 7192, 10709, 9605, 9611, 9148, 4630
10145, 6871, 253, 6849, 6821, 9605, 10709, 7192, 7352, 9606, 6985
10146, 1646, 253, 6849, 1650, 1648, 10709, 8412, 4629, 4630, 9148
10147, 1646, 6849, 253, 6821, 8412, 10709, 1648, 8409, 6985, 9606
10148, 6849, 190, 212, 6822, 7802, 4590, 10540, 9232, 10218, 10710
10149, 6849, 212, 190, 4588, 10540, 4590, 7802, 8338, 4592, 4591
10150, 71, 649, 797, 1030, 655, 10711, 10442, 10144, 9492, 9928
10151, 71, 797, 649, 626, 10442, 10711, 655, 2547, 2633, 2548
10152, 796, 797, 649, 1030, 806, 10711, 9358, 10466, 9928, 9492
10153, 796, 649, 797, 626, 9358, 10711, 806, 2632, 2548, 2633
10154, 435, 444, 6849, 434, 2195, 10712, 10518, 438, 2198, 9374
10155, 435, 6849, 444, 347, 10518, 10712, 2195, 10521, 7004, 10543
10156, 443, 6849, 444, 434, 8914, 10712, 447, 2196, 9374, 2198
10157, 443, 444, 6849, 347, 447, 10712, 8914, 10542, 10543, 7004
10158, 1435, 5445, 5441, 5438, 10491, 5494, 10687, 7370, 5506, 5512
10159, 6807, 453, 6853, 6818, 10696, 10713, 10019, 10117, 10140, 9931
10160, 801, 3150, 733, 90, 9535, 10714, 9730, 9731, 10576, 734
10161, 6849, 189, 6822, 212, 7873, 10715, 9232, 10540, 1487, 10710
10162, 6849, 6822, 189, 6878, 9232, 10715, 7873, 8239, 10427, 9592
10163, 190, 6822, 189, 212, 10218, 10715, 1452, 4590, 10710, 1487
10164, 190, 189, 6822, 6878, 1452, 10715, 10218, 9982, 9592, 10427
10165, 127, 6817, 6831, 126, 10292, 10572, 10716, 1166, 10574, 9096
10166, 2022, 6843, 329, 6809, 7851, 10717, 5564, 8091, 8193, 8090
10167, 498, 329, 6843, 6809, 9750, 10717, 7339, 9751, 8090, 8193
10168, 44, 775, 2287, 76, 2662, 10718, 2331, 820, 776, 10616
10169, 44, 2287, 775, 6898, 2331, 10718, 2662, 8979, 7637, 8346
10170, 6855, 2287, 775, 76, 7233, 10718, 8345, 9896, 10616, 776
10171, 6855, 775, 2287, 6898, 8345, 10718, 7233, 7638, 8346, 7637
10172, 58, 733, 3150, 90, 2656, 10714, 8843, 819, 734, 10576
10173, 58, 3150, 733, 3151, 8843, 10714, 2656, 9383, 3180, 9687
10174, 6858, 3665, 1170, 3687, 9219, 3817, 9922, 9011, 3834, 3833
10175, 6858, 1170, 3665, 6116, 9922, 3817, 9219, 9547, 6142, 7529
10176, 6848, 6874, 3677, 3674, 9828, 7614, 10719, 7382, 7615, 3981
10177, 3677, 6874, 6848, 6831, 7614, 9828, 10719, 9146, 10051, 9830
10178, 3677, 3711, 6848, 3674, 3883, 7383, 10719, 3981, 3974, 7382
10179, 6848, 3711, 3677, 6831, 7383, 3883, 10719, 9830, 9145, 9146
10180, 6858, 6785, 1454, 371, 9173, 9597, 10720, 9174, 6791, 8235
10181, 1454, 6785, 6858, 6135, 9597, 9173, 10720, 6267, 9335, 9339
10182, 1454, 363, 6858, 371, 9320, 9237, 10720, 8235, 2137, 9174
10183, 347, 426, 6807, 435, 10520, 9847, 9943, 10521, 2188, 9620
10184, 453, 347, 6807, 444, 10003, 9943, 10696, 2201, 10543, 9621
10185, 453, 6807, 347, 6813, 10696, 9943, 10003, 10004, 9328, 9910
10186, 72, 3030, 798, 787, 9693, 10721, 9729, 788, 10603, 10280
10187, 6864, 3030, 798, 1032, 9025, 10721, 9853, 8613, 3064, 9540
10188, 6864, 798, 3030, 787, 9853, 10721, 9025, 9549, 10280, 10603
10189, 1454, 379, 6858, 363, 9321, 8565, 10720, 9320, 2144, 9237
10190, 6858, 379, 1454, 6135, 8565, 9321, 10720, 9339, 10641, 6267
10191, 6817, 128, 6831, 245, 9822, 10722, 10572, 8765, 5074, 10573
10192, 6817, 6831, 128, 127, 10572, 10722, 9822, 10292, 10716, 1167
10193, 244, 6831, 128, 245, 10604, 10722, 1865, 1608, 10573, 5074
10194, 244, 128, 6831, 127, 1865, 10722, 10604, 5073, 1167, 10716
10195, 6835, 21, 6814, 23, 10330, 10723, 10202, 10234, 468, 10476
10196, 6835, 6814, 21, 6812, 10202, 10723, 10330, 10103, 10724, 10472
10197, 451, 6814, 21, 23, 10693, 10723, 454, 2206, 10476, 468
10198, 451, 21, 6814, 6812, 454, 10723, 10693, 10473, 10472, 10724
10199, 406, 9, 6858, 397, 2164, 10193, 10725, 2165, 400, 10552
10200, 6858, 9, 406, 6812, 10193, 2164, 10725, 8265, 10474, 9992
10201, 6858, 1453, 406, 397, 9031, 9442, 10725, 10552, 8922, 2165
10202, 406, 1453, 6858, 6812, 9442, 9031, 10725, 9992, 9030, 8265
10203, 444, 20, 6807, 453, 448, 10726, 9621, 2201, 2200, 10696
10204, 6853, 6807, 20, 453, 10019, 10726, 10404, 10713, 10696, 2200
10205, 1417, 1418, 5617, 1438, 1427, 9136, 9678, 4283, 4282, 5673
10206, 5617, 1418, 1417, 6840, 9136, 1427, 9678, 9348, 8289, 8290
10207, 795, 796, 2862, 894, 805, 10727, 10698, 2763, 2762, 2902
10208, 795, 2862, 796, 6902, 10698, 10727, 805, 9903, 8552, 8567
10209, 2856, 2862, 796, 894, 2914, 10727, 9802, 2913, 2902, 2762
10210, 2856, 796, 2862, 6902, 9802, 10727, 2914, 9176, 8567, 8552
10211, 6882, 4088, 159, 1305, 10702, 4092, 10728, 10701, 4091, 1307
10212, 6882, 1420, 159, 1804, 9959, 10484, 10728, 9832, 9064, 7691
10213, 159, 1420, 6882, 1305, 10484, 9959, 10728, 1307, 8244, 10701
10214, 1439, 1438, 5788, 1418, 1448, 10729, 7197, 4286, 4282, 10452
10215, 1439, 5788, 1438, 2049, 7197, 10729, 1448, 5681, 5840, 5680
10216, 5793, 5788, 1438, 1418, 5841, 10729, 10170, 10294, 10452, 4282
10217, 5793, 1438, 5788, 2049, 10170, 10729, 5841, 5836, 5680, 5840
10218, 1061, 83, 3196, 757, 10113, 10730, 9629, 9809, 759, 10617
10219, 1061, 3196, 83, 800, 9629, 10730, 10113, 9966, 9776, 10410
10220, 630, 3196, 83, 757, 10206, 10730, 2573, 8758, 10617, 759
10221, 630, 83, 3196, 800, 2573, 10730, 10206, 2640, 10410, 9776
10222, 1400, 1416, 1580, 139, 10496, 10016, 8636, 1401, 10447, 8637
10223, 3282, 2859, 3278, 3291, 10492, 6919, 3338, 3352, 6918, 3353
10224, 3282, 3278, 2859, 1032, 3338, 6919, 10492, 9510, 7258, 7256
10225, 359, 335, 5587, 5971, 10493, 8395, 5644, 5977, 9924, 9356
10226, 359, 5587, 335, 5606, 5644, 8395, 10493, 5641, 5645, 8394
10227, 790, 798, 3030, 1032, 9728, 10721, 9658, 9818, 9540, 3064
10228, 3030, 798, 790, 72, 10721, 9728, 9658, 9693, 9729, 792
10229, 1417, 1416, 1580, 1400, 1426, 10016, 10731, 8241, 10496, 8636
10230, 1580, 1416, 1417, 5430, 10016, 1426, 10731, 9663, 10186, 10446
10231, 1580, 1581, 1417, 1400, 1587, 10106, 10731, 8636, 8707, 8241
10232, 1417, 1581, 1580, 5430, 10106, 1587, 10731, 10446, 9133, 9663
10233, 347, 6861, 360, 340, 8178, 10273, 2099, 5953, 8116, 2100
10234, 347, 360, 6861, 346, 2099, 10273, 8178, 2013, 5954, 9801
10235, 3506, 3498, 2837, 3504, 3573, 8986, 10501, 3563, 3530, 8646
10236, 3506, 2837, 3498, 3497, 10501, 8986, 3573, 3574, 8985, 3556
10237, 339, 6870, 6849, 6365, 9263, 10524, 10488, 9261, 9109, 7154
10238, 339, 6849, 6870, 5546, 10488, 10524, 9263, 5549, 6986, 10242
10239, 5443, 1417, 6897, 5615, 10499, 10001, 8419, 7426, 8259, 8420
10240, 5443, 6897, 1417, 1581, 8419, 10001, 10499, 8811, 8813, 10106
10241, 2837, 3506, 2841, 6860, 10501, 10732, 3006, 9726, 7869, 9132
10242, 2837, 2841, 3506, 3504, 3006, 10732, 10501, 8646, 8645, 3563
10243, 3492, 2841, 3506, 6860, 8417, 10732, 3562, 8003, 9132, 7869
10244, 3492, 3506, 2841, 3504, 3562, 10732, 8417, 3534, 3563, 8645
10245, 5789, 5786, 1418, 5796, 9187, 10733, 9134, 5851, 5859, 10295
10246, 1418, 5786, 5789, 5592, 10733, 9187, 9134, 9135, 7601, 6920
10247, 5786, 1438, 1418, 5796, 10734, 4282, 10733, 5859, 10296, 10295
10248, 1418, 1438, 5786, 5592, 4282, 10734, 10733, 9135, 5684, 7601
10249, 5786, 5793, 1438, 5796, 5838, 10170, 10734, 5859, 5858, 10296
10250, 1438, 5793, 5786, 5592, 10170, 5838, 10734, 5684, 10623, 7601
10251, 3704, 9, 6876, 11, 3732, 10735, 9930, 3731, 414, 8871
10252, 3704, 6876, 9, 6858, 9930, 10735, 3732, 9660, 9933, 10193
10253, 6812, 6876, 9, 11, 8872, 10735, 10474, 8869, 8871, 414
10254, 6812, 9, 6876, 6858, 10474, 10735, 8872, 8265, 10193, 9933
10255, 91, 3151, 3150, 1075, 9632, 3180, 10736, 10204, 3164, 3189
10256, 3150, 3151, 91, 733, 3180, 9632, 10736, 10714, 9687, 735
10257, 3150, 801, 91, 1075, 9535, 10528, 10736, 3189, 8640, 10204
10258, 91, 801, 3150, 733, 10528, 9535, 10736, 735, 9730, 10714
10259, 389, 379, 1453, 4685, 2154, 10640, 8923, 8107, 10506, 7889
10260, 1453, 379, 389, 388, 10640, 2154, 8923, 8924, 2151, 392
10261, 5790, 1757, 151, 1345, 8231, 9571, 10737, 10539, 9949, 1347
10262, 151, 1757, 5790, 1419, 9571, 8231, 10737, 10293, 9960, 8153
10263, 151, 1193, 5790, 1345, 4055, 9445, 10737, 1347, 6966, 10539
10264, 5790, 1193, 151, 1419, 9445, 4055, 10737, 8153, 4262, 10293
10265, 470, 480, 1875, 6356, 2226, 10551, 10533, 7493, 8797, 6384
10266, 1875, 480, 470, 471, 10551, 2226, 10533, 10534, 2223, 474
10267, 417, 347, 6807, 346, 10546, 9943, 9768, 9867, 2013, 9557
10268, 417, 6807, 347, 426, 9768, 9943, 10546, 2181, 9847, 10520
10269, 498, 6809, 332, 331, 9751, 10066, 10738, 9749, 9308, 1868
10270, 332, 6809, 498, 489, 10066, 9751, 10738, 9392, 10073, 2237
10271, 332, 6356, 498, 331, 9393, 9041, 10738, 1868, 8221, 9749
10272, 498, 6356, 332, 489, 9041, 9393, 10738, 2237, 9088, 9392
10273, 1418, 1756, 148, 1360, 10188, 9892, 10582, 10187, 8991, 1362
10274, 1834, 399, 398, 6887, 9421, 402, 10564, 7437, 9424, 9489
10275, 1834, 398, 399, 408, 10564, 402, 9421, 8983, 2169, 2167
10276, 790, 797, 1031, 68, 10555, 10231, 9819, 791, 10463, 10080
10277, 798, 797, 1031, 790, 807, 10231, 10739, 9728, 10555, 9819
10278, 1031, 797, 798, 3282, 10231, 807, 10739, 9410, 10153, 10465
10279, 1031, 1032, 798, 790, 1038, 9540, 10739, 9819, 9818, 9728
10280, 798, 1032, 1031, 3282, 9540, 1038, 10739, 10465, 9510, 9410
10281, 6809, 471, 333, 334, 10059, 10740, 10067, 10060, 10058, 1870
10282, 6809, 333, 471, 480, 10067, 10740, 10059, 10068, 10065, 2223
10283, 1875, 333, 471, 334, 5085, 10740, 10534, 10437, 1870, 10058
10284, 1875, 471, 333, 480, 10534, 10740, 5085, 10551, 2223, 10065
10285, 6811, 216, 469, 213, 10029, 10741, 10013, 10015, 1497, 10011
10286, 6811, 469, 216, 478, 10013, 10741, 10029, 10028, 2221, 10027
10287, 1491, 469, 216, 213, 7581, 10741, 4352, 10438, 10011, 1497
10288, 1491, 216, 469, 478, 4352, 10741, 7581, 8530, 10027, 2221
10289, 373, 6458, 1833, 6133, 10567, 9705, 9871, 9250, 9201, 6296
10290, 373, 1833, 6458, 6786, 9871, 9705, 10567, 6787, 9704, 9702
10291, 1615, 517, 218, 219, 10511, 10742, 4607, 1617, 8787, 1500
10292, 6355, 218, 517, 219, 9438, 10742, 8880, 9437, 1500, 8787
10293, 6355, 517, 218, 496, 8880, 10742, 9438, 9396, 9397, 9998
10294, 105, 109, 2849, 3281, 10569, 10743, 2878, 3297, 9635, 8748
10295, 105, 2849, 109, 3367, 2878, 10743, 10569, 10481, 9680, 9940
10296, 1115, 2849, 109, 3281, 8747, 10743, 8457, 8526, 8748, 9635
10297, 1115, 109, 2849, 3367, 8457, 10743, 8747, 3394, 9940, 9680
10298, 111, 2854, 6830, 1056, 10570, 7305, 7203, 1062, 7173, 7202
10299, 111, 6830, 2854, 2855, 7203, 7305, 10570, 7547, 7546, 3012
10300, 1355, 5790, 149, 1756, 10580, 10744, 1357, 10143, 8413, 9908
10301, 1355, 149, 5790, 1193, 1357, 10744, 10580, 10130, 4051, 9445
10302, 1350, 149, 5790, 1756, 1351, 10744, 8230, 8414, 9908, 8413
10303, 1350, 5790, 149, 1193, 8230, 10744, 1351, 9444, 9445, 4051
10304, 1355, 1418, 1756, 148, 10579, 10188, 10143, 1356, 10582, 9892
10305, 1756, 1418, 1355, 5785, 10188, 10579, 10143, 9563, 10201, 10581
10306, 775, 798, 6855, 76, 10587, 9686, 8345, 776, 9733, 9896
10307, 798, 6855, 1058, 775, 9686, 7698, 10745, 10587, 8345, 10505
10308, 1058, 6855, 798, 6894, 7698, 9686, 10745, 7185, 7460, 9365
10309, 1058, 799, 798, 775, 8862, 808, 10745, 10505, 9975, 10587
10310, 798, 799, 1058, 6894, 808, 8862, 10745, 9365, 8863, 7185
10311, 745, 2264, 111, 6857, 10592, 7102, 10614, 10590, 7151, 7205
10312, 745, 111, 2264, 86, 10614, 7102, 10592, 746, 9431, 10513
10313, 1947, 1186, 335, 136, 10691, 10746, 1953, 8763, 4020, 9536
10314, 1947, 335, 1186, 1413, 1953, 10746, 10691, 10262, 9388, 4249
10315, 1412, 335, 1186, 136, 8214, 10746, 4248, 9448, 9536, 4020
10316, 1412, 1186, 335, 1413, 4248, 10746, 8214, 1422, 4249, 9388
10317, 1461, 1567, 1454, 4695, 4537, 10747, 4334, 8903, 4763, 8904
10318, 1461, 1454, 1567, 1462, 4334, 10747, 4537, 1464, 4332, 4536
10319, 4685, 1454, 1567, 4695, 7624, 10747, 4700, 4769, 8904, 4763
10320, 4685, 1567, 1454, 1462, 4700, 10747, 7624, 8690, 4536, 4332
10321, 243, 415, 6812, 244, 10595, 9808, 10630, 1607, 9807, 8673
10322, 243, 6812, 415, 424, 10630, 9808, 10595, 9467, 10468, 2179
10323, 243, 6831, 127, 244, 9618, 10716, 1613, 1607, 10604, 5073
10324, 243, 127, 6831, 126, 1613, 10716, 9618, 4601, 1166, 9096
10325, 498, 36, 6439, 515, 10608, 6549, 10748, 9963, 518, 10610
10326, 498, 6439, 36, 6843, 10748, 6549, 10608, 7339, 7850, 9891
10327, 2022, 498, 6439, 515, 10749, 10748, 7836, 8725, 9963, 10610
10328, 2022, 6439, 498, 6843, 7836, 10748, 10749, 7851, 7850, 7339
10329, 329, 498, 2022, 515, 9750, 10749, 5564, 8786, 9963, 8725
10330, 329, 2022, 498, 6843, 5564, 10749, 9750, 10717, 7851, 7339
10331, 6853, 18, 6419, 20, 10750, 6521, 9039, 10404, 449, 6522
10332, 18, 6807, 6853, 6828, 10751, 10019, 10750, 10434, 9624, 10394
10333, 6853, 6807, 18, 20, 10019, 10751, 10750, 10404, 10726, 449
10334, 18, 444, 6807, 6828, 2194, 9621, 10751, 10434, 9623, 9624
10335, 6807, 444, 18, 20, 9621, 2194, 10751, 10726, 448, 449
10336, 18, 6467, 6853, 6419, 6519, 9040, 10750, 6521, 6523, 9039
10337, 18, 6853, 6467, 6828, 10750, 9040, 6519, 10434, 10394, 10035
10338, 799, 1060, 80, 766, 10142, 10167, 10638, 10342, 9967, 768
10339, 6854, 6133, 390, 6134, 8071, 10613, 10752, 9578, 6300, 10642
10340, 6854, 390, 6133, 6828, 10752, 10613, 8071, 7413, 9509, 8070
10341, 399, 6854, 390, 6134, 10753, 10752, 2160, 10627, 9578, 10642
10342, 399, 390, 6854, 6828, 2160, 10752, 10753, 9508, 9509, 7413
10343, 408, 6854, 399, 6134, 10022, 10753, 2167, 10626, 9578, 10627
10344, 408, 399, 6854, 6828, 2167, 10753, 10022, 10480, 9508, 7413
10345, 517, 6900, 218, 496, 8703, 10615, 10742, 9397, 9742, 9998
10346, 517, 218, 6900, 1615, 10742, 10615, 8703, 10511, 4607, 8550
10347, 763, 3196, 81, 1060, 10636, 10754, 765, 10038, 9507, 10037
10348, 763, 81, 3196, 630, 765, 10754, 10636, 10393, 2569, 10206
10349, 760, 81, 3196, 1060, 761, 10754, 9978, 9979, 10037, 9507
10350, 760, 3196, 81, 630, 9978, 10754, 761, 10207, 10206, 2569
10351, 763, 799, 1060, 80, 10635, 10142, 10038, 764, 10638, 10167
10352, 1060, 799, 763, 3201, 10142, 10635, 10038, 9486, 10141, 10637
10353, 1453, 379, 6858, 6135, 10640, 8565, 9031, 6272, 10641, 9339
10354, 6858, 379, 1453, 388, 8565, 10640, 9031, 8564, 2151, 8924
10355, 6812, 451, 243, 6808, 10473, 10554, 10630, 9188, 10082, 10062
10356, 6812, 243, 451, 442, 10630, 10554, 10473, 10470, 9277, 2202
10357, 1923, 310, 5253, 263, 1925, 10755, 5257, 1924, 9073, 5255
10358, 1923, 5253, 310, 5252, 5257, 10755, 1925, 5260, 10648, 5258
10359, 6823, 5253, 310, 263, 10428, 10755, 9075, 9074, 5255, 9073
10360, 6823, 310, 5253, 5252, 9075, 10755, 10428, 10210, 5258, 10648
10361, 1216, 133, 3690, 1579, 1218, 3823, 10656, 10657, 10321, 9053
10362, 3690, 133, 1216, 1180, 3823, 1218, 10656, 3824, 1183, 6793
10363, 3690, 1172, 6123, 1591, 3822, 6270, 10756, 9051, 6145, 6217
10364, 6123, 1172, 3690, 1180, 6270, 3822, 10756, 10034, 3839, 3824
10365, 6123, 1216, 3690, 1591, 9692, 10656, 10756, 6217, 9691, 9051
10366, 3690, 1216, 6123, 1180, 10656, 9692, 10756, 3824, 6793, 10034
10367, 159, 6120, 6882, 1804, 10658, 9770, 10728, 7691, 9350, 9832
10368, 159, 6882, 6120, 4088, 10728, 9770, 10658, 4092, 10702, 9797
10369, 6120, 6106, 4088, 6882, 6158, 10757, 9797, 9770, 9771, 10702
10370, 6120, 4088, 6106, 4094, 9797, 10757, 6158, 9798, 9796, 9909
10371, 6106, 157, 1310, 6882, 10661, 1311, 10758, 9771, 10099, 10272
10372, 6106, 1310, 157, 4094, 10758, 1311, 10661, 9909, 4097, 4096
10373, 158, 6106, 1310, 6882, 10759, 10758, 1312, 10547, 9771, 10272
10374, 158, 1310, 6106, 4094, 1312, 10758, 10759, 4098, 4097, 9909
10375, 4088, 6106, 158, 6882, 10757, 10759, 4090, 10702, 9771, 10547
10376, 4088, 158, 6106, 4094, 4090, 10759, 10757, 9796, 4098, 9909
10377, 94, 801, 1075, 91, 811, 8640, 10274, 10455, 10528, 10204
10378, 1075, 801, 94, 3404, 8640, 811, 10274, 9836, 6953, 6952
10379, 143, 6840, 4178, 6850, 10663, 7743, 4180, 9854, 8737, 8970
10380, 143, 4178, 6840, 1380, 4180, 7743, 10663, 1381, 4181, 9192
10381, 6850, 6113, 1417, 1581, 8095, 10760, 9948, 8519, 7765, 10106
10382, 6850, 1417, 6113, 4196, 9948, 10760, 8095, 8097, 9518, 8093
10383, 140, 1417, 6113, 1581, 8242, 10760, 10664, 8706, 10106, 7765
10384, 140, 6113, 1417, 4196, 10664, 10760, 8242, 4198, 8093, 9518
10385, 1755, 6110, 1370, 6840, 8130, 10761, 8784, 9404, 8676, 10055
10386, 1755, 1370, 6110, 4166, 8784, 10761, 8130, 8129, 4169, 8128
10387, 145, 1370, 6110, 6840, 1371, 10761, 10666, 9617, 10055, 8676
10388, 145, 6110, 1370, 4166, 10666, 10761, 1371, 4168, 8128, 4169
10389, 174, 175, 4895, 1780, 1353, 10762, 9915, 6182, 6181, 4943
10390, 174, 4895, 175, 4148, 9915, 10762, 1353, 4153, 9839, 4149
10391, 1756, 4895, 175, 1780, 4942, 10762, 10670, 4939, 4943, 6181
10392, 1756, 175, 4895, 4148, 10670, 10762, 4942, 9837, 4149, 9839
10393, 5428, 5436, 6899, 5441, 5463, 7651, 10763, 5493, 5492, 9637
10394, 6899, 5436, 5428, 1578, 7651, 5463, 10763, 9195, 9698, 9673
10395, 6899, 1415, 5428, 5441, 9965, 10549, 10763, 9637, 10688, 5493
10396, 5428, 1415, 6899, 1578, 10549, 9965, 10763, 9673, 9485, 9195
10397, 139, 6125, 1405, 1580, 10665, 10764, 1407, 8637, 7662, 10018
10398, 139, 1405, 6125, 4208, 1407, 10764, 10665, 4212, 4211, 10224
10399, 138, 1405, 6125, 1580, 1406, 10764, 10672, 10017, 10018, 7662
10400, 138, 6125, 1405, 4208, 10672, 10764, 1406, 4210, 10224, 4211
10401, 1412, 1988, 5881, 1800, 10678, 10765, 8408, 8213, 5532, 8314
10402, 1412, 5881, 1988, 5876, 8408, 10765, 10678, 6994, 5932, 5899
10403, 5868, 5881, 1988, 1800, 5933, 10765, 5901, 9761, 8314, 5532
10404, 5868, 1988, 5881, 5876, 5901, 10765, 5933, 5903, 5899, 5932
10405, 1413, 5968, 5962, 1947, 10112, 5986, 10766, 10262, 9821, 9411
10406, 5962, 5968, 1413, 5958, 5986, 10112, 10766, 6024, 6023, 10158
10407, 1413, 5973, 5962, 5958, 10454, 6016, 10766, 10158, 6025, 6024
10408, 1948, 1413, 5962, 1947, 8710, 10766, 8212, 1954, 10262, 9411
10409, 1948, 5962, 1413, 5973, 8212, 10766, 8710, 8210, 6016, 10454
10410, 6861, 361, 6471, 6819, 10679, 6600, 9314, 9559, 9817, 7177
10411, 6861, 6471, 361, 360, 9314, 6600, 10679, 10273, 6599, 2102
10412, 6809, 332, 6832, 333, 10066, 10767, 9580, 10067, 1869, 8711
10413, 6809, 6832, 332, 2018, 9580, 10767, 10066, 8092, 9581, 10145
10414, 352, 332, 6832, 2018, 5569, 10767, 10680, 5568, 10145, 9581
10415, 352, 6832, 6474, 6885, 10680, 10768, 6592, 9672, 9582, 7998
10416, 352, 6474, 6832, 353, 6592, 10768, 10680, 2028, 6593, 10287
10417, 6430, 6474, 6832, 6885, 6597, 10768, 8857, 7393, 7998, 9582
10418, 6430, 6832, 6474, 353, 8857, 10768, 6597, 6595, 10287, 6593
10419, 353, 6832, 332, 333, 10287, 10767, 2027, 5570, 8711, 1869
10420, 353, 332, 6832, 352, 2027, 10767, 10287, 2028, 5569, 10680
10421, 800, 104, 967, 898, 10682, 974, 10769, 2770, 2870, 2871
10422, 967, 104, 800, 3194, 974, 10682, 10769, 3215, 3212, 9777
10423, 967, 3200, 800, 898, 3235, 9778, 10769, 2871, 7181, 2770
10424, 800, 3200, 967, 3194, 9778, 3235, 10769, 9777, 3238, 3215
10425, 5441, 1435, 5613, 6899, 10687, 5667, 10770, 9637, 10069, 9649
10426, 5441, 5613, 1435, 5438, 10770, 5667, 10687, 5512, 7079, 7370
10427, 1962, 5441, 5613, 6899, 10771, 10770, 5699, 8434, 9637, 9649
10428, 1962, 5613, 5441, 5438, 5699, 10770, 10771, 5478, 7079, 5512
10429, 5433, 5441, 1962, 6899, 5511, 10771, 5474, 7650, 9637, 8434
10430, 5433, 1962, 5441, 5438, 5474, 10771, 5511, 5479, 5478, 5512
10431, 1416, 1415, 5445, 5428, 1425, 10772, 10195, 10194, 10549, 5490
10432, 1416, 5445, 1415, 1435, 10195, 10772, 1425, 4278, 10491, 4279
10433, 5441, 5445, 1415, 5428, 5494, 10772, 10688, 5493, 5490, 10549
10434, 5441, 1415, 5445, 1435, 10688, 10772, 5494, 10687, 4279, 10491
10435, 6808, 6814, 451, 460, 9935, 10693, 10082, 10047, 10475, 2208
10436, 6812, 6814, 6808, 6835, 10724, 9935, 9188, 10103, 10202, 10104
10437, 6812, 6808, 6814, 451, 9188, 9935, 10724, 10473, 10082, 10693
10438, 5068, 129, 3645, 245, 5069, 3814, 10773, 5071, 1864, 10694
10439, 3645, 129, 5068, 3658, 3814, 5069, 10773, 3816, 3813, 8942
10440, 3645, 6825, 5068, 245, 10703, 8943, 10773, 10694, 7979, 5071
10441, 5068, 6825, 3645, 3658, 8943, 10703, 10773, 8942, 7721, 3816
10442, 6436, 345, 6138, 6854, 10695, 10125, 10042, 9166, 9297, 9667
10443, 6436, 6138, 345, 5559, 10042, 10125, 10695, 10238, 9450, 5560
10444, 6853, 22, 453, 20, 10347, 457, 10713, 10404, 458, 2200
10445, 453, 22, 6853, 6818, 457, 10347, 10713, 10140, 10478, 9931
10446, 795, 2862, 3497, 2837, 10698, 7058, 8987, 8989, 2907, 8985
10447, 795, 3497, 2862, 6902, 8987, 7058, 10698, 9903, 8554, 8552
*NSET, NSET=FIX
238,
281,
336,
357,
362,
1577,
1582,
1583,
1589,
1729,
1735,
1752,
1753,
1759,
1950,
1951,
1952,
1957,
1958,
1960,
1961,
1966,
1967,
1973,
1975,
2036,
2037,
2043,
2045,
2046,
2047,
2052,
2053,
2058,
2059,
2060,
2061,
2062,
2063,
2064,
2065,
2066,
2067,
2068,
2069,
2070,
2072,
2073,
2074,
2075,
2079,
2080,
2081,
2087,
2088,
2089,
2094,
2095,
2105,
2106,
2107,
2108,
2109,
2110,
2111,
2112,
2113,
2114,
2115,
2116,
2117,
2118,
4543,
4544,
4550,
4562,
4565,
4566,
4867,
4868,
4869,
4870,
4889,
4890,
4914,
4928,
4936,
4937,
5354,
5367,
5407,
5410,
5411,
5412,
5429,
5433,
5439,
5440,
5444,
5446,
5447,
5448,
5449,
5450,
5453,
5454,
5455,
5456,
5457,
5475,
5476,
5495,
5518,
5519,
5576,
5583,
5584,
5585,
5586,
5587,
5588,
5589,
5590,
5591,
5594,
5595,
5596,
5597,
5598,
5599,
5601,
5603,
5604,
5605,
5607,
5608,
5609,
5610,
5611,
5612,
5614,
5616,
5617,
5618,
5619,
5620,
5626,
5627,
5628,
5629,
5630,
5635,
5636,
5637,
5638,
5639,
5640,
5643,
5652,
5693,
5694,
5696,
5697,
5698,
5703,
5705,
5706,
5707,
5708,
5709,
5710,
5711,
5712,
5713,
5716,
5717,
5718,
5719,
5720,
5721,
5722,
5723,
5724,
5725,
5726,
5727,
5728,
5729,
5730,
5731,
5732,
5733,
5734,
5735,
5736,
5737,
5738,
5739,
5740,
5741,
5742,
5743,
5744,
5745,
5747,
5748,
5750,
5751,
5752,
5753,
5754,
5755,
5756,
5760,
5761,
5763,
5764,
5765,
5766,
5767,
5768,
5769,
5770,
5771,
5772,
5773,
5774,
5775,
5776,
5777,
5778,
5779,
5780,
5783,
5784,
5787,
5791,
5792,
5794,
5795,
5797,
5798,
5807,
5812,
5813,
5814,
5816,
5827,
5828,
5829,
5830,
5831,
5832,
5843,
5845,
5846,
5847,
5848,
5849,
5850,
5857,
5861,
5862,
5863,
5864,
5868,
5870,
5871,
5874,
5877,
5878,
5882,
5885,
5906,
5909,
5917,
5918,
5920,
5921,
5922,
5923,
5924,
5925,
5930,
5931,
5938,
5939,
5943,
5944,
5945,
5946,
5947,
5959,
5960,
5964,
5967,
5969,
5970,
5971,
5983,
5994,
5996,
5998,
5999,
6009,
6010,
6012,
6013,
6014,
6015,
6027,
6028,
6029,
6031,
6032,
6033,
6034,
6039,
6041,
6042,
6043,
6044,
6045,
6046,
6047,
6048,
6049,
6050,
6051,
6052,
6053,
6054,
6055,
6056,
6057,
6058,
6059,
6060,
6061,
6062,
6063,
6064,
6065,
6066,
6067,
6068,
6069,
6070,
6071,
6072,
6073,
6074,
6075,
6076,
6077,
6078,
6079,
6080,
6081,
6082,
6083,
6084,
6085,
6086,
6087,
6088,
6089,
*MATERIAL, NAME=MAT
*ELASTIC
3500, 0.36
*SOLID SECTION, ELSET=EALL, MATERIAL=MAT
*STEP
*STATIC
*BOUNDARY
FIX, 1, 3, 0.0
*CLOAD
969, 2, 0.0293561978
970, 2, 0.0270186118
981, 2, 0.0254073338
987, 2, 0.032373609
994, 2, 0.0935005737
995, 2, 0.0964044534
996, 2, 0.118872967
997, 2, 0.100144788
998, 2, 0.118875747
999, 2, 0.100367126
1000, 2, 0.0930540657
1009, 2, 0.0281706333
1010, 2, 0.0289645895
1011, 2, 0.0290730233
1024, 2, 0.0277297703
1025, 2, 0.0287036864
1034, 2, 0.084660265
1040, 2, 0.0845164883
1052, 2, 0.036216452
1053, 2, 0.0805659028
1063, 2, 0.0815208164
1103, 2, 0.0180645207
1110, 2, 0.0485770253
1111, 2, 0.0807376931
1118, 2, 0.154128974
1119, 2, 0.147218535
1120, 2, 0.152046452
1121, 2, 0.149820402
1122, 2, 0.151772241
1123, 2, 0.148444162
1124, 2, 0.153260444
1150, 2, 0.0178976295
2874, 2, 0.0164134491
2875, 2, 0.0291301943
2876, 2, 0.0418464941
2877, 2, 0.035877462
2878, 2, 0.0298587905
2879, 2, 0.053340414
2880, 2, 0.0836919249
2881, 2, 0.121390035
2882, 2, 0.137406405
2883, 2, 0.0834321178
2884, 2, 0.0631928961
2887, 2, 0.0236783833
2896, 2, 0.0543614691
2937, 2, 0.0443471695
2938, 2, 0.0301625737
2939, 2, 0.0294522514
2940, 2, 0.0550197001
2941, 2, 0.0305974756
2942, 2, 0.0148943489
2943, 2, 0.0593769479
2946, 2, 0.0166996716
2948, 2, 0.0707847104
2949, 2, 0.0445582942
2950, 2, 0.0166996716
2955, 2, 0.0168134421
2957, 2, 0.055592289
2958, 2, 0.0379744365
2959, 2, 0.0168134421
2960, 2, 0.101842524
2961, 2, 0.096793258
2962, 2, 0.107610762
2963, 2, 0.0710540682
2964, 2, 0.0984721549
2965, 2, 0.130363122
2966, 2, 0.116154406
2967, 2, 0.12906196
2968, 2, 0.139761125
2969, 2, 0.0913437172
2970, 2, 0.0979460886
2971, 2, 0.0568228577
2972, 2, 0.100199429
2973, 2, 0.0954714329
2974, 2, 0.101799981
2975, 2, 0.10420041
2976, 2, 0.139312184
2977, 2, 0.128093655
2978, 2, 0.09543391
2979, 2, 0.101521198
2980, 2, 0.0726293859
2981, 2, 0.103532591
2982, 2, 0.114356489
2983, 2, 0.0975383294
2984, 2, 0.0934579072
2985, 2, 0.09310397
2986, 2, 0.114367842
2987, 2, 0.11468749
2988, 2, 0.144716486
2989, 2, 0.104217292
2991, 2, 0.0148591456
2992, 2, 0.0346236701
2994, 2, 0.0470508914
2995, 2, 0.0319341778
2996, 2, 0.0496664932
2997, 2, 0.0520853444
2998, 2, 0.0320852322
2999, 2, 0.0148811259
3000, 2, 0.047045233
3004, 2, 0.0149287533
3005, 2, 0.0309830514
3007, 2, 0.0302637029
3008, 2, 0.0394456475
3009, 2, 0.0489146261
3010, 2, 0.0497851098
3011, 2, 0.0386062511
3012, 2, 0.0443471695
3013, 2, 0.0261067264
3014, 2, 0.0804681955
3015, 2, 0.0477542434
3016, 2, 0.0477542434
3017, 2, 0.0405185828
3018, 2, 0.0405185828
3019, 2, 0.0473709311
3020, 2, 0.0473709311
3021, 2, 0.0405256586
3022, 2, 0.0405256586
3023, 2, 0.0299019688
3024, 2, 0.0298411267
3035, 2, 0.0486467395
3036, 2, 0.0483726375
3040, 2, 0.0483726375
3041, 2, 0.0486467395
3097, 2, 0.0483138022
3105, 2, 0.0483138022
3107, 2, 0.0453632174
3108, 2, 0.0936770196
3140, 2, 0.0462263958
3141, 2, 0.0462263958
3213, 2, 0.00884515364
3216, 2, 0.0140438234
3221, 2, 0.0273590195
3222, 2, 0.0244522268
3223, 2, 0.022888977
3224, 2, 0.0247483211
3225, 2, 0.0238762093
3226, 2, 0.020970779
3229, 2, 0.0126240582
3231, 2, 0.0212977404
3240, 2, 0.0141734648
3241, 2, 0.0178598084
3242, 2, 0.0141734648
3244, 2, 0.0250273102
3255, 2, 0.0111557737
3257, 2, 0.0220096191
3258, 2, 0.0198294559
3259, 2, 0.0225671843
3265, 2, 0.0319036317
3266, 2, 0.0295731473
3269, 2, 0.0209321716
3270, 2, 0.0178925148
3294, 2, 0.0416184827
3295, 2, 0.0240951819
3296, 2, 0.0421208427
3297, 2, 0.0421389848
3298, 2, 0.0202349319
3299, 2, 0.0289427631
3300, 2, 0.0338674064
3301, 2, 0.0314826823
3304, 2, 0.0176389993
3305, 2, 0.0176389993
3307, 2, 0.00881546965
3308, 2, 0.0227748512
3320, 2, 0.0162102651
3323, 2, 0.0162102651
3345, 2, 0.0139593815
3368, 2, 0.0830097702
3369, 2, 0.0807788472
3370, 2, 0.081133595
3371, 2, 0.0833869508
3372, 2, 0.0821206513
3373, 2, 0.0817586941
3374, 2, 0.0843740071
3375, 2, 0.0839896171
3376, 2, 0.0805310559
3377, 2, 0.0797732142
3378, 2, 0.0808333856
3379, 2, 0.0798824578
3380, 2, 0.0806532192
3381, 2, 0.0812401597
3382, 2, 0.0810052962
3383, 2, 0.0806402995
3384, 2, 0.083171605
3385, 2, 0.0835223568
3386, 2, 0.0833659674
3387, 2, 0.0807615762
3388, 2, 0.0825846644
3389, 2, 0.0803353429
3390, 2, 0.0812028063
3391, 2, 0.0810387539
3392, 2, 0.0811234869
3393, 2, 0.0826006111
3394, 2, 0.0804917323
3395, 2, 0.0798460451
3396, 2, 0.0812331885
3397, 2, 0.081361461
3398, 2, 0.0816870375
3399, 2, 0.0827646635
3400, 2, 0.080602359
3401, 2, 0.080299894
3436, 2, 0.0272060785
3437, 2, 0.0133114876
3439, 2, 0.028425689
3440, 2, 0.0281291089
3441, 2, 0.0242446899
3442, 2, 0.0141918975
3443, 2, 0.0283830684
3444, 2, 0.0242721539
3457, 2, 0.00994951977
3460, 2, 0.00987089272
3465, 2, 0.00994951977
3466, 2, 0.0199714139
3472, 2, 0.0198927868
3473, 2, 0.00987089272
3480, 2, 0.010080983
3481, 2, 0.0200222914
3482, 2, 0.0202914074
3483, 2, 0.010350099
3484, 2, 0.0199632025
3515, 2, 0.0163024382
3532, 2, 0.0259384383
3533, 2, 0.0128010171
3535, 2, 0.0307967197
3536, 2, 0.0276317028
3537, 2, 0.0231167422
3538, 2, 0.0343436435
3549, 2, 0.0155924304
3551, 2, 0.0155924304
3553, 2, 0.0255136917
3560, 2, 0.0201541475
3561, 2, 0.0203686818
3562, 2, 0.0103893608
3564, 2, 0.0197375498
3567, 2, 0.0180412054
3568, 2, 0.0282160318
3571, 2, 0.0200960877
3572, 2, 0.0192694503
3575, 2, 0.00934818898
3576, 2, 0.0358697488
3577, 2, 0.0539342695
3578, 2, 0.0543521482
3579, 2, 0.0362876275
3594, 2, 0.0352026854
3601, 2, 0.036216452
3602, 2, 0.0541140815
3603, 2, 0.0531003149
3609, 2, 0.0352944206
3610, 2, 0.0352944206
3633, 2, 0.21792443
3634, 2, 0.221730391
3635, 2, 0.218017454
3636, 2, 0.216458378
3637, 2, 0.219708423
3638, 2, 0.219623787
3639, 2, 0.217126163
*NODE FILE
U
*EL FILE
S
*END STEP
