*NODE, NSET=NALL
1, 28.5569594, -18.9740938, -9.5
2, 28.5569594, -18.9740938, 9.5
3, 28, -19, 9.5
4, 28, -19, -9.5
5, 29.1091091, -18.8965988, -9.5
6, 29.1091091, -18.8965988, 9.5
7, 29.6516813, -18.7681842, -9.5
8, 29.6516813, -18.7681842, 9.5
9, 30.1799905, -18.589959, -9.5
10, 30.1799905, -18.589959, 9.5
11, 30.6894746, -18.3634621, -9.5
12, 30.6894746, -18.3634621, 9.5
13, 31.175734, -18.0906496, -9.5
14, 31.175734, -18.0906496, 9.5
15, 31.6345696, -17.7738772, -9.5
16, 31.6345696, -17.7738772, 9.5
17, 32.0620192, -17.4158804, -9.5
18, 32.0620192, -17.4158804, 9.5
19, 32.4543916, -17.0197507, -9.5
20, 32.4543916, -17.0197507, 9.5
21, 32.8082985, -16.5889087, -9.5
22, 32.8082985, -16.5889087, 9.5
23, 33.1206837, -16.1270751, -9.5
24, 33.1206837, -16.1270751, 9.5
25, 33.3888497, -15.6382378, -9.5
26, 33.3888497, -15.6382378, 9.5
27, 33.6104808, -15.1266183, -9.5
28, 33.6104808, -15.1266183, 9.5
29, 33.783663, -14.5966346, -9.5
30, 33.783663, -14.5966346, 9.5
31, 33.906901, -14.0528632, -9.5
32, 33.906901, -14.0528632, 9.5
33, 33.9791304, -13.5, -9.5
34, 33.9791304, -13.5, 9.5
35, 34, -13.5, -9.5
36, 34, -13.5, 9.5
37, 34, 1.52771652e-15, -9.5
38, 34, 1.23999883, -9.41872618
39, 34, 2.45878093, -9.17629535
40, 34, 3.63549261, -8.77685556
41, 34, 4.75, -8.22724134
42, 34, 5.78323358, -7.53685673
43, 34, 6.71751442, -6.71751442
44, 34, 7.53685673, -5.78323358
45, 34, 8.22724134, -4.75
46, 34, 8.77685556, -3.63549261
47, 34, 9.17629535, -2.45878093
48, 34, 9.41872618, -1.23999883
49, 34, 9.5, -1.16341446e-15
50, 34, 9.41872618, 1.23999883
51, 34, 9.17629535, 2.45878093
52, 34, 8.77685556, 3.63549261
53, 34, 8.22724134, 4.75
54, 34, 7.53685673, 5.78323358
55, 34, 6.71751442, 6.71751442
56, 34, 5.78323358, 7.53685673
57, 34, 4.75, 8.22724134
58, 34, 3.63549261, 8.77685556
59, 34, 2.45878093, 9.17629535
60, 34, 1.23999883, 9.41872618
61, 34, -3.64302058e-16, 9.5
62, 34, -4.6291649e-16, -3.39
63, 34, -6, 2.61
64, 34, 6, 2.61
65, 34, 1.00665967e-15, 8.61
66, 37.99, -3.39435072e-13, -9.5
67, 37.99, 1.23999883, -9.41872618
68, 37.99, 2.45878093, -9.17629535
69, 38, -3.64302058e-16, 9.5
70, 38.5, 2.32682892e-15, 9.5
71, 38, 1.52771652e-15, -9.5
72, 37.99, 3.63549261, -8.77685556
73, 37.99, 4.75, -8.22724134
74, 37.99, 5.78323358, -7.53685673
75, 37.99, 6.71751442, -6.71751442
76, 37.99, 7.53685673, -5.78323358
77, 37.99, 8.22724134, -4.75
78, 37.99, 8.77685556, -3.63549261
79, 37.99, 9.17629535, -2.45878093
80, 37.99, 9.41872618, -1.23999883
81, 37.99, 9.5, 1.66856653e-13
82, 37.99, 9.41872618, 1.23999883
83, 37.99, 9.17629535, 2.45878093
84, 37.99, 8.77685556, 3.63549261
85, 37.99, 8.22724134, 4.75
86, 37.99, 7.53685673, 5.78323358
87, 37.99, 6.71751442, 6.71751442
88, 37.99, 5.78323358, 7.53685673
89, 37.99, 4.75, 8.22724134
90, 37.99, 3.63549261, 8.77685556
91, 37.99, 2.45878093, 9.17629535
92, 37.99, 1.23999883, 9.41872618
93, 37.99, 2.32682892e-15, 9.5
94, 38.5, 1.95943488e-15, 8
95, 34.55, -4.6291649e-16, -3.39
96, 34.55, -6, 2.61
97, 34.55, 6, 2.61
98, 34.55, 1.00665967e-15, 8.61
99, 40.45, 1.95943488e-15, 8
100, 34.55, -5.09453068e-16, -3.58
101, 34.55, -6, 2.42
102, 34.55, 6, 2.42
103, 34.55, 9.60123091e-16, 8.42
104, 40.45, 6, 1.2
105, 40.45, -8.08266887e-16, -4.8
106, 40.45, 7.34788079e-16, 3
107, 40.45, 6.61309272e-16, 7.2
108, 40.45, -6, 1.2
109, 37.5, -5.09453068e-16, -3.58
110, 37.5, -6, 2.42
111, 37.5, 6, 2.42
112, 37.5, 9.60123091e-16, 8.42
113, 37.5, 6, 1.2
114, 37.5, -8.08266887e-16, -4.8
115, 38.5, 7.34788079e-16, 3
116, 37.5, 6.61309272e-16, 7.2
117, 37.5, -6, 1.2
118, 38, -13.5, -9.5
119, 37.9614778, -14.2841371, -9.5
120, 37.8462822, -15.0607226, -9.5
121, 37.6555227, -15.8222774, -9.5
122, 37.3910363, -16.5614675, -9.5
123, 37.0553701, -17.2711739, -9.5
124, 36.6517569, -17.9445619, -9.5
125, 36.1840836, -18.5751463, -9.5
126, 35.6568542, -19.1568542, -9.5
127, 35.0751463, -19.6840836, -9.5
128, 34.4445619, -20.1517569, -9.5
129, 34, -20.418217, -9.5
130, 34, -21.5, -9.5
131, 17.5, -21.5, -9.5
132, 17.5, -19.01, -9.5
133, 17.5, -19, -9.5
134, 17.5, -19, 9.5
135, 17.5, -18.5, 9.5
136, 25.5777472, -19, 5
137, 25.5777472, -19, -5
138, 16.2600012, -19.01, -9.41872618
139, 15.0412191, -19.01, -9.17629535
140, 13.8645074, -19.01, -8.77685556
141, 12.75, -19.01, -8.22724134
142, 11.7167664, -19.01, -7.53685673
143, 10.7824856, -19.01, -6.71751442
144, 9.96314327, -19.01, -5.78323358
145, 9.27275866, -19.01, -4.75
146, 8.72314444, -19.01, -3.63549261
147, 8.32370465, -19.01, -2.45878093
148, 8.08127382, -19.01, -1.23999883
149, 8, -19.01, -1.22853825e-13
150, 8.08127382, -19.01, 1.23999883
151, 8.32370465, -19.01, 2.45878093
152, 8.72314444, -19.01, 3.63549261
153, 9.27275866, -19.01, 4.75
154, 9.96314327, -19.01, 5.78323358
155, 10.7824856, -19.01, 6.71751442
156, 11.7167664, -19.01, 7.53685673
157, 12.75, -19.01, 8.22724134
158, 13.8645074, -19.01, 8.77685556
159, 15.0412191, -19.01, 9.17629535
160, 16.2600012, -19.01, 9.41872618
161, 17.5, -19.01, 9.5
162, 16.2600012, -21.5, 9.41872618
163, 17.5, -21.5, 9.5
164, 15.0412191, -21.5, 9.17629535
165, 13.8645074, -21.5, 8.77685556
166, 12.75, -21.5, 8.22724134
167, 11.7167664, -21.5, 7.53685673
168, 10.7824856, -21.5, 6.71751442
169, 9.96314327, -21.5, 5.78323358
170, 9.27275866, -21.5, 4.75
171, 8.72314444, -21.5, 3.63549261
172, 8.32370465, -21.5, 2.45878093
173, 8.08127382, -21.5, 1.23999883
174, 8, -21.5, 2.38929922e-15
175, 8.08127382, -21.5, -1.23999883
176, 8.32370465, -21.5, -2.45878093
177, 8.72314444, -21.5, -3.63549261
178, 9.27275866, -21.5, -4.75
179, 9.96314327, -21.5, -5.78323358
180, 10.7824856, -21.5, -6.71751442
181, 11.7167664, -21.5, -7.53685673
182, 12.75, -21.5, -8.22724134
183, 13.8645074, -21.5, -8.77685556
184, 15.0412191, -21.5, -9.17629535
185, 16.2600012, -21.5, -9.41872618
186, 17.5, -18.5, 8
187, 17.5, -16.55, 8
188, 36.1840836, -18.5751463, -5
189, 36, -18.7782513, -5
190, 36, -21.5, -5
191, 19.7037241, -21.5, -5
192, 19.7037241, -24, -5
193, 33, -24, -5
194, 33.441018, -23.9771282, -5
195, 33.8287211, -23.9147499, -5
196, 34.2084432, -23.8146704, -5
197, 34.5765273, -23.6778536, -5
198, 34.9294286, -23.505617, -5
199, 35.2637484, -23.2996195, -5
200, 35.5762671, -23.0618447, -5
201, 35.863975, -22.7945828, -5
202, 36.1241011, -22.5004075, -5
203, 36.3541405, -22.1821519, -5
204, 36.5518777, -21.8428809, -5
205, 36.7154084, -21.4858621, -5
206, 36.8431576, -21.1145335, -5
207, 36.9338951, -20.7324714, -5
208, 36.9867471, -20.3433552, -5
209, 37.0012045, -19.9509323, -5
210, 37, -17.3635534, -5
211, 36.6517569, -17.9445619, -5
212, 35.6568542, -19.1568542, -5.02965714
213, 37.0553701, -17.2711739, -4.9984659
214, 38, -20, -4
215, 38, -13.5, -4
216, 37.3910363, -16.5614675, -4.92037527
217, 37.6555227, -15.8222774, -4.75517548
218, 37.8462822, -15.0607226, -4.5327348
219, 37.9614778, -14.2841371, -4.27488255
220, 37.9759236, -20.4900857, -4
221, 37.9039264, -20.9754516, -4
222, 37.7847017, -21.4514234, -4
223, 37.6193977, -21.9134172, -4
224, 37.4096063, -22.3569837, -4
225, 37.1573481, -22.7778512, -4
226, 36.8650523, -23.1719664, -4
227, 36.5355339, -23.5355339, -4
228, 36.1719664, -23.8650523, -4
229, 35.7778512, -24.1573481, -4
230, 35.3569837, -24.4096063, -4
231, 34.9134172, -24.6193977, -4
232, 34.4514234, -24.7847017, -4
233, 33.9754516, -24.9039264, -4
234, 33.4900857, -24.9759236, -4
235, 33, -25, -4
236, 18.8624977, -25, -4
237, 17.5, -25, -3.58
238, 17.5, -19.5, -3.58
239, 15.5327527, -21.5, -4.59062488
240, 15.5327527, -24, -4.59062488
241, 15.6712066, -24.6258638, -4.41509794
242, 16.4289364, -25, -3.82992561
243, 35.0751463, -19.6840836, -5.22668514
244, 34.4445619, -20.1517569, -5.74277599
245, 34, -20.418217, -7
246, 34, -21.5, -7
247, 37.9759236, -20.4900857, 4
248, 38, -20, 4
249, 37.9039264, -20.9754516, 4
250, 37.7847017, -21.4514234, 4
251, 37.6193977, -21.9134172, 4
252, 37.4096063, -22.3569837, 4
253, 37.1573481, -22.7778512, 4
254, 36.8650523, -23.1719664, 4
255, 36.5355339, -23.5355339, 4
256, 36.1719664, -23.8650523, 4
257, 35.7778512, -24.1573481, 4
258, 35.3569837, -24.4096063, 4
259, 34.9134172, -24.6193977, 4
260, 34.4514234, -24.7847017, 4
261, 33.9754516, -24.9039264, 4
262, 33.4900857, -24.9759236, 4
263, 33, -25, 4
264, 15.9711179, -25, -3.69104787
265, 15.2804072, -25, -3.32185532
266, 14.6749943, -25, -2.82500574
267, 14.1781447, -25, -2.21959277
268, 13.8089521, -25, -1.52888209
269, 13.6700744, -25, -1.07106355
270, 13.6700744, -25, 1.07106355
271, 13.8089521, -25, 1.52888209
272, 14.1781447, -25, 2.21959277
273, 14.6749943, -25, 2.82500574
274, 15.2804072, -25, 3.32185532
275, 15.9711179, -25, 3.69104787
276, 16.4289364, -25, 3.82992561
277, 18.8624977, -25, 4
278, 23.5, -25, 2.42
279, 14.7221488, -24, -4.15734806
280, 14.7221488, -21.5, -4.15734806
281, 17.5, -19.5, -4.8
282, 13.9644661, -24, -3.53553391
283, 13.9644661, -21.5, -3.53553391
284, 13.3426519, -24, -2.77785117
285, 13.3426519, -21.5, -2.77785117
286, 12.9093751, -24, -1.96724726
287, 12.9093751, -21.5, -1.96724726
288, 11.5, -21.5, 2.42
289, 11.5, -19.5, 2.42
290, 12.9093751, -21.5, 1.96724726
291, 12.9093751, -24, 1.96724726
292, 13.0849021, -24.6258638, 1.82879345
293, 13.0849021, -24.6258638, -1.82879345
294, 13.3426519, -24, 2.77785117
295, 13.3426519, -21.5, 2.77785117
296, 13.9644661, -24, 3.53553391
297, 13.9644661, -21.5, 3.53553391
298, 14.7221488, -24, 4.15734806
299, 14.7221488, -21.5, 4.15734806
300, 15.5327527, -24, 4.59062488
301, 15.5327527, -21.5, 4.59062488
302, 17.5, -21.5, 8.42
303, 17.5, -19.5, 8.42
304, 19.7037241, -21.5, 5
305, 19.7037241, -24, 5
306, 15.6712066, -24.6258638, 4.41509794
307, 36.1840836, -18.5751463, 5
308, 36, -18.7782513, 5
309, 36, -21.5, 5
310, 33, -24, 5
311, 33.441018, -23.9771282, 5
312, 33.8287211, -23.9147499, 5
313, 34.2084432, -23.8146704, 5
314, 34.5765273, -23.6778536, 5
315, 34.9294286, -23.505617, 5
316, 35.2637484, -23.2996195, 5
317, 35.5762671, -23.0618447, 5
318, 35.863975, -22.7945828, 5
319, 36.1241011, -22.5004075, 5
320, 36.3541405, -22.1821519, 5
321, 36.5518777, -21.8428809, 5
322, 36.7154084, -21.4858621, 5
323, 36.8431576, -21.1145335, 5
324, 36.9338951, -20.7324714, 5
325, 36.9867471, -20.3433552, 5
326, 37.0012045, -19.9509323, 5
327, 37, -17.3635534, 5
328, 36.6517569, -17.9445619, 5
329, 37.9614778, -14.2841371, 4.27488255
330, 38, -13.5, 4
331, 37.8462822, -15.0607226, 4.5327348
332, 37.6555227, -15.8222774, 4.75517548
333, 37.3910363, -16.5614675, 4.92037527
334, 37.0553701, -17.2711739, 4.9984659
335, 23.5, -19.5, 2.42
336, 17.5, -16.55, -4.8
337, 11.5, -19.5, 1.2
338, 17.5, -19.5, 7.2
339, 35.6568542, -19.1568542, 5.02965714
340, 35.6568542, -19.1568542, 9.5
341, 36.1840836, -18.5751463, 9.5
342, 36.6517569, -17.9445619, 9.5
343, 37.0553701, -17.2711739, 9.5
344, 34, -21.5, 7
345, 34, -20.418217, 7
346, 34.4445619, -20.1517569, 5.74277599
347, 35.0751463, -19.6840836, 5.22668514
348, 34, -21.5, 9.5
349, 34, -20.418217, 9.5
350, 37.9614778, -14.2841371, 9.5
351, 38, -13.5, 9.5
352, 37.8462822, -15.0607226, 9.5
353, 37.6555227, -15.8222774, 9.5
354, 37.3910363, -16.5614675, 9.5
355, 23.5, -19.5, 1.2
356, 11.5, -16.55, 1.2
357, 17.5, -16.55, 3
358, 17.5, -16.55, 7.2
359, 23.5, -16.55, 1.2
360, 35.0751463, -19.6840836, 9.5
361, 34.4445619, -20.1517569, 9.5
362, 17.5, -18.5, 3
363, 28.5569594, -18.9740938, -4.75027369
364, 28.5569594, -18.9740938, 0.00107514912
365, 28.5569594, -18.9740938, 4.74963809
366, 28.5569594, -18.9740938, -7.12470343
367, 28.5569594, -18.9740938, -2.37404379
368, 28.5569594, -18.9740938, 2.37502282
369, 28.5569594, -18.9740938, 7.12499937
370, 28.2784461, -18.9870484, 9.5
371, 28, -19, -4.74989212
372, 28, -19, -0.00327982754
373, 28, -19, 4.75
374, 28, -19, -7.12548842
375, 28, -19, -2.3743314
376, 28, -19, 2.37628325
377, 28, -19, 7.12546404
378, 28.2782448, -18.9870578, -9.5
379, 29.1091091, -18.8965988, -4.74852182
380, 29.1091091, -18.8965988, -0.000182540085
381, 29.1091091, -18.8965988, 4.75010938
382, 29.1091091, -18.8965988, -7.12498789
383, 29.1091091, -18.8965988, -2.37517509
384, 29.1091091, -18.8965988, 2.37485115
385, 29.1091091, -18.8965988, 7.12497111
386, 28.8329086, -18.9353639, 9.5
387, 28.8330443, -18.9353448, -9.5
388, 29.6516813, -18.7681842, -4.75004134
389, 29.6516813, -18.7681842, -0.000335117687
390, 29.6516813, -18.7681842, 4.74862271
391, 29.6516813, -18.7681842, -7.12497763
392, 29.6516813, -18.7681842, -2.37414228
393, 29.6516813, -18.7681842, 2.37488475
394, 29.6516813, -18.7681842, 7.12518692
395, 29.3804742, -18.8323728, 9.5
396, 29.3803952, -18.8323915, -9.5
397, 30.1799905, -18.589959, -4.75002053
398, 30.1799905, -18.589959, -0.000976970355
399, 30.1799905, -18.589959, 4.75068561
400, 30.1799905, -18.589959, -7.12496597
401, 30.1799905, -18.589959, -2.37448287
402, 30.1799905, -18.589959, 2.37475446
403, 30.1799905, -18.589959, 7.12515808
404, 29.915829, -18.6790739, 9.5
405, 29.9157915, -18.6790866, -9.5
406, 30.6894746, -18.3634621, -4.74987639
407, 30.6894746, -18.3634621, 0.000149929948
408, 30.6894746, -18.3634621, 4.75
409, 30.6894746, -18.3634621, -7.12498753
410, 30.6894746, -18.3634621, -2.37505512
411, 30.6894746, -18.3634621, 2.37472102
412, 30.6894746, -18.3634621, 7.125
413, 30.4347326, -18.4767106, 9.5
414, 30.4347326, -18.4767106, -9.5
415, 31.175734, -18.0906496, -4.7499216
416, 31.175734, -18.0906496, 0.000202121817
417, 31.175734, -18.0906496, 4.75
418, 31.175734, -18.0906496, -7.12504218
419, 31.175734, -18.0906496, -2.37505333
420, 31.175734, -18.0906496, 2.37465673
421, 31.175734, -18.0906496, 7.125
422, 30.9326043, -18.2270559, 9.5
423, 30.9326043, -18.2270559, -9.5
424, 31.6345696, -17.7738772, -4.74992222
425, 31.6345696, -17.7738772, -1.95239627e-05
426, 31.6345696, -17.7738772, 4.75
427, 31.6345696, -17.7738772, -7.1249964
428, 31.6345696, -17.7738772, -2.37501115
429, 31.6345696, -17.7738772, 2.37506288
430, 31.6345696, -17.7738772, 7.12516814
431, 31.4051518, -17.9322634, 9.5
432, 31.4051518, -17.9322634, -9.5
433, 32.0620192, -17.4158804, -4.75005499
434, 32.0620192, -17.4158804, -9.82083515e-06
435, 32.0620192, -17.4158804, 4.7500819
436, 32.0620192, -17.4158804, -7.12503957
437, 32.0620192, -17.4158804, -2.37500978
438, 32.0620192, -17.4158804, 2.37503343
439, 32.0620192, -17.4158804, 7.12527947
440, 31.8483015, -17.5948729, 9.5
441, 31.8482944, -17.5948788, -9.5
442, 32.4543916, -17.0197507, -4.75
443, 32.4543916, -17.0197507, -0.000115568505
444, 32.4543916, -17.0197507, 4.74997248
445, 32.4543916, -17.0197507, -7.125
446, 32.4543916, -17.0197507, -2.3749945
447, 32.4543916, -17.0197507, 2.37499728
448, 32.4543916, -17.0197507, 7.12494188
449, 32.2582054, -17.2178156, 9.5
450, 32.2582054, -17.2178156, -9.5
451, 32.8082985, -16.5889087, -4.75
452, 32.8082985, -16.5889087, 0.000382627799
453, 32.8082985, -16.5889087, 4.75
454, 32.8082985, -16.5889087, -7.125
455, 32.8082985, -16.5889087, -2.37469351
456, 32.8082985, -16.5889087, 2.37441476
457, 32.8082985, -16.5889087, 7.125
458, 32.631345, -16.8043297, 9.5
459, 32.631345, -16.8043297, -9.5
460, 33.1206837, -16.1270751, -4.74932656
461, 33.1206837, -16.1270751, 0.000123303269
462, 33.1206837, -16.1270751, 4.75
463, 33.1206837, -16.1270751, -7.12497184
464, 33.1206837, -16.1270751, -2.37558304
465, 33.1206837, -16.1270751, 2.37549638
466, 33.1206837, -16.1270751, 7.125
467, 32.9644911, -16.3579919, 9.5
468, 32.9644911, -16.3579919, -9.5
469, 33.3888497, -15.6382378, -4.750728
470, 33.3888497, -15.6382378, 0.000284071534
471, 33.3888497, -15.6382378, 4.74626193
472, 33.3888497, -15.6382378, -7.1250943
473, 33.3888497, -15.6382378, -2.37540051
474, 33.3888497, -15.6382378, 2.37608166
475, 33.3888497, -15.6382378, 7.12493979
476, 33.2547598, -15.8826689, 9.5
477, 33.2547667, -15.8826565, -9.5
478, 33.6104808, -15.1266183, -4.7489151
479, 33.6104808, -15.1266183, 5.92355404e-05
480, 33.6104808, -15.1266183, 4.75148108
481, 33.6104808, -15.1266183, -7.12502084
482, 33.6104808, -15.1266183, -2.37504825
483, 33.6104808, -15.1266183, 2.37519151
484, 33.6104808, -15.1266183, 7.1249739
485, 33.4996542, -15.3824535, 9.5
486, 33.4996589, -15.3824428, -9.5
487, 33.783663, -14.5966346, -4.75
488, 33.783663, -14.5966346, 3.6467251e-05
489, 33.783663, -14.5966346, 4.74983946
490, 33.783663, -14.5966346, -7.125
491, 33.783663, -14.5966346, -2.3752031
492, 33.783663, -14.5966346, 2.37509266
493, 33.783663, -14.5966346, 7.1251005
494, 33.6970719, -14.8616265, 9.5
495, 33.6970719, -14.8616265, -9.5
496, 33.906901, -14.0528632, -4.75
497, 33.906901, -14.0528632, -1.05830631e-05
498, 33.906901, -14.0528632, 4.75
499, 33.906901, -14.0528632, -7.12511447
500, 33.906901, -14.0528632, -2.37496488
501, 33.906901, -14.0528632, 2.37508384
502, 33.906901, -14.0528632, 7.12531854
503, 33.845282, -14.3247489, 9.5
504, 33.8452706, -14.324799, -9.5
505, 33.9791304, -13.5, -4.75
506, 33.9791304, -13.5, 1.27819944e-05
507, 33.9791304, -13.5, 4.75
508, 33.9791304, -13.5, -7.125
509, 33.9791304, -13.5, -2.37501105
510, 33.9791304, -13.5, 2.37496857
511, 33.9791304, -13.5, 7.125
512, 33.9430209, -13.7763913, 9.5
513, 33.9430157, -13.7764316, -9.5
514, 33.9895652, -13.5, -9.5
515, 34, -13.5, 4.75
516, 34, -13.5, 0.00116286569
517, 34, -13.5, -4.75
518, 34, -13.5, 7.125
519, 34, -13.5, 2.37361467
520, 34, -13.5, -2.37622504
521, 34, -13.5, -7.125
522, 33.9895671, -13.5, 9.5
523, 34, -9, -9.5
524, 34, -4.5, -9.5
525, 34, -11.25, -9.5
526, 34, -6.75, -9.5
527, 34, -2.25055189, -9.5
528, 34, 0.619999413, -9.45936309
529, 34, 1.84938988, -9.29751077
530, 34, 3.04783206, -8.97633943
531, 34, 4.19338078, -8.50173556
532, 34, 5.26661679, -7.88204903
533, 34, 6.250374, -7.12718558
534, 34, 7.12718558, -6.250374
535, 34, 7.8818449, -5.2669223
536, 34, 8.50170135, -4.19345015
537, 34, 8.97506845, -3.05157626
538, 34, 9.30294703, -1.82205993
539, 34, 9.45891489, -0.626837579
540, 34, 9.46177943, 0.583133262
541, 34, 9.2947065, 1.86348785
542, 34, 8.97556633, 3.05010956
543, 34, 8.50138135, 4.19409905
544, 34, 7.88131039, 5.26772225
545, 34, 7.12721372, 6.2503419
546, 34, 6.25061397, 7.12697513
547, 34, 5.26686493, 7.88188323
548, 34, 4.1924834, 8.5021781
549, 34, 3.04713677, 8.97657545
550, 34, 1.86374618, 9.29465512
551, 34, 0.591517813, 9.46122987
552, 34, -4.49271096, 9.5
553, 34, -8.99992023, 9.5
554, 34, -2.26847948, 9.5
555, 34, -6.75002015, 9.5
556, 34, -11.2502544, 9.5
557, 34, -2.04058017, -4.37269162
558, 34, -2.54456185, -6.58077964
559, 34, -1.13243656, -8.35152875
560, 34, 1.13243656, -8.35152875
561, 34, 2.54456185, -6.58077964
562, 34, 2.04058017, -4.37269162
563, 34, -1.13243656, -3.64847125
564, 34, -2.54456185, -5.41922036
565, 34, -2.02076455, -7.65185067
566, 34, 1.71233505e-14, -8.61
567, 34, 2.04058017, -7.62730838
568, 34, 2.54456185, -5.41922036
569, 34, 1.14356025, -3.65386063
570, 34, -8.03641798, 1.63251395
571, 34, -8.54646791, -0.572364566
572, 34, -7.14467707, -2.34559468
573, 34, -4.86756344, -2.35152875
574, 34, -3.45543815, -0.580779638
575, 34, -3.95761962, 1.62504843
576, 34, -7.13562278, 2.34999168
577, 34, -8.54589341, 0.57491457
578, 34, -8.02767988, -1.64335459
579, 34, -5.99975291, -2.60999999
580, 34, -3.96715739, -1.63696394
581, 34, -3.45516539, 0.579583289
582, 34, -4.86850417, 2.35198155
583, 34, 3.95941983, 1.62730838
584, 34, 3.45543815, -0.580779638
585, 34, 4.86868176, -2.35206697
586, 34, 7.14542727, -2.34522843
587, 34, 8.54409435, -0.582824108
588, 34, 8.04422375, 1.62272895
589, 34, 4.86756344, 2.35152875
590, 34, 3.45566364, 0.581766688
591, 34, 3.96008769, -1.6281455
592, 34, 5.99454122, -2.60999429
593, 34, 8.03386449, -1.63569412
594, 34, 8.54185252, 0.592524904
595, 34, 7.13336833, 2.3510798
596, 34, -2.03981715, 7.62826471
597, 34, -2.54456185, 5.41922036
598, 34, -1.13243656, 3.64847125
599, 34, 1.13243656, 3.64847125
600, 34, 2.54456185, 5.41922036
601, 34, 2.04058017, 7.62730838
602, 34, -1.10114171, 8.36634464
603, 34, -2.54480329, 6.57972083
604, 34, -2.02676992, 4.35552328
605, 34, 1.85929266e-14, 3.39
606, 34, 2.03415271, 4.36466433
607, 34, 2.54456185, 6.58077964
608, 34, 1.13243656, 8.35152875
609, 35.9944196, 1.52771652e-15, -9.5
610, 37.99, 0.612525592, -9.45985295
611, 37.99, 0.29511824, -9.48065693
612, 37.99, 0.929050666, -9.4391068
613, 35.9914789, 1.23999883, -9.41872618
614, 37.99, 1.84715235, -9.29795584
615, 37.99, 1.52425128, -9.36218486
616, 37.99, 2.16416527, -9.23489805
617, 35.9912155, 2.45878093, -9.17629535
618, 37.99, 0.625273093, -9.47940049
619, 37.99, 0.20668144, -9.49775146
620, 37.99, 0.999521074, -9.4472725
621, 38.2470993, 2.32682892e-15, 9.5
622, 38.5, -4.74629009, 8.22938214
623, 38.5, -8.2229847, 4.75736509
624, 38.5, -9.5, 0.000173684837
625, 38.5, -8.22663932, -4.75104256
626, 38.5, -4.74841237, -8.22815775
627, 38.5, 0.00600223136, -9.4999981
628, 38.5, 4.73745895, -8.23446918
629, 38.5, 8.22312886, -4.75711591
630, 38.5, 9.49999985, 0.00171343488
631, 38.5, 8.21895252, 4.76432781
632, 38.5, 4.75, 8.22724134
633, 38.5, -2.46996567, 9.1732911
634, 38.5, -6.72194292, 6.713083
635, 38.5, -9.17652011, 2.45794196
636, 38.5, -9.17614287, -2.45934991
637, 38.5, -6.72154773, -6.71347869
638, 38.5, -2.4692682, -9.17347887
639, 38.5, 2.47194274, -9.17275853
640, 38.5, 6.72439775, -6.71062403
641, 38.5, 9.17704153, -2.45599444
642, 38.5, 9.17664039, 2.45749287
643, 38.5, 6.72209166, 6.71293406
644, 38.5, 2.46874291, 9.17362025
645, 38, -4.69231083, 8.2602796
646, 38, -8.22184732, 4.75933048
647, 38, -9.49999974, 0.00221862735
648, 38, -8.23225888, -4.74129874
649, 38, -4.69632347, -8.2579989
650, 38, -2.63324923, 9.12775977
651, 38, -6.71112136, 6.7239014
652, 38, -9.17853764, 2.45039728
653, 38, -9.17757441, -2.45400242
654, 38, -6.7118853, -6.72313883
655, 38, -2.63052716, -9.12854462
656, 37.9952262, 1.52771652e-15, -9.5
657, 37.99, 1.85201306, -9.3177276
658, 37.99, 1.52027452, -9.37756714
659, 37.99, 2.20300112, -9.24103815
660, 37.99, 3.05920894, -8.99395579
661, 37.99, 2.70665187, -9.10626354
662, 37.99, 3.3686223, -8.88270138
663, 37.99, 4.20010283, -8.52109947
664, 37.99, 3.85328275, -8.68344471
665, 37.99, 4.53840223, -8.34583161
666, 37.99, 5.27983195, -7.8976816
667, 37.99, 4.95724488, -8.10405597
668, 37.99, 5.59547542, -7.67728173
669, 37.99, 6.25548738, -7.14974668
670, 37.99, 6.00538683, -7.36106847
671, 37.99, 6.53137863, -6.8986298
672, 37.99, 7.14610633, -6.2596457
673, 37.99, 6.90361846, -6.52610544
674, 37.99, 7.36509646, -6.00044616
675, 37.99, 7.89779351, -5.27966455
676, 37.99, 7.67364767, -5.60045815
677, 37.99, 8.10518423, -4.95539995
678, 37.99, 8.52123647, -4.19982487
679, 37.99, 8.34383604, -4.54207003
680, 37.99, 8.6851971, -3.84933128
681, 37.99, 8.99493927, -3.05631601
682, 37.99, 8.88029249, -3.37496746
683, 37.99, 9.10431052, -2.71321395
684, 37.99, 9.31817752, -1.84974801
685, 37.99, 9.24110627, -2.20271535
686, 37.99, 9.37839368, -1.51516731
687, 37.99, 9.47970195, -0.620685813
688, 37.99, 9.44621275, -1.00948738
689, 37.99, 9.4970618, -0.236256628
690, 37.99, 9.4796599, 0.621327767
691, 37.99, 9.49691002, 0.24228097
692, 37.99, 9.44670202, 1.00489851
693, 37.99, 9.31806267, 1.85032647
694, 37.99, 9.37709856, 1.52316206
695, 37.99, 9.23873721, 2.21263073
696, 37.99, 8.99484775, 3.05658535
697, 37.99, 9.103569, 2.71570092
698, 37.99, 8.87980217, 3.37625731
699, 37.99, 8.52022732, 4.20187178
700, 37.99, 8.68435642, 3.85122754
701, 37.99, 8.34300424, 4.54359773
702, 37.99, 7.898012, 5.27933769
703, 37.99, 8.10412634, 4.95712985
704, 37.99, 7.67864425, 5.5936055
705, 37.99, 7.13961008, 6.26705417
706, 37.99, 7.35534651, 6.01239368
707, 37.99, 6.88274095, 6.54812011
708, 37.99, 6.26378524, 7.14247817
709, 37.99, 6.51941599, 6.90993597
710, 37.99, 6.0267362, 7.34359931
711, 37.99, 5.27791721, 7.89896132
712, 37.99, 5.53353812, 7.7220435
713, 37.99, 5.01664458, 8.06742072
714, 37.99, 4.20174256, 8.52029104
715, 37.99, 4.478269, 8.37825201
716, 37.99, 3.92071678, 8.65320634
717, 37.99, 3.05367492, 8.99583623
718, 37.99, 3.34637546, 8.8911063
719, 37.99, 2.75770443, 9.09093319
720, 37.99, 1.84942649, 9.31824134
721, 37.99, 2.20446624, 9.24068875
722, 37.99, 1.52052312, 9.37752683
723, 37.99, 0.626503808, 9.47931923
724, 37.99, 0.99965495, 9.44725833
725, 37.99, 0.214352415, 9.49758143
726, 37.9951215, -3.64302058e-16, 9.5
727, 37.99, 0.591667297, 9.46122008
728, 37.99, 0.925854858, 9.43931627
729, 37.99, 0.287815459, 9.48113558
730, 37.99, 1.84886077, 9.29761601
731, 37.99, 2.16557504, 9.23461763
732, 37.99, 1.52789197, 9.36146068
733, 37.99, 3.04713677, 8.97657545
734, 37.99, 3.34131469, 8.87671551
735, 37.99, 2.75295885, 9.0764354
736, 37.99, 4.1927463, 8.50204845
737, 37.99, 4.47137315, 8.36464489
738, 37.99, 3.91411946, 8.639452
739, 37.99, 5.26661679, 7.88204903
740, 37.99, 5.52492518, 7.70945288
741, 37.99, 5.00830839, 8.05464519
742, 37.99, 6.250374, 7.12718558
743, 37.99, 6.49975101, 6.9084878
744, 37.99, 6.01680379, 7.33202115
745, 37.99, 7.1258088, 6.25194391
746, 37.99, 7.34275058, 6.00456922
747, 37.99, 6.91338321, 6.49416888
748, 37.99, 7.88598654, 5.2607239
749, 37.99, 8.06094325, 4.99888267
750, 37.99, 7.7098468, 5.52433564
751, 37.99, 8.50463834, 4.18749453
752, 37.99, 8.64263469, 3.9076656
753, 37.99, 8.36302832, 4.47465124
754, 37.99, 8.97541089, 3.05056745
755, 37.99, 9.08006851, 2.74225606
756, 37.99, 8.86929635, 3.36317081
757, 37.99, 9.29678255, 1.85305087
758, 37.99, 9.36096208, 1.53039856
759, 37.99, 9.23385187, 2.16942479
760, 37.99, 9.45971867, 0.614574277
761, 37.99, 9.48042834, 0.298605856
762, 37.99, 9.43887483, 0.93258983
763, 37.99, 9.45945787, -0.618553416
764, 37.99, 9.43878575, -0.933948907
765, 37.99, 9.48013945, -0.303013452
766, 37.99, 9.29921617, -1.84081622
767, 37.99, 9.23458848, -2.16572156
768, 37.99, 9.36253888, -1.52247149
769, 37.99, 8.97582782, -3.04933924
770, 37.99, 8.87045065, -3.35977036
771, 37.99, 9.07938617, -2.74426616
772, 37.99, 8.50117208, -4.1945234
773, 37.99, 8.36162626, -4.47749432
774, 37.99, 8.64090348, -3.91117616
775, 37.99, 7.88618205, -5.26043129
776, 37.99, 7.70822208, -5.5267672
777, 37.99, 8.0604557, -4.99961234
778, 37.99, 7.12718558, -6.250374
779, 37.99, 6.92235, -6.48394421
780, 37.99, 7.3427139, -6.00461105
781, 37.99, 6.250374, -7.12718558
782, 37.99, 6.01680379, -7.33202115
783, 37.99, 6.49215601, -6.91514844
784, 37.99, 5.25798089, -7.88781936
785, 37.99, 4.99851693, -8.06118763
786, 37.99, 5.5185672, -7.71370115
787, 37.99, 4.19936199, -8.49878595
788, 37.99, 3.91535156, -8.6388444
789, 37.99, 4.48331991, -8.3587534
790, 37.99, 3.04798199, -8.97628854
791, 37.99, 2.74021541, -9.08076122
792, 37.99, 3.35935724, -8.87059089
793, 38.5, -4.69810384, 6.47516952
794, 38.5, -7.60670225, 2.47751508
795, 38.5, -7.62846484, -2.40967303
796, 38.5, -4.69863926, -6.47478101
797, 38.5, 0.0102979986, -7.99999337
798, 38.5, 4.70228202, -6.47213595
799, 38.5, 7.61905862, -2.43925108
800, 38.5, 7.61473534, 2.45271396
801, 38.5, 4.70228202, 6.47213595
802, 38.5, -2.48766731, 7.60338815
803, 38.5, -6.47691678, 4.69569473
804, 38.5, -7.99990779, -0.0384103216
805, 38.5, -6.4793715, -4.692307
806, 38.5, -2.50132852, -7.5989049
807, 38.5, 2.5204412, -7.59258692
808, 38.5, 6.48693626, -4.68184344
809, 38.5, 7.99991038, -0.0378674128
810, 38.5, 6.4742736, 4.6993384
811, 38.5, 2.49544108, 7.60084033
812, 35.9905867, 3.63549261, -8.77685556
813, 35.9895412, 4.75, -8.22724134
814, 35.9889829, 1.23999883, 9.41872618
815, 35.9920569, -3.64302058e-16, 9.5
816, 35.9935705, 5.78323358, -7.53685673
817, 35.9948567, 2.45878093, 9.17629535
818, 35.995, 6.71751442, -6.71751442
819, 35.9943187, 3.63549261, 8.77685556
820, 35.9895944, 7.53685673, -5.78323358
821, 35.9967933, 4.75, 8.22724134
822, 35.9906103, 8.22724134, -4.75
823, 35.9949184, 5.78323358, 7.53685673
824, 35.9888125, 8.77685556, -3.63549261
825, 35.9900456, 6.71751442, 6.71751442
826, 35.9916821, 9.17629535, -2.45878093
827, 35.9920563, 7.53685673, 5.78323358
828, 35.978297, 9.41872618, -1.23999883
829, 35.9922241, 8.22724134, 4.75
830, 35.992345, 9.5, -1.60580392e-15
831, 35.9885701, 8.77685556, 3.63549261
832, 35.9915223, 9.41872618, 1.23999883
833, 35.9885332, 9.17629535, 2.45878093
834, 34.275, -4.6291649e-16, -3.39
835, 34.55, -2.04058017, -4.37269162
836, 34.55, -2.54456185, -6.58077964
837, 34.55, -1.13199075, -8.35174338
838, 34.55, 1.13243656, -8.35152875
839, 34.55, 2.54456185, -6.58077964
840, 34.55, 2.04058017, -4.37269162
841, 34.55, -1.11856918, -3.64184331
842, 34.55, -2.54456185, -5.41922036
843, 34.55, -2.05111672, -7.6140075
844, 34.55, 0.00867415434, -8.60998559
845, 34.55, 2.04058017, -7.62730838
846, 34.55, 2.54456185, -5.41922036
847, 34.55, 1.15423444, -3.65909358
848, 34.2742242, -6, 2.61
849, 34.55, -8.07333244, 1.58536829
850, 34.55, -8.54813165, -0.564911603
851, 34.55, -7.14021979, -2.34776465
852, 34.55, -4.86756344, -2.35152875
853, 34.55, -3.45543815, -0.580779638
854, 34.55, -3.9588317, 1.62657061
855, 34.55, -7.10245162, 2.36573465
856, 34.55, -8.54605355, 0.574204947
857, 34.55, -8.02671194, -1.64454818
858, 34.55, -6.00365874, -2.60999744
859, 34.55, -3.96673337, -1.63643723
860, 34.55, -3.45624382, 0.584298302
861, 34.55, -4.87113894, 2.35324727
862, 34.275, 6, 2.61
863, 34.55, 3.95941983, 1.62730838
864, 34.55, 3.45543815, -0.580779638
865, 34.55, 4.86615495, -2.35084993
866, 34.55, 7.13641269, -2.3496098
867, 34.55, 8.54498507, -0.57892228
868, 34.55, 8.04298277, 1.62429104
869, 34.55, 4.86756344, 2.35152875
870, 34.55, 3.45654685, 0.585615966
871, 34.55, 3.96084551, -1.62909453
872, 34.55, 6.00055665, -2.60999994
873, 34.55, 8.03793692, -1.6306174
874, 34.55, 8.53877627, 0.605570032
875, 34.55, 7.13035716, 2.352529
876, 34.275, 1.00665967e-15, 8.61
877, 34.55, -2.04450755, 7.62237137
878, 34.55, -2.54456185, 5.41922036
879, 34.55, -1.13243656, 3.64847125
880, 34.55, 1.13243656, 3.64847125
881, 34.55, 2.54456185, 5.41922036
882, 34.55, 2.04058017, 7.62730838
883, 34.55, -1.13088372, 8.35227592
884, 34.55, -2.54363765, 6.58481406
885, 34.55, -2.04058017, 4.37269162
886, 34.55, 1.85929266e-14, 3.39
887, 34.55, 2.04058017, 4.37269162
888, 34.55, 2.54456185, 6.58077964
889, 34.55, 1.13243656, 8.35152875
890, 39.4705818, 1.95943488e-15, 8
891, 40.45, -4.70890382, 6.46731976
892, 40.45, -7.62454598, 2.42204432
893, 40.45, -7.61630323, -2.44784089
894, 40.45, -4.70110108, -6.47299379
895, 40.45, -0.00115861754, -7.99999992
896, 40.45, 4.70229857, -6.47212393
897, 40.45, 7.6111152, -2.4639248
898, 40.45, 7.62836104, 2.41000162
899, 40.45, 4.70228202, 6.47213595
900, 40.45, -2.47099402, 7.60882307
901, 40.45, -6.47051697, 4.70450956
902, 40.45, -7.99994362, 0.0300345826
903, 40.45, -6.47100137, -4.70384324
904, 40.45, -2.4668357, -7.61017225
905, 40.45, 2.46617274, -7.61038711
906, 40.45, 6.47100765, -4.7038346
907, 40.45, 7.99990169, 0.0396599039
908, 40.45, 6.47474903, 4.69868333
909, 40.45, 2.47213595, 7.60845213
910, 34.55, -1.89203219, -4.49115468
911, 34.55, -2.35892147, -6.540268
912, 34.55, -1.04158893, -8.18437463
913, 34.55, 1.04999865, -8.18034466
914, 34.55, 2.35932555, -6.53850066
915, 34.55, 1.89203219, -4.49115468
916, 34.55, -1.04999865, -3.81965534
917, 34.55, -2.35780791, -5.45489282
918, 34.55, -1.897816, -7.50156399
919, 34.55, -0.00413833292, -8.41999646
920, 34.55, 1.89203219, -7.50884532
921, 34.55, 2.35932555, -5.46149934
922, 34.55, 1.04999865, -3.81965534
923, 34.55, -7.90635841, 1.49070373
924, 34.55, -8.35934385, -0.538420486
925, 34.55, -7.05445433, -2.1781933
926, 34.55, -4.94681357, -2.17880663
927, 34.55, -3.64025513, -0.536660178
928, 34.55, -4.10914718, 1.51032302
929, 34.55, -7.0596228, 2.17568369
930, 34.55, -8.35693657, 0.548862473
931, 34.55, -7.89000843, -1.51137955
932, 34.55, -6.00613926, -2.41999221
933, 34.55, -4.11305336, -1.51520044
934, 34.55, -3.63954691, 0.533536492
935, 34.55, -4.94228056, 2.17660966
936, 34.55, 4.10658674, 1.50711188
937, 34.55, 3.64171216, -0.543027129
938, 34.55, 4.94845936, -2.17960141
939, 34.55, 7.05256506, -2.17910688
940, 34.55, 8.35997922, -0.535628674
941, 34.55, 7.89464522, 1.50556285
942, 34.55, 4.9548157, 2.18265659
943, 34.55, 3.64233201, 0.545712058
944, 34.55, 4.10398838, -1.50384173
945, 34.55, 5.99297851, -2.41998981
946, 34.55, 7.88940966, -1.51212802
947, 34.55, 8.36078464, 0.532067575
948, 34.55, 7.05927891, 2.17585114
949, 34.55, -1.89519163, 7.50487497
950, 34.55, -2.35822026, 5.45667948
951, 34.55, -1.04999865, 3.81965534
952, 34.55, 1.04999865, 3.81965534
953, 34.55, 2.35932555, 5.46149934
954, 34.55, 1.89203219, 7.50884532
955, 34.55, -1.04471773, 8.18287995
956, 34.55, -2.35681505, 6.54938403
957, 34.55, -1.89807951, 4.49876912
958, 34.55, 2.22042129e-15, 3.58
959, 34.55, 1.88651609, 4.48426353
960, 34.55, 2.35932555, 6.53850066
961, 34.55, 1.04999865, 8.18034466
962, 40.45, 5.06066087, 0.746754314
963, 40.45, 4.83006167, -0.266916275
964, 40.45, 5.47373498, -1.0784457
965, 40.45, 6.52494191, -1.07909035
966, 40.45, 7.17321597, -0.252119594
967, 40.45, 6.97449288, 0.700259679
968, 40.45, 5.49745388, 1.0897006
969, 40.45, 4.83115467, 0.271662634
970, 40.45, 5.06999342, -0.758345414
971, 40.45, 6.00695485, -1.19997985
972, 40.45, 6.93061497, -0.75759869
973, 40.45, 7.15639321, 0.320553823
974, 40.45, 6.56075161, 1.06092301
975, 40.45, -0.935876909, -5.24891118
976, 40.45, -1.16351563, -6.29365178
977, 40.45, -0.521965447, -7.08053324
978, 40.45, 0.516277861, -7.08326228
979, 40.45, 1.16527964, -6.28657175
980, 40.45, 0.938796505, -5.25256363
981, 40.45, -0.514265983, -4.91578116
982, 40.45, -1.17161854, -5.74055828
983, 40.45, -0.971277919, -6.70471214
984, 40.45, -0.00217000768, -7.19999804
985, 40.45, 0.973946541, -6.70101935
986, 40.45, 1.17087765, -5.73723483
987, 40.45, 0.533206452, -4.92496936
988, 40.45, -2.34572195, 1.87018409
989, 40.45, -2.92539989, -0.664857493
990, 40.45, -1.29815516, -2.70458743
991, 40.45, 1.3031146, -2.70220139
992, 40.45, 2.92565195, -0.663747458
993, 40.45, 2.34322632, 1.87331002
994, 40.45, -1.30665027, 2.70049349
995, 40.45, -2.92438736, 0.669297085
996, 40.45, -2.34484682, -1.87128122
997, 40.45, -0.00702398699, -2.99999178
998, 40.45, 2.34476633, -1.87138208
999, 40.45, 2.92404357, 0.670797436
1000, 40.45, 1.29880655, 2.70427468
1001, 40.45, -0.927317186, 6.76163169
1002, 40.45, -1.16991349, 5.73297488
1003, 40.45, -0.520660487, 4.91883736
1004, 40.45, 0.520660487, 4.91883736
1005, 40.45, 1.16991349, 5.73297488
1006, 40.45, 0.938197779, 6.74818776
1007, 40.45, -0.475409695, 7.10181016
1008, 40.45, -1.1742589, 6.24721659
1009, 40.45, -0.938197779, 5.25181224
1010, 40.45, -1.09706117e-14, 4.8
1011, 40.45, 0.938197779, 5.25181224
1012, 40.45, 1.16991349, 6.26702512
1013, 40.45, 0.464891587, 7.10628921
1014, 40.45, -6.96454824, 0.713895435
1015, 40.45, -7.17253046, -0.255288715
1016, 40.45, -6.52320719, -1.07993251
1017, 40.45, -5.47584642, -1.07947349
1018, 40.45, -4.82943559, -0.264157077
1019, 40.45, -5.06205616, 0.748506085
1020, 40.45, -6.50259359, 1.08967871
1021, 40.45, -7.15253134, 0.334172873
1022, 40.45, -6.92948846, -0.758980366
1023, 40.45, -6.01299967, -1.19992958
1024, 40.45, -5.07066377, -0.759166765
1025, 40.45, -4.83013713, 0.267246826
1026, 40.45, -5.4864857, 1.08457506
1027, 36.0114644, -5.09453068e-16, -3.58
1028, 37.5, -1.90180709, -4.50349414
1029, 37.5, -2.34890122, -6.5822912
1030, 37.5, -1.08537467, -8.16295211
1031, 37.5, 1.06526294, -8.17292772
1032, 37.5, 2.35932555, -6.53850066
1033, 37.5, 1.90170027, -4.5033584
1034, 37.5, -1.0440989, -3.81682399
1035, 37.5, -2.35433614, -5.44008811
1036, 37.5, -1.88781426, -7.51411933
1037, 37.5, -0.0227246209, -8.4198933
1038, 37.5, 1.88348875, -7.51949667
1039, 37.5, 2.35302741, -5.43461338
1040, 37.5, 1.07319162, -3.83097724
1041, 35.9948457, -6, 2.42
1042, 37.5, -7.91276701, 1.48247171
1043, 37.5, -8.36776959, -0.500067181
1044, 37.5, -7.07648537, -2.16738996
1045, 37.5, -4.93323697, -2.17219167
1046, 37.5, -3.62996545, -0.489220032
1047, 37.5, -4.06322772, 1.45096972
1048, 37.5, -7.06336672, 2.1738563
1049, 37.5, -8.35632988, 0.551461222
1050, 37.5, -7.8728785, -1.53255542
1051, 37.5, -6.00830979, -2.41998573
1052, 37.5, -4.15128245, -1.56161564
1053, 37.5, -3.67315369, 0.664970881
1054, 37.5, -4.96295145, 2.18653386
1055, 36.011269, 6, 2.42
1056, 37.5, 4.07237492, 1.46309997
1057, 37.5, 3.63313459, -0.504329369
1058, 37.5, 4.94556351, -2.17820194
1059, 37.5, 7.03592856, -2.18706471
1060, 37.5, 8.35795999, -0.544448987
1061, 37.5, 7.89135732, 1.50969119
1062, 37.5, 4.95084008, 2.18074837
1063, 37.5, 3.66916227, 0.650842123
1064, 37.5, 4.13808867, -1.54586099
1065, 37.5, 6.01723634, -2.41993862
1066, 37.5, 7.8996413, -1.49925413
1067, 37.5, 8.35930997, 0.538568917
1068, 37.5, 7.07988957, 2.16569585
1069, 36.008828, 9.60123091e-16, 8.42
1070, 37.5, -1.88895826, 7.51269187
1071, 37.5, -2.35627163, 5.44828991
1072, 37.5, -1.04999865, 3.81965534
1073, 37.5, 1.04999865, 3.81965534
1074, 37.5, 2.35932555, 5.46149934
1075, 37.5, 1.89203219, 7.50884532
1076, 37.5, -1.01698778, 8.19593622
1077, 37.5, -2.35837838, 6.54263378
1078, 37.5, -1.92759447, 4.53685969
1079, 37.5, -0.00903492798, 3.58001687
1080, 37.5, 1.89203219, 4.49115468
1081, 37.5, 2.35932555, 6.53850066
1082, 37.5, 1.02651161, 8.19150038
1083, 37.5, 5.04557145, 0.727369325
1084, 37.5, 4.83518642, -0.288460283
1085, 37.5, 5.49903657, -1.09042911
1086, 37.5, 6.53498998, -1.07414418
1087, 37.5, 7.17523275, -0.242544797
1088, 37.5, 6.91968209, 0.77083387
1089, 37.5, 5.52167518, 1.10054776
1090, 37.5, 4.83963055, 0.305847569
1091, 37.5, 5.04091089, -0.721212926
1092, 37.5, 5.96852436, -1.19958713
1093, 37.5, 6.91424168, -0.777278685
1094, 37.5, 7.17769164, 0.230309373
1095, 37.5, 6.56217842, 1.06016764
1096, 38.9789978, 6, 1.2
1097, 37.5, -0.953040592, -5.27081304
1098, 37.5, -1.16594796, -6.28384036
1099, 37.5, -0.505856837, -7.08816766
1100, 37.5, 0.545379496, -7.06890655
1101, 37.5, 1.17545156, -6.24148215
1102, 37.5, 0.919526475, -5.2289805
1103, 37.5, -0.475806901, -4.89836131
1104, 37.5, -1.16116414, -5.69718347
1105, 37.5, -0.95679586, -6.7242525
1106, 37.5, -0.04304166, -7.19922784
1107, 37.5, 0.916073427, -6.77511901
1108, 37.5, 1.1779184, -5.77085323
1109, 37.5, 0.560293474, -4.93883497
1110, 38.9700458, -8.08266887e-16, -4.8
1111, 39.475, 7.34788079e-16, 3
1112, 38.5, -2.38572225, 1.81888134
1113, 38.5, -2.92953117, -0.64641095
1114, 38.5, -1.31665612, -2.69562918
1115, 38.5, 1.30886771, -2.69941944
1116, 38.5, 2.92692705, -0.658101866
1117, 38.5, 2.37513392, 1.83268624
1118, 38.5, -1.31425564, 2.69680035
1119, 38.5, -2.92176112, 0.680670213
1120, 38.5, -2.36821456, -1.8416188
1121, 38.5, -0.00926110322, -2.99998571
1122, 38.5, 2.34747458, -1.8679837
1123, 38.5, 2.90980108, 0.730108008
1124, 38.5, 1.31413265, 2.69686028
1125, 37.5, -0.954856047, 6.72680804
1126, 37.5, -1.16389949, 5.70787336
1127, 37.5, -0.497897074, 4.90816736
1128, 37.5, 0.549765056, 4.93334242
1129, 37.5, 1.16991349, 5.73297488
1130, 37.5, 0.938197779, 6.74818776
1131, 37.5, -0.447246983, 7.11353946
1132, 37.5, -1.16099239, 6.30347433
1133, 37.5, -0.96228774, 5.28306046
1134, 37.5, -0.0404093348, 4.80068057
1135, 37.5, 0.887118273, 5.19190275
1136, 37.5, 1.16991349, 6.26702512
1137, 37.5, 0.575199568, 7.05315975
1138, 38.9797011, 6.61309272e-16, 7.2
1139, 37.5, -6.95083429, 0.732061581
1140, 37.5, -7.16463216, -0.289191864
1141, 37.5, -6.49311266, -1.09400179
1142, 37.5, -5.45705953, -1.07014749
1143, 37.5, -4.82521086, -0.244684441
1144, 37.5, -5.07936497, 0.769695489
1145, 37.5, -6.47867526, 1.10039538
1146, 37.5, -7.16001218, 0.307199856
1147, 37.5, -6.95939674, -0.720803643
1148, 37.5, -6.03531493, -1.19948024
1149, 37.5, -5.08765296, -0.779501687
1150, 37.5, -4.82174988, 0.227434939
1151, 37.5, -5.44803435, 1.06552049
1152, 38.9725538, -6, 1.2
1153, 38, -9, -9.5
1154, 38, -4.48927819, -9.5
1155, 38, -11.25, -9.5
1156, 38, -6.74800037, -9.5
1157, 38, -2.3006406, -9.5
1158, 37.9807383, -13.8920814, -9.5
1159, 37.90388, -14.6724298, -9.5
1160, 37.7509025, -15.4415, -9.5
1161, 37.5232795, -16.1918724, -9.5
1162, 37.2232032, -16.9163207, -9.5
1163, 36.8535925, -17.6078194, -9.5
1164, 36.4179203, -18.2598541, -9.5
1165, 35.9204689, -18.8660003, -9.5
1166, 35.3657806, -19.420668, -9.5
1167, 34.7598541, -19.9179203, -9.5
1168, 34.2222809, -20.284987, -9.5
1169, 34, -20.9591085, -9.5
1170, 29.875, -21.5, -9.5
1171, 25.75, -21.5, -9.5
1172, 21.6148991, -21.5, -9.5
1173, 31.9375, -21.5, -9.5
1174, 27.8124025, -21.5, -9.5
1175, 23.6876545, -21.5, -9.5
1176, 19.5753802, -21.5, -9.5
1177, 17.5, -20.2494585, -9.5
1178, 17.5, -19.0050468, -9.5
1179, 24.5, -19, -9.5
1180, 21.0212787, -19, -9.5
1181, 26.2532536, -19, -9.5
1182, 22.7528161, -19, -9.5
1183, 19.318462, -19, -9.5
1184, 17.5, -18.757013, 9.5
1185, 22.2493569, -18.5, 8.22761259
1186, 25.7299767, -18.5, 4.74525905
1187, 26.9999785, -18.5, -0.0202067426
1188, 25.7314533, -18.5, -4.7426971
1189, 22.2494942, -18.5, -8.22753335
1190, 17.4959138, -18.5, -9.49999912
1191, 12.7625192, -18.5, -8.23445661
1192, 9.28157199, -18.5, -4.76523252
1193, 8.00000063, -18.5, 0.0034648391
1194, 9.27390439, -18.5, 4.7519839
1195, 12.75, -18.5, 8.22724134
1196, 19.9686304, -18.5, 9.17365051
1197, 24.2218963, -18.5, 6.7131297
1198, 26.6743744, -18.5, 2.46593891
1199, 26.6776231, -18.5, -2.4538202
1200, 24.2218859, -18.5, -6.71314011
1201, 19.9675468, -18.5, -9.17394206
1202, 15.0289813, -18.5, -9.17300751
1203, 10.7786768, -18.5, -6.7137035
1204, 8.32298578, -18.5, -2.45609649
1205, 8.3234751, -18.5, 2.45792408
1206, 10.7765859, -18.5, 6.71160958
1207, 15.0321442, -18.5, 9.17385892
1208, 22.0604658, -19, 8.33379575
1209, 20.0437729, -19, 9.15309891
1210, 24.0602984, -19, 6.87113415
1211, 26.8372565, -19, 1.75089738
1212, 26.8401584, -19, -1.73535029
1213, 26.3528678, -19, 3.44626332
1214, 26.9999896, -19, -0.0140458289
1215, 26.353, -19, -3.44592374
1216, 22.0824197, -19, -8.32174438
1217, 24.0602842, -19, -6.87114769
1218, 20.0504809, -19, -9.15123202
1219, 16.8725264, -19.01, -9.47925508
1220, 17.2872855, -19.01, -9.49761826
1221, 16.5015717, -19.01, -9.44738805
1222, 15.6481742, -19.01, -9.31776482
1223, 15.980523, -19.01, -9.37769639
1224, 15.2964126, -19.01, -9.24089837
1225, 14.4390058, -19.01, -8.99334833
1226, 14.7924321, -19.01, -9.10599122
1227, 14.1292133, -19.01, -8.88188028
1228, 13.2988626, -19.01, -8.52058947
1229, 13.6449332, -19.01, -8.68265283
1230, 12.9600018, -19.01, -8.34496353
1231, 12.2212145, -19.01, -7.89838109
1232, 12.5466276, -19.01, -8.10642352
1233, 11.9054944, -19.01, -7.67798851
1234, 11.2363697, -19.01, -7.14261402
1235, 11.4963155, -19.01, -7.36245696
1236, 10.9714405, -19.01, -6.90129781
1237, 10.3624081, -19.01, -6.26935256
1238, 10.6122105, -19.01, -6.54280945
1239, 10.1416652, -19.01, -6.00873603
1240, 9.60206785, -19.01, -5.27945714
1241, 9.81983054, -19.01, -5.59151116
1242, 9.39823091, -19.01, -4.96098152
1243, 8.97899002, -19.01, -4.20028438
1244, 9.15549131, -19.01, -4.54083415
1245, 8.8154352, -19.01, -3.85075762
1246, 8.50471847, -19.01, -3.05530852
1247, 8.62020521, -19.01, -3.37627672
1248, 8.39572035, -19.01, -2.71331754
1249, 8.18195906, -19.01, -1.85043591
1250, 8.25893723, -19.01, -2.20289782
1251, 8.12139409, -19.01, -1.51385306
1252, 8.02030634, -19.01, -0.620812519
1253, 8.05367806, -19.01, -1.00846505
1254, 8.0029715, -19.01, -0.237591367
1255, 8.02036814, -19.01, 0.621755485
1256, 8.00312107, -19.01, 0.243496572
1257, 8.05330135, -19.01, 1.00493018
1258, 8.18235105, -19.01, 1.85240871
1259, 8.12263702, -19.01, 1.52153326
1260, 8.26148203, -19.01, 2.21354597
1261, 8.5054419, -19.01, 3.05743758
1262, 8.39634547, -19.01, 2.71541419
1263, 8.62061688, -19.01, 3.37735925
1264, 8.97804571, -19.01, 4.19836814
1265, 8.81489091, -19.01, 3.84952985
1266, 9.15486061, -19.01, 4.53967494
1267, 9.60271483, -19.01, 5.28042488
1268, 9.39685273, -19.01, 4.95873012
1269, 9.82220635, -19.01, 5.59477298
1270, 10.3588342, -19.01, 6.26528139
1271, 10.1409101, -19.01, 6.00781124
1272, 10.6085739, -19.01, 6.53897898
1273, 11.2362148, -19.01, 7.14247817
1274, 11.0058731, -19.01, 6.93370869
1275, 11.4732638, -19.01, 7.34359931
1276, 12.2220828, -19.01, 7.89896132
1277, 11.9664619, -19.01, 7.7220435
1278, 12.4833554, -19.01, 8.06742072
1279, 13.2982574, -19.01, 8.52029104
1280, 13.021731, -19.01, 8.37825201
1281, 13.5792832, -19.01, 8.65320634
1282, 14.4463251, -19.01, 8.99583623
1283, 14.1536245, -19.01, 8.8911063
1284, 14.7422956, -19.01, 9.09093319
1285, 15.6483802, -19.01, 9.31780575
1286, 15.299326, -19.01, 9.2415926
1287, 15.9790491, -19.01, 9.37745746
1288, 16.8717827, -19.01, 9.47920582
1289, 16.5011595, -19.01, 9.44734448
1290, 17.2803818, -19.01, 9.49746113
1291, 17.5, -19.0047212, 9.5
1292, 16.8992284, -19.01, 9.46062335
1293, 16.5767426, -19.01, 9.43948652
1294, 17.2143853, -19.01, 9.48127982
1295, 16.8895168, -21.5, 9.45998681
1296, 16.2600012, -20.2583396, 9.41872618
1297, 17.5, -20.2586112, 9.5
1298, 15.6421477, -21.5, 9.29582748
1299, 15.0412191, -20.255, 9.17629535
1300, 15.6506101, -19.01, 9.29751077
1301, 15.3459146, -19.01, 9.23690306
1302, 15.9716281, -19.01, 9.36136522
1303, 14.4528632, -21.5, 8.97657545
1304, 13.8645074, -20.255, 8.77685556
1305, 14.4528632, -19.01, 8.97657545
1306, 14.1586853, -19.01, 8.87671551
1307, 14.7470412, -19.01, 9.0764354
1308, 13.3072537, -21.5, 8.50204845
1309, 12.75, -20.255, 8.22724134
1310, 13.3072537, -19.01, 8.50204845
1311, 13.0286268, -19.01, 8.36464489
1312, 13.5858805, -19.01, 8.639452
1313, 12.2333832, -21.5, 7.88204903
1314, 11.7167664, -20.255, 7.53685673
1315, 12.2333832, -19.01, 7.88204903
1316, 11.9750748, -19.01, 7.70945288
1317, 12.4916916, -19.01, 8.05464519
1318, 11.249626, -21.5, 7.12718558
1319, 10.7824856, -20.255, 6.71751442
1320, 11.249626, -19.01, 7.12718558
1321, 11.0160558, -19.01, 6.92235
1322, 11.4831962, -19.01, 7.33202115
1323, 10.3728144, -21.5, 6.250374
1324, 9.96314327, -20.2550839, 5.78323358
1325, 10.3746697, -19.01, 6.25248948
1326, 10.1551905, -19.01, 6.00222151
1327, 10.5886512, -19.01, 6.49648864
1328, 9.61695395, -21.5, 5.26512464
1329, 9.27275866, -20.2576061, 4.75
1330, 9.61275669, -19.01, 5.25884301
1331, 9.43525134, -19.01, 4.99318748
1332, 9.79069572, -19.01, 5.52514758
1333, 8.99815901, -21.5, 4.19316699
1334, 8.72314444, -20.2556322, 3.63549261
1335, 8.99936922, -19.01, 4.19562104
1336, 8.85824172, -19.01, 3.9094428
1337, 9.14246818, -19.01, 4.48579704
1338, 8.52401844, -21.5, 3.04888633
1339, 8.32370465, -20.2553883, 2.45878093
1340, 8.52403899, -19.01, 3.04894686
1341, 8.41929796, -19.01, 2.74038975
1342, 8.63087322, -19.01, 3.36367034
1343, 8.20284371, -21.5, 1.85117197
1344, 8.08127382, -20.2584371, 1.23999883
1345, 8.20348149, -19.01, 1.85437831
1346, 8.13796716, -19.01, 1.52501552
1347, 8.2670969, -19.01, 2.17419456
1348, 8.04129458, -21.5, 0.630033504
1349, 8, -20.2580738, 1.56201018e-15
1350, 8.04024975, -19.01, 0.614092517
1351, 8.01932067, -19.01, 0.294776404
1352, 8.06129072, -19.01, 0.93511565
1353, 8.04086715, -21.5, -0.623512178
1354, 8.08127382, -20.2551111, -1.23999883
1355, 8.04080324, -19.01, -0.622537084
1356, 8.0616167, -19.01, -0.940089175
1357, 8.01969287, -19.01, -0.300455095
1358, 8.2033196, -21.5, -1.85356442
1359, 8.32370465, -20.2706233, -2.45878093
1360, 8.20058609, -19.01, -1.83982212
1361, 8.26658048, -19.01, -2.17159831
1362, 8.13631908, -19.01, -1.51673003
1363, 8.52398925, -21.5, -3.04880033
1364, 8.72314444, -20.2594509, -3.63549261
1365, 8.52465781, -19.01, -3.05076984
1366, 8.63181237, -19.01, -3.366437
1367, 8.41840613, -19.01, -2.7377625
1368, 8.99795155, -21.5, -4.1927463
1369, 9.27275866, -20.257781, -4.75
1370, 8.9993014, -19.01, -4.19548353
1371, 9.14022458, -19.01, -4.48124747
1372, 8.85779744, -19.01, -3.90854187
1373, 9.61795097, -21.5, -5.26661679
1374, 9.96314327, -20.2561054, -5.78323358
1375, 9.61427263, -19.01, -5.26111177
1376, 9.79254401, -19.01, -5.52791374
1377, 9.43588363, -19.01, -4.99413376
1378, 10.3728144, -21.5, -6.250374
1379, 10.7824856, -20.2543879, -6.71751442
1380, 10.3757188, -19.01, -6.25368575
1381, 10.5925154, -19.01, -6.50089492
1382, 10.1520307, -19.01, -5.99861842
1383, 11.249626, -21.5, -7.12718558
1384, 11.7167664, -20.255, -7.53685673
1385, 11.2545005, -19.01, -7.13146038
1386, 11.5026758, -19.01, -7.34910433
1387, 11.0082558, -19.01, -6.91550956
1388, 12.2333832, -21.5, -7.88204903
1389, 12.75, -20.255, -8.22724134
1390, 12.2339122, -19.01, -7.88240247
1391, 12.4952648, -19.01, -8.0570327
1392, 11.9717887, -19.01, -7.70725716
1393, 13.3072537, -21.5, -8.50204845
1394, 13.8645074, -20.2566733, -8.77685556
1395, 13.3049273, -19.01, -8.5009012
1396, 13.589552, -19.01, -8.64126258
1397, 13.0202518, -19.01, -8.36051477
1398, 14.4528632, -21.5, -8.97657545
1399, 15.0412191, -20.2620298, -9.17629535
1400, 14.4646488, -19.01, -8.98057613
1401, 14.7709564, -19.01, -9.08455355
1402, 14.142306, -19.01, -8.87115547
1403, 15.6506101, -21.5, -9.29751077
1404, 16.2600012, -20.2518333, -9.41872618
1405, 15.6546691, -19.01, -9.29831815
1406, 15.9769421, -19.01, -9.36242224
1407, 15.3337433, -19.01, -9.23448205
1408, 16.8861857, -21.5, -9.45976849
1409, 16.886741, -19.01, -9.45980488
1410, 17.2115347, -19.01, -9.48109299
1411, 16.5682744, -19.01, -9.43893148
1412, 22.2062849, -18.5, 6.46922578
1413, 25.11428, -18.5, 2.454127
1414, 25.1265164, -18.5, -2.41583277
1415, 22.1949624, -18.5, -6.47744766
1416, 17.4940544, -18.5, -7.99999779
1417, 12.797718, -18.5, -6.47213595
1418, 9.88013724, -18.5, -2.4367379
1419, 9.88636788, -18.5, 2.45613637
1420, 12.797718, -18.5, 6.47213595
1421, 20.0036321, -18.5, 7.59814625
1422, 23.9783383, -18.5, 4.6937334
1423, 25.4997047, -18.5, -0.0687384187
1424, 23.9772802, -18.5, -4.69519335
1425, 19.9903604, -18.5, -7.60250651
1426, 14.986646, -18.5, -7.59493591
1427, 11.0227001, -18.5, -4.69516621
1428, 9.50008592, -18.5, -0.0370775303
1429, 11.0225662, -18.5, 4.69498151
1430, 15.0029402, -18.5, 7.6003087
1431, 17.5, -17.5205224, 8
1432, 22.1969569, -16.55, 6.4760015
1433, 25.1247292, -16.55, 2.42146761
1434, 25.1176311, -16.55, -2.4437055
1435, 22.190432, -16.55, -6.48072898
1436, 17.5, -16.55, -8
1437, 12.797718, -16.55, -6.47213595
1438, 9.87991315, -16.55, -2.43603703
1439, 9.87716805, -16.55, 2.42743342
1440, 12.797718, -16.55, 6.47213595
1441, 19.9706467, -16.55, 7.60893586
1442, 23.9704142, -16.55, 4.70465085
1443, 25.4999319, -16.55, 0.0330152121
1444, 23.9743639, -16.55, -4.69921405
1445, 19.9827724, -16.55, -7.60498791
1446, 15.027864, -16.55, -7.60845213
1447, 11.0260304, -16.55, -4.6997572
1448, 9.50008259, -16.55, 0.0363505577
1449, 11.0253665, -16.55, 4.69884252
1450, 15.027864, -16.55, 7.60845213
1451, 36.0922729, -18.6764438, -5
1452, 36, -20.1373935, -5
1453, 31.9344373, -21.5, -5
1454, 27.8414512, -21.5, -5
1455, 23.7541438, -21.5, -5
1456, 33.9418971, -21.5, -5
1457, 29.8916519, -21.5, -5
1458, 25.8238741, -21.5, -5
1459, 21.7448168, -21.5, -5
1460, 19.7037241, -22.7477749, -5
1461, 24.1144348, -24, -5
1462, 28.5922553, -24, -5
1463, 21.915325, -24, -5
1464, 26.3512426, -24, -5
1465, 30.7617677, -24, -5
1466, 33.2222997, -23.9878731, -5
1467, 33.634094, -23.9436201, -5
1468, 34.0242898, -23.8607985, -5
1469, 34.393651, -23.7432878, -5
1470, 34.7610009, -23.5852774, -5
1471, 35.095784, -23.4002934, -5
1472, 35.416427, -23.1803902, -5
1473, 35.7172824, -22.9275372, -5
1474, 35.9941761, -22.6437576, -5
1475, 36.2346839, -22.3432205, -5
1476, 36.4547222, -22.0049752, -5
1477, 36.6314666, -21.6633421, -5
1478, 36.7752093, -21.3044364, -5
1479, 36.8866509, -20.9210811, -5
1480, 36.9584092, -20.5343939, -5
1481, 36.9916053, -20.146329, -5
1482, 37, -18.6734415, -5
1483, 36.8267596, -17.6525875, -5
1484, 36.4179474, -18.2598175, -5
1485, 36.1840836, -18.5751463, -7.25035539
1486, 35.6568542, -19.1568542, -7.26418159
1487, 35.8284883, -18.9674852, -5.00736763
1488, 36.6517569, -17.9445619, -7.24996025
1489, 37.027659, -17.3174071, -4.99961742
1490, 37.0553701, -17.2711739, -7.24880046
1491, 38, -16.7333548, -4
1492, 38, -18.3609139, -4
1493, 38, -15.1229076, -4
1494, 37.7034706, -19.9854324, -4.71107819
1495, 37.9537337, -19.9977271, -4.30082963
1496, 37.28296, -19.9647741, -4.9593864
1497, 37.2237196, -16.9152289, -4.97465356
1498, 37.5208271, -16.1987263, -4.85366217
1499, 37.750106, -15.4446795, -4.66131757
1500, 37.9032663, -14.6765674, -4.42908046
1501, 37.9811871, -13.8829457, -4.19305934
1502, 37.6847382, -20.4468924, -4.70858205
1503, 37.9031465, -20.4792902, -4.37647556
1504, 37.3623533, -20.3990711, -4.92510311
1505, 37.9879581, -20.2451184, -4
1506, 37.6189004, -20.9040563, -4.70804405
1507, 37.8344978, -20.9580607, -4.3715163
1508, 37.2960124, -20.8231771, -4.92770877
1509, 37.9406267, -20.728038, -4
1510, 37.5089298, -21.3527506, -4.70710678
1511, 37.7130309, -21.4257792, -4.38268343
1512, 37.2020081, -21.2429323, -4.92452154
1513, 37.8426085, -21.2202463, -4
1514, 37.3546253, -21.7881892, -4.70710678
1515, 37.5505856, -21.8808715, -4.38268343
1516, 37.0613501, -21.6494803, -4.92387953
1517, 37.7020965, -21.6822895, -4
1518, 37.1583834, -22.2064065, -4.70710678
1519, 37.3443156, -22.3178499, -4.38268343
1520, 36.8801162, -22.0396195, -4.92387953
1521, 37.514502, -22.1352004, -4
1522, 36.922094, -22.6033749, -4.70710678
1523, 37.0962075, -22.7325063, -4.38268343
1524, 36.6675996, -22.4146289, -4.92070509
1525, 37.2834772, -22.5674174, -4
1526, 36.6480327, -22.9752714, -4.70710678
1527, 36.8086507, -23.120847, -4.38268343
1528, 36.4076509, -22.757402, -4.92387953
1529, 37.0088922, -22.9780207, -4
1530, 36.3388388, -23.3185143, -4.70710678
1531, 36.4844145, -23.4791324, -4.38268343
1532, 36.1209694, -23.0781325, -4.92387953
1533, 36.6981231, -23.3561444, -4
1534, 35.9974901, -23.6297982, -4.70710678
1535, 36.1291505, -23.8073216, -4.37226901
1536, 35.8042314, -23.369219, -4.92387953
1537, 36.3585457, -23.6959467, -4
1538, 35.6271129, -23.9058565, -4.70741991
1539, 35.7404971, -24.0950266, -4.37421684
1540, 35.4573639, -23.6226474, -4.9263725
1541, 35.9711245, -24.0140068, -4
1542, 35.2307993, -24.142812, -4.70933652
1543, 35.3263114, -24.3447551, -4.37192915
1544, 35.0891886, -23.8434012, -4.92756594
1545, 35.5704129, -24.2816817, -4
1546, 34.8143215, -24.342444, -4.70835976
1547, 34.8890681, -24.5513466, -4.373267
1548, 34.701108, -24.0260332, -4.92911283
1549, 35.1307265, -24.516618, -4
1550, 34.3800321, -24.4996919, -4.70802746
1551, 34.4339301, -24.7148647, -4.37256669
1552, 34.2997544, -24.1792052, -4.92670205
1553, 34.6808474, -24.7026125, -4
1554, 33.9323504, -24.613362, -4.70795632
1555, 33.9646302, -24.8309742, -4.37691072
1556, 33.8842631, -24.2891836, -4.92558872
1557, 34.2096303, -24.8452677, -4
1558, 33.4756435, -24.6819461, -4.70854275
1559, 33.4866562, -24.9061149, -4.3672886
1560, 33.4589689, -24.3425272, -4.9306779
1561, 33.7299705, -24.9403401, -4
1562, 33, -24.6892971, -4.72447882
1563, 33, -24.9538787, -4.30019227
1564, 33, -24.263466, -4.96466869
1565, 33.2396621, -24.9882262, -4
1566, 23.5846602, -25, -4
1567, 28.3146456, -25, -4
1568, 21.220576, -25, -4
1569, 25.9324232, -25, -4
1570, 30.6473798, -25, -4
1571, 19.456473, -24.8176568, -4.57570599
1572, 19.2900939, -24.928427, -4.37151487
1573, 19.6587805, -24.4225243, -4.90635163
1574, 17.5, -22.25, -3.58
1575, 17.5, -23.625, -3.58
1576, 17.5, -20.8747508, -3.58
1577, 19.3958504, -19.5, -4.49595505
1578, 19.8573891, -19.5, -6.54691555
1579, 18.5696377, -19.5, -8.17077754
1580, 16.4476659, -19.5, -8.17921842
1581, 15.1406745, -19.5, -6.53850066
1582, 15.6079678, -19.5, -4.49115468
1583, 18.5672601, -19.5, -3.82805253
1584, 19.8585852, -19.5, -5.45826574
1585, 19.3761819, -19.5, -7.52850956
1586, 17.4969161, -19.5, -8.41999803
1587, 15.6154419, -19.5, -7.5181702
1588, 15.1351671, -19.5, -5.48622422
1589, 16.4500014, -19.5, -3.81965534
1590, 18.2036045, -25, -3.6845431
1591, 19.4692022, -21.5, -7.4066424
1592, 17.2754829, -21.5, -8.40956263
1593, 15.2959352, -21.5, -6.99924892
1594, 19.9075826, -21.5, -6.24483924
1595, 18.4675392, -21.5, -8.21816768
1596, 16.0849835, -21.5, -7.96319337
1597, 15.0916129, -21.5, -5.76320576
1598, 15.5327527, -22.75, -4.59062488
1599, 15.5667559, -24.3323816, -4.54433274
1600, 15.5412058, -24.1686567, -4.5789
1601, 15.6098993, -24.4863299, -4.48873587
1602, 15.9874852, -24.917809, -4.11089998
1603, 15.8089435, -24.7999692, -4.268894
1604, 16.197544, -24.9813917, -3.96039016
1605, 16.9500818, -25, -3.64330952
1606, 35.3601985, -19.4257274, -5.10509789
1607, 34.7323128, -19.9383463, -5.45307755
1608, 34.1292697, -20.3407357, -6.29263295
1609, 34, -20.958932, -7
1610, 34.6270105, -21.5, -5.54573048
1611, 35.1131128, -21.5, -5.20739543
1612, 34.1469026, -21.5, -6.24765045
1613, 35.0751463, -19.6840836, -7.35826156
1614, 37.3910363, -16.5614675, -7.20960017
1615, 37.9614778, -14.2841371, -6.88744127
1616, 37.9614778, -14.2841371, -8.19372064
1617, 37.9614778, -14.2841371, -5.58110368
1618, 38, -13.5, -6.75024572
1619, 38, -13.5, -8.12503616
1620, 38, -13.5, -5.3791987
1621, 37.8462822, -15.0607226, -7.01630079
1622, 37.6555227, -15.8222774, -7.1270354
1623, 37.9759236, -20.4900857, -0.00112206134
1624, 37.9759236, -20.4900857, -1.99637855
1625, 37.9759236, -20.4900857, 1.99818377
1626, 37.9879071, -20.2461562, 4
1627, 38, -20, -0.00012547122
1628, 38, -20, -2.00138304
1629, 38, -20, 2.00091178
1630, 37.9039264, -20.9754516, 0.00109495149
1631, 37.9039264, -20.9754516, -1.99863998
1632, 37.9039264, -20.9754516, 1.99533628
1633, 37.9406742, -20.727718, 4
1634, 37.7847017, -21.4514234, -0.00031714959
1635, 37.7847017, -21.4514234, -1.99792851
1636, 37.7847017, -21.4514234, 1.99918574
1637, 37.8439288, -21.2149753, 4
1638, 37.6193977, -21.9134172, -6.56006902e-05
1639, 37.6193977, -21.9134172, -1.99906466
1640, 37.6193977, -21.9134172, 1.99890847
1641, 37.7014394, -21.6841258, 4
1642, 37.4096063, -22.3569837, -1.33226763e-14
1643, 37.4096063, -22.3569837, -2
1644, 37.4096063, -22.3569837, 2
1645, 37.514502, -22.1352004, 4
1646, 37.1573481, -22.7778512, -1.33226763e-14
1647, 37.1573481, -22.7778512, -1.99832312
1648, 37.1573481, -22.7778512, 1.99857692
1649, 37.2834772, -22.5674174, 4
1650, 36.8650523, -23.1719664, -8.90724514e-05
1651, 36.8650523, -23.1719664, -1.99971461
1652, 36.8650523, -23.1719664, 1.99923333
1653, 37.0112002, -22.9749088, 4
1654, 36.5355339, -23.5355339, 0.000112633084
1655, 36.5355339, -23.5355339, -1.99935115
1656, 36.5355339, -23.5355339, 1.99913084
1657, 36.7002931, -23.3537502, 4
1658, 36.1719664, -23.8650523, 0.000176827174
1659, 36.1719664, -23.8650523, -1.997714
1660, 36.1719664, -23.8650523, 1.99927615
1661, 36.3537502, -23.7002931, 4
1662, 35.7778512, -24.1573481, 7.90538145e-05
1663, 35.7778512, -24.1573481, -1.99791997
1664, 35.7778512, -24.1573481, 1.99554057
1665, 35.9698616, -24.0149434, 4
1666, 35.3569837, -24.4096063, 0.000126067695
1667, 35.3569837, -24.4096063, -1.99544649
1668, 35.3569837, -24.4096063, 1.99528017
1669, 35.569906, -24.2819856, 4
1670, 34.9134172, -24.6193977, -0.000637472504
1671, 34.9134172, -24.6193977, -1.9933339
1672, 34.9134172, -24.6193977, 1.99515794
1673, 35.1295006, -24.5171978, 4
1674, 34.4514234, -24.7847017, 0.000563887294
1675, 34.4514234, -24.7847017, -1.99903966
1676, 34.4514234, -24.7847017, 1.99589109
1677, 34.6823215, -24.702085, 4
1678, 33.9754516, -24.9039264, -0.000446546078
1679, 33.9754516, -24.9039264, -1.99737869
1680, 33.9754516, -24.9039264, 1.9964874
1681, 34.2101435, -24.8451392, 4
1682, 33.4900857, -24.9759236, 0.000997394091
1683, 33.4900857, -24.9759236, -1.99866327
1684, 33.4900857, -24.9759236, 1.99720903
1685, 33.7302533, -24.9402981, 4
1686, 33, -25, -0.00133529323
1687, 33, -25, -1.99789481
1688, 33, -25, 1.99862543
1689, 33.2392629, -24.9882458, 4
1690, 16.2000272, -25, -3.76048674
1691, 15.6257626, -25, -3.5064516
1692, 14.9777007, -25, -3.07343053
1693, 14.4265695, -25, -2.52229925
1694, 13.9935484, -25, -1.87423743
1695, 13.7395133, -25, -1.29997282
1696, 13.92, -25, -1.91725546e-16
1697, 13.7395133, -25, 1.29997282
1698, 13.9935484, -25, 1.87423743
1699, 14.4265695, -25, 2.52229925
1700, 14.9777007, -25, 3.07343053
1701, 15.6257626, -25, 3.5064516
1702, 16.2000272, -25, 3.76048674
1703, 17.6660241, -25, 3.58570176
1704, 23.6147777, -25, 4
1705, 28.3082698, -25, 4
1706, 21.2218275, -25, 4
1707, 25.9593141, -25, 4
1708, 30.6269493, -25, 4
1709, 25.3993778, -25, 1.4995879
1710, 25.8595149, -25, -0.537670358
1711, 24.5514888, -25, -2.17962642
1712, 22.4437014, -25, -2.17729955
1713, 21.1405936, -25, -0.538146448
1714, 21.6002992, -25, 1.49917868
1715, 24.5025788, -25, 2.20255209
1716, 25.8609208, -25, 0.531462929
1717, 25.3969702, -25, -1.50263243
1718, 23.4995802, -25, -2.41999996
1719, 21.6038695, -25, -1.50369182
1720, 21.1390711, -25, 0.531426862
1721, 22.5063546, -25, 2.20659667
1722, 15.804923, -24.9017792, -4.09227793
1723, 14.8861355, -24.7079595, -3.9119246
1724, 15.0672102, -24.924205, -3.64092722
1725, 14.7648266, -24.3834733, -4.09347629
1726, 15.1274508, -24, -4.37398647
1727, 14.7221488, -22.75, -4.15734806
1728, 15.1274508, -21.5, -4.37398647
1729, 18.447455, -19.5, -5.26357003
1730, 18.6649499, -19.5, -6.28790906
1731, 18.0042443, -19.5, -7.08891581
1732, 16.9529148, -19.5, -7.06803454
1733, 16.3300865, -19.5, -6.26702512
1734, 16.5618022, -19.5, -5.25181224
1735, 17.9824612, -19.5, -4.90125929
1736, 18.6605543, -19.5, -5.69485472
1737, 18.460571, -19.5, -6.71923804
1738, 17.5360166, -19.5, -7.19945938
1739, 16.5918405, -19.5, -6.78437643
1740, 16.3300865, -19.5, -5.73297488
1741, 16.8959918, -19.5, -4.96309397
1742, 13.9644661, -22.75, -3.53553391
1743, 14.3433075, -24, -3.84644098
1744, 14.3433075, -21.5, -3.84644098
1745, 13.3426519, -22.75, -2.77785117
1746, 13.653559, -24, -3.15669254
1747, 13.653559, -21.5, -3.15669254
1748, 12.9093751, -22.7484435, -1.96724726
1749, 13.1260135, -24, -2.37254921
1750, 13.133091, -21.5, -2.38579016
1751, 11.5, -20.4986654, 2.42
1752, 13.3998141, -19.5, 1.49903518
1753, 13.8576854, -19.5, -0.54563703
1754, 12.5510413, -19.5, -2.17984226
1755, 10.4499929, -19.5, -2.18034059
1756, 9.14308597, -19.5, -0.548959258
1757, 9.60706868, -19.5, 1.50771716
1758, 12.5310418, -19.5, 2.18937267
1759, 13.8456754, -19.5, 0.595152728
1760, 13.4009601, -19.5, -1.49758167
1761, 11.5018428, -19.5, -2.4199993
1762, 9.59681456, -19.5, -1.49475255
1763, 9.13867357, -19.5, 0.529657889
1764, 10.4164774, -19.5, 2.16388047
1765, 12.2380879, -21.5, 2.30469656
1766, 12.9093751, -22.7534166, 1.96724726
1767, 12.9556673, -24.3323816, 1.93324412
1768, 12.9211, -24.1686567, 1.95879422
1769, 13.0112641, -24.4863299, 1.89010072
1770, 13.3891, -24.917809, 1.51251482
1771, 13.231106, -24.7999692, 1.69105648
1772, 13.5396098, -24.9813917, 1.30245604
1773, 13.3891, -24.917809, -1.51251483
1774, 13.5396098, -24.9813917, -1.30245607
1775, 13.2311058, -24.7999691, -1.69105666
1776, 12.9556673, -24.3323816, -1.93324412
1777, 13.0112641, -24.4863299, -1.89010072
1778, 12.9211, -24.1686567, -1.95879422
1779, 10.7443761, -21.5, -2.29900686
1780, 9.19158663, -21.5, -0.726379854
1781, 9.55041717, -21.5, 1.43371085
1782, 11.8664336, -21.5, -2.39209666
1783, 9.76366058, -21.5, -1.68568247
1784, 9.10730326, -21.5, 0.362494567
1785, 10.3982838, -21.5, 2.15467431
1786, 13.3426519, -22.75, 2.77785117
1787, 13.1260135, -24, 2.37254921
1788, 13.1313696, -21.5, 2.38256964
1789, 13.9644661, -22.75, 3.53553391
1790, 13.653559, -24, 3.15669254
1791, 13.6521501, -21.5, 3.15497576
1792, 14.7221488, -22.75, 4.15734806
1793, 14.3433075, -24, 3.84644098
1794, 14.3433075, -21.5, 3.84644098
1795, 15.5327527, -22.75, 4.59062488
1796, 15.1274508, -24, 4.37398647
1797, 15.1274508, -21.5, 4.37398647
1798, 17.5, -20.4964942, 8.42
1799, 19.3873597, -19.5, 7.5146859
1800, 19.8619137, -19.5, 5.47296715
1801, 18.5495119, -19.5, 3.81942099
1802, 16.4563741, -19.5, 3.81659783
1803, 15.1406745, -19.5, 5.46149934
1804, 15.6079678, -19.5, 7.50884532
1805, 18.5177795, -19.5, 8.1955694
1806, 19.8579453, -19.5, 6.54451279
1807, 19.3846691, -19.5, 4.48196755
1808, 17.504126, -19.5, 3.58000352
1809, 15.5829118, -19.5, 4.52312055
1810, 15.1406745, -19.5, 6.53850066
1811, 16.4445258, -19.5, 8.17769929
1812, 19.5375201, -21.5, 7.30572277
1813, 18.6153455, -21.5, 8.14765089
1814, 19.9126607, -21.5, 6.18833005
1815, 19.7037241, -22.7540287, 5
1816, 19.4605818, -24.8136413, 4.58136717
1817, 19.6557423, -24.4351147, 4.90037504
1818, 19.2877319, -24.9294603, 4.36892223
1819, 15.9874852, -24.917809, 4.11089999
1820, 16.1975439, -24.9813917, 3.96039018
1821, 15.8089433, -24.7999691, 4.26889418
1822, 15.5667559, -24.3323816, 4.54433274
1823, 15.6098993, -24.4863299, 4.48873587
1824, 15.5412058, -24.1686567, 4.5789
1825, 15.0944034, -21.5, 6.26363793
1826, 15.8846988, -21.5, 7.80199942
1827, 15.1590207, -21.5, 5.38663553
1828, 15.3474332, -21.5, 7.10582824
1829, 16.6350201, -21.5, 8.2601349
1830, 36.0923038, -18.6764097, 5
1831, 36, -20.1401569, 5
1832, 23.7676513, -21.5, 5
1833, 27.8471864, -21.5, 5
1834, 31.9301691, -21.5, 5
1835, 21.7365502, -21.5, 5
1836, 25.8225471, -21.5, 5
1837, 29.8905167, -21.5, 5
1838, 33.9406336, -21.5, 5
1839, 24.1470965, -24, 5
1840, 28.5848822, -24, 5
1841, 21.9264276, -24, 5
1842, 26.3481058, -24, 5
1843, 30.7670941, -24, 5
1844, 33.2219684, -23.9878894, 5
1845, 33.6341465, -23.9436123, 5
1846, 34.0246758, -23.8607018, 5
1847, 34.3936757, -23.743279, 5
1848, 34.7614913, -23.5850454, 5
1849, 35.0957503, -23.4003136, 5
1850, 35.416536, -23.1803094, 5
1851, 35.7212497, -22.9239414, 5
1852, 35.9943199, -22.643599, 5
1853, 36.2330199, -22.3454641, 5
1854, 36.4516341, -22.0101273, 5
1855, 36.6313615, -21.6635642, 5
1856, 36.7750076, -21.3050002, 5
1857, 36.8864632, -20.9218304, 5
1858, 36.9584227, -20.534303, 5
1859, 36.9916356, -20.1457121, 5
1860, 37, -18.6736829, 5
1861, 36.8267566, -17.6525925, 5
1862, 36.4179018, -18.259879, 5
1863, 34, -21.5, -8.24947646
1864, 34, -20.418217, -8.25
1865, 34.4445619, -20.1517569, -7.58336351
1866, 37.9811659, -13.8833777, 4.19316717
1867, 37.9034021, -14.6756518, 4.42879442
1868, 37.7487276, -15.4501826, 4.66287782
1869, 37.516517, -16.2107723, 4.85627695
1870, 37.2239854, -16.9146669, 4.97459251
1871, 37.0276416, -17.317436, 4.9996179
1872, 37.7026362, -19.9853915, 4.71190326
1873, 37.9540865, -19.9977444, 4.29970752
1874, 37.2830636, -19.9647792, 4.95935589
1875, 38, -16.7351082, 4
1876, 38, -18.3612056, 4
1877, 38, -15.1232152, 4
1878, 37.6840794, -20.4467947, 4.70924461
1879, 37.9041911, -20.4794452, 4.37386636
1880, 37.3612516, -20.3989077, 4.92555948
1881, 37.6182638, -20.9038968, 4.70869803
1882, 37.8358052, -20.9583881, 4.36813039
1883, 37.2956128, -20.823077, 4.92787444
1884, 37.5089298, -21.3527506, 4.70710678
1885, 37.7130309, -21.4257792, 4.38268343
1886, 37.2032886, -21.2433905, 4.92395971
1887, 37.3546253, -21.7881892, 4.70710678
1888, 37.5505856, -21.8808715, 4.38268343
1889, 37.0756033, -21.6562216, 4.91718985
1890, 37.1583834, -22.2064065, 4.70710678
1891, 37.3443156, -22.3178499, 4.38268343
1892, 36.8801162, -22.0396195, 4.92387953
1893, 36.922094, -22.6033749, 4.70710678
1894, 37.0962075, -22.7325063, 4.38268343
1895, 36.6615147, -22.4101161, 4.92387953
1896, 36.6480327, -22.9752714, 4.70710678
1897, 36.8150853, -23.126679, 4.36100529
1898, 36.4076509, -22.757402, 4.92387953
1899, 36.3388388, -23.3185143, 4.70710678
1900, 36.4844145, -23.4791324, 4.38268343
1901, 36.1234168, -23.0808327, 4.92236161
1902, 35.9974901, -23.6297982, 4.70710678
1903, 36.1266215, -23.8039117, 4.38268343
1904, 35.803251, -23.3678971, 4.92455948
1905, 35.6270734, -23.9057906, 4.70749658
1906, 35.7403731, -24.0948197, 4.37481399
1907, 35.4575615, -23.622977, 4.92621619
1908, 35.2306676, -24.1425335, 4.70964248
1909, 35.3263346, -24.3448044, 4.37179325
1910, 35.0891936, -23.8434117, 4.92756126
1911, 34.8143355, -24.342483, 4.70831849
1912, 34.8892758, -24.5519271, 4.37173097
1913, 34.7011447, -24.026136, 4.92906937
1914, 34.3800484, -24.4997567, 4.70796075
1915, 34.434005, -24.7151636, 4.37179821
1916, 34.2997403, -24.1791489, 4.92672558
1917, 33.9324107, -24.6137679, 4.70754669
1918, 33.9646152, -24.8308735, 4.37716091
1919, 33.8842777, -24.2892821, 4.92554801
1920, 33.4756487, -24.6820516, 4.70843748
1921, 33.4866526, -24.9060405, 4.36747717
1922, 33.4589601, -24.3423483, 4.93074827
1923, 33, -24.6914723, 4.72240295
1924, 33, -24.9520103, 4.30606608
1925, 33, -24.2587361, 4.96594805
1926, 15.804923, -24.9017792, 4.09227793
1927, 14.8861355, -24.7079595, 3.9119246
1928, 15.0672102, -24.924205, 3.64092722
1929, 14.7648266, -24.3834733, 4.09347629
1930, 14.1731816, -24.7079595, 3.32681841
1931, 14.4036459, -24.924205, 3.09635408
1932, 14.0187846, -24.3834733, 3.48121543
1933, 13.5880754, -24.7079595, 2.61386445
1934, 13.8590728, -24.924205, 2.43278979
1935, 13.4065237, -24.3834733, 2.73517341
1936, 13.4077221, -24.9017792, 1.69507702
1937, 13.4077221, -24.9017792, -1.69507702
1938, 13.5880754, -24.7079595, -2.61386445
1939, 13.8590728, -24.924205, -2.43278979
1940, 13.4065237, -24.3834733, -2.73517341
1941, 14.1731816, -24.7079595, -3.32681841
1942, 14.4036459, -24.924205, -3.09635408
1943, 14.0187846, -24.3834733, -3.48121543
1944, 23.5, -22.245247, 2.42
1945, 23.5, -23.6190733, 2.42
1946, 23.5, -20.8692448, 2.42
1947, 25.4202383, -19.5, 1.47278133
1948, 25.8671008, -19.5, -0.50322322
1949, 24.5460705, -19.5, -2.18223202
1950, 22.4660849, -19.5, -2.18801728
1951, 21.1394875, -19.5, -0.533273413
1952, 21.6047184, -19.5, 1.5047617
1953, 24.5593357, -19.5, 2.17582349
1954, 25.8576383, -19.5, 0.54584032
1955, 25.4206522, -19.5, -1.47224158
1956, 23.4727323, -19.5, -2.41984637
1957, 21.6267487, -19.5, -1.53209978
1958, 21.1601395, -19.5, 0.617618825
1959, 22.4322591, -19.5, 2.17171115
1960, 17.5, -18.0205901, -4.8
1961, 18.4314697, -16.55, -5.24345243
1962, 18.6332979, -16.55, -6.39450703
1963, 18.0210687, -16.55, -7.08096596
1964, 16.9793395, -16.55, -7.08116264
1965, 16.3300865, -16.55, -6.26702512
1966, 16.5618022, -16.55, -5.25181224
1967, 18.0140732, -16.55, -4.91568974
1968, 18.6714153, -16.55, -5.73964198
1969, 18.461131, -16.55, -6.71848959
1970, 17.5002445, -16.55, -7.19999998
1971, 16.5618022, -16.55, -6.74818776
1972, 16.3303088, -16.55, -5.7320028
1973, 16.9793395, -16.55, -4.91883736
1974, 12.4530176, -19.5, 0.729216952
1975, 12.6646717, -19.5, -0.289032656
1976, 12.0010491, -19.5, -1.09038976
1977, 10.9635208, -19.5, -1.07340115
1978, 10.3249611, -19.5, -0.243482331
1979, 10.5705352, -19.5, 0.759009335
1980, 11.9785926, -19.5, 1.10043133
1981, 12.6602835, -19.5, 0.306173666
1982, 12.4602659, -19.5, -0.719645299
1983, 11.5329375, -19.5, -1.19954788
1984, 10.5865413, -19.5, -0.778198663
1985, 10.3220694, -19.5, 0.229083988
1986, 10.9425726, -19.5, 1.06267335
1987, 18.4447326, -19.5, 6.73991909
1988, 18.6288584, -19.5, 5.59296341
1989, 18.0036587, -19.5, 4.91081319
1990, 16.9587263, -19.5, 4.92900851
1991, 16.3300865, -19.5, 5.73297488
1992, 16.5618022, -19.5, 6.74818776
1993, 17.9823028, -19.5, 7.09881027
1994, 18.6678375, -19.5, 6.27596299
1995, 18.4482634, -19.5, 5.26461125
1996, 17.5362941, -19.5, 4.80054899
1997, 16.5897471, -19.5, 5.21805392
1998, 16.3300865, -19.5, 6.26702512
1999, 16.9696489, -19.5, 7.07644213
2000, 35.8313309, -18.9643489, 5.007125
2001, 35.6568542, -19.1568542, 7.26345884
2002, 35.9204689, -18.8660003, 9.5
2003, 36.1840836, -18.5751463, 7.25026539
2004, 36.4178964, -18.2598862, 9.5
2005, 36.6517569, -17.9445619, 7.25003369
2006, 36.8535635, -17.6078679, 9.5
2007, 37.0553701, -17.2711739, 7.24880164
2008, 34.6232264, -21.5, 5.54931243
2009, 35.1092175, -21.5, 5.20932792
2010, 34.1550959, -21.5, 6.22777665
2011, 34, -20.958491, 7
2012, 34.1414646, -20.3334264, 6.26118588
2013, 34.735343, -19.9360989, 5.45059927
2014, 35.3610535, -19.4249524, 5.1048094
2015, 34, -21.5, 8.25
2016, 34, -20.9591085, 9.5
2017, 34, -20.418217, 8.25
2018, 37.9614778, -14.2841371, 6.88744127
2019, 37.9614778, -14.2841371, 5.5803991
2020, 37.9614778, -14.2841371, 8.19372064
2021, 37.9807389, -13.8920686, 9.5
2022, 38, -13.5, 6.75
2023, 38, -13.5, 5.37865716
2024, 38, -13.5, 8.125
2025, 37.8462822, -15.0607226, 7.01536452
2026, 37.90388, -14.6724298, 9.5
2027, 37.6555227, -15.8222774, 7.12573205
2028, 37.7508748, -15.4416104, 9.5
2029, 37.3910363, -16.5614675, 7.20929959
2030, 37.5232153, -16.1920519, 9.5
2031, 37.2232032, -16.9163207, 9.5
2032, 24.4468861, -19.5, 0.737161218
2033, 24.6640447, -19.5, -0.291547528
2034, 23.987496, -19.5, -1.09651613
2035, 22.958293, -19.5, -1.07077242
2036, 22.3245951, -19.5, -0.24170904
2037, 22.5727075, -19.5, 0.761661789
2038, 23.9817071, -19.5, 1.09907156
2039, 24.6606324, -19.5, 0.30484812
2040, 24.4699692, -19.5, -0.706512436
2041, 23.5387425, -19.5, -1.19937443
2042, 22.5853824, -19.5, -0.776836252
2043, 22.3224467, -19.5, 0.231015437
2044, 22.9384017, -19.5, 1.06047508
2045, 12.4396653, -16.55, 0.746343819
2046, 12.668122, -16.55, -0.274756138
2047, 12.0253564, -16.55, -1.0788886
2048, 10.9800991, -16.55, -1.08152812
2049, 10.3259076, -16.55, -0.248006312
2050, 10.5336303, -16.55, 0.711427865
2051, 12.0040674, -16.55, 1.08899773
2052, 12.6664893, -16.55, 0.281607457
2053, 12.4354724, -16.55, -0.751592615
2054, 11.4813257, -16.55, -1.19985469
2055, 10.5626388, -16.55, -0.749235547
2056, 10.34583, -16.55, 0.328468644
2057, 10.9513416, -16.55, 1.06722723
2058, 19.8443899, -16.55, 1.87185367
2059, 20.4254247, -16.55, -0.664748435
2060, 18.7982403, -16.55, -2.70454656
2061, 16.1983488, -16.55, -2.7029066
2062, 14.5760874, -16.55, -0.671368275
2063, 15.1579615, -16.55, 1.87479487
2064, 18.8075757, -16.55, 2.7000455
2065, 20.4245315, -16.55, 0.668666875
2066, 19.843682, -16.55, -1.8727399
2067, 17.5073125, -16.55, -2.99999109
2068, 15.1556998, -16.55, -1.87196594
2069, 14.5755713, -16.55, 0.669116318
2070, 16.2009804, -16.55, 2.70417232
2071, 18.4265086, -16.55, 6.76261511
2072, 18.6712092, -16.55, 5.73871658
2073, 18.0206605, -16.55, 4.91883736
2074, 16.9793395, -16.55, 4.91883736
2075, 16.3300865, -16.55, 5.73297488
2076, 16.5618022, -16.55, 6.74818776
2077, 17.9792639, -16.55, 7.10013913
2078, 18.6739892, -16.55, 6.24849404
2079, 18.4455035, -16.55, 5.26106628
2080, 17.5, -16.55, 4.8
2081, 16.5488714, -16.55, 5.26832084
2082, 16.3300865, -16.55, 6.26702512
2083, 17.0360951, -16.55, 7.10670331
2084, 24.4607805, -16.55, 0.718958197
2085, 24.6746508, -16.55, -0.245347501
2086, 24.0253878, -16.55, -1.07887334
2087, 22.9748462, -16.55, -1.07898726
2088, 22.3292357, -16.55, -0.263269692
2089, 22.5602211, -16.55, 0.746200818
2090, 23.9992951, -16.55, 1.09119401
2091, 24.6555989, -16.55, 0.323405603
2092, 24.4301658, -16.55, -0.758150132
2093, 23.5131842, -16.55, -1.19992757
2094, 22.5697993, -16.55, -0.758107317
2095, 22.33053, -16.55, 0.268960757
2096, 22.9878633, -16.55, 1.08522623
2097, 11.5, -18.0164249, 1.2
2098, 17.5, -18.0249047, 7.2
2099, 35.0751463, -19.6840836, 7.35826723
2100, 35.3660003, -19.4204689, 9.5
2101, 34.4445619, -20.1517569, 7.59110673
2102, 34.7582262, -19.9191276, 9.5
2103, 34.2222809, -20.284987, 9.5
2104, 23.5, -18.0258839, 1.2
2105, 17.5, -17.525, 3
2106, 19.8376186, -18.5, 1.88030303
2107, 20.4303126, -18.5, -0.64285944
2108, 18.7980856, -18.5, -2.70462082
2109, 16.1888229, -18.5, -2.69829847
2110, 14.5711934, -18.5, -0.649685983
2111, 15.158312, -18.5, 1.87523257
2112, 18.8062428, -18.5, 2.70069062
2113, 20.4437026, -18.5, 0.578459262
2114, 19.8646985, -18.5, -1.8461314
2115, 17.5010268, -18.5, -2.99999982
2116, 15.1510828, -18.5, -1.86616933
2117, 14.5574762, -18.5, 0.584425835
2118, 16.2049548, -18.5, 2.70607796
2119, 21.6236503, -21.5, 9.5
2120, 25.7490521, -21.5, 9.5
2121, 29.875, -21.5, 9.5
2122, 19.5764508, -21.5, 9.5
2123, 23.6876034, -21.5, 9.5
2124, 27.8123344, -21.5, 9.5
2125, 31.9376224, -21.5, 9.5
2126, 38, -4.48927384, 9.5
2127, 38, -9, 9.5
2128, 38, -2.30141179, 9.5
2129, 38, -6.74786141, 9.5
2130, 38, -11.25, 9.5
2131, 20.9875827, -19, 9.5
2132, 24.4971093, -19, 9.5
2133, 19.3096681, -19, 9.5
2134, 22.7533244, -19, 9.5
2135, 26.2528217, -19, 9.5
2136, 28.2779451, -18.9870717, -7.12484849
2137, 28.2775028, -18.9870923, -4.75051621
2138, 28.2786767, -18.9870377, 7.12539415
2139, 28.2777504, -18.9870808, 4.74939604
2140, 28.2776135, -18.9870872, -2.37452953
2141, 28.277207, -18.9871061, 2.37516064
2142, 28.2775291, -18.9870911, -0.000862127015
2143, 28.8328191, -18.9353765, -7.12497127
2144, 28.833246, -18.9353165, -4.74908317
2145, 28.8329189, -18.9353624, 7.12503142
2146, 28.8331076, -18.935336, 4.74976721
2147, 28.8342741, -18.9351722, -2.37564171
2148, 28.8330222, -18.9353479, 2.37479047
2149, 28.8327109, -18.9353916, -0.000755998283
2150, 29.3802621, -18.832423, -7.12499588
2151, 29.380157, -18.8324479, -4.74981993
2152, 29.3806022, -18.8323425, 7.12492985
2153, 29.380464, -18.8323752, 4.74956799
2154, 29.3799193, -18.8325041, -2.3749038
2155, 29.3803183, -18.8324097, -0.000921979945
2156, 29.380182, -18.8324419, 2.3749259
2157, 29.9157696, -18.679094, -7.12497958
2158, 29.9158146, -18.6790788, -4.74989537
2159, 29.9157404, -18.6791038, 7.12510309
2160, 29.9157465, -18.6791017, 4.74971025
2161, 29.9152335, -18.6792748, -2.37434985
2162, 29.9158785, -18.6790572, 2.37497327
2163, 29.9158922, -18.6790526, -0.000780725672
2164, 30.434843, -18.4766615, -7.12505112
2165, 30.4347668, -18.4766953, -4.74996115
2166, 30.4345929, -18.4767726, 7.1251187
2167, 30.4345741, -18.476781, 4.74996981
2168, 30.434414, -18.4768522, -2.37447538
2169, 30.4344165, -18.4768511, 2.37476219
2170, 30.4345743, -18.4767809, 7.13956164e-05
2171, 30.9325612, -18.2270801, -7.12502707
2172, 30.9325134, -18.2271069, -4.75012154
2173, 30.9326043, -18.2270559, 7.125
2174, 30.9326043, -18.2270559, 4.75
2175, 30.9325248, -18.2271005, 0.000206088641
2176, 30.9325952, -18.227061, -2.3750234
2177, 30.9326765, -18.2270154, 2.37473593
2178, 31.4051872, -17.932239, -7.12499451
2179, 31.4053549, -17.9321232, -4.75030615
2180, 31.4050635, -17.9323244, 7.12513188
2181, 31.4051518, -17.9322634, 4.75
2182, 31.4051661, -17.9322536, -2.37496982
2183, 31.405214, -17.9322205, 2.37503167
2184, 31.4051425, -17.9322698, 1.01090124e-05
2185, 31.8482417, -17.594923, -7.12500534
2186, 31.8482777, -17.5948928, -4.74989732
2187, 31.8481643, -17.5949878, 7.12523463
2188, 31.8483665, -17.5948185, 4.75030252
2189, 31.8482901, -17.5948824, 1.13365469e-05
2190, 31.8482648, -17.5949036, -2.37501557
2191, 31.8483282, -17.5948505, 2.37500644
2192, 32.258162, -17.2178594, -7.12501663
2193, 32.258235, -17.2177857, -4.74973765
2194, 32.2579895, -17.2180335, 7.12500952
2195, 32.2582211, -17.2177997, 4.75003119
2196, 32.2582435, -17.2177771, 8.36416927e-06
2197, 32.25821, -17.2178109, -2.37501254
2198, 32.2582546, -17.2177659, 2.37499555
2199, 32.631345, -16.8043297, -7.125
2200, 32.6313867, -16.804279, 7.12506814
2201, 32.6313977, -16.8042655, 4.74988075
2202, 32.631345, -16.8043297, -4.75
2203, 32.6313591, -16.8043126, 0.000144581244
2204, 32.6313777, -16.8042899, -2.3750054
2205, 32.6313327, -16.8043447, 2.37485621
2206, 32.9644511, -16.3580511, -7.1249517
2207, 32.9644911, -16.3579919, 7.125
2208, 32.964578, -16.3578635, -4.74976578
2209, 32.9644911, -16.3579919, 4.75
2210, 32.9645058, -16.3579701, 0.000136364242
2211, 32.9646118, -16.3578134, -2.37467511
2212, 32.9645697, -16.3578756, 2.37482333
2213, 33.2547405, -15.8827043, -7.1249955
2214, 33.2548267, -15.882547, 7.12493434
2215, 33.2546768, -15.8828204, 4.75002702
2216, 33.2546696, -15.8828335, -4.7494264
2217, 33.2548786, -15.8824524, -2.37522063
2218, 33.2548384, -15.8825258, 2.37524176
2219, 33.2548368, -15.8825287, 9.93438418e-05
2220, 33.4996698, -15.3824176, -7.12502079
2221, 33.4996121, -15.3825507, -4.75079198
2222, 33.4997022, -15.3823427, 7.12510784
2223, 33.4998446, -15.382014, 4.75017008
2224, 33.4996227, -15.3825264, 9.21841879e-05
2225, 33.4996819, -15.3823896, -2.37497364
2226, 33.4993778, -15.3830916, 2.37577775
2227, 33.6970683, -14.8616376, -7.12503634
2228, 33.6970909, -14.8615683, -4.74927191
2229, 33.6970809, -14.861599, 7.12507865
2230, 33.6972137, -14.8611926, 4.7504946
2231, 33.6970657, -14.8616454, -2.37506164
2232, 33.6970733, -14.8616222, 0.000108655186
2233, 33.6969346, -14.8620466, 2.37528718
2234, 33.845282, -14.3247489, -7.125
2235, 33.845282, -14.3247489, -4.75
2236, 33.8453334, -14.3245221, 7.12503685
2237, 33.8453014, -14.3246631, 4.75015667
2238, 33.8452907, -14.3247107, -2.37509941
2239, 33.8452072, -14.3250791, 2.37510558
2240, 33.8452874, -14.3247249, 5.18826384e-05
2241, 33.9430073, -13.7764957, -7.12507863
2242, 33.9430157, -13.7764316, -4.75
2243, 33.9430157, -13.7764316, 7.125
2244, 33.9430157, -13.7764316, 4.75
2245, 33.9430095, -13.7764787, -2.37497778
2246, 33.9430068, -13.7764997, 2.3749904
2247, 33.943, -13.7765516, 1.55461806e-06
2248, 33.9895652, -13.5, -7.125
2249, 33.9895652, -13.5, 7.125
2250, 33.9895652, -13.5, 4.75
2251, 33.9895652, -13.5, -4.75
2252, 33.9895564, -13.5, -2.37497437
2253, 33.9895525, -13.5, 2.37499134
2254, 33.9895931, -13.5, -1.74991198e-05
2255, 34, -0.537714451, 1.38724804
2256, 34, -6.25551933, -4.67927459
2257, 34, 5.52360379, -6.09707496
2258, 34, 5.56869621, 6.26129234
2259, 34, 6.96673883, -4.65743726
2260, 34, -7.84491524, 4.31745063
2261, 34, -8.62383424, -3.93801625
2262, 34, -5.63578304, 5.13411468
2263, 34, 3.63702837, 7.43000726
2264, 34, 6.86881075, 4.42798334
2265, 34, -2.24775135, -8.42863308
2266, 34, 4.06004212, -5.69589279
2267, 34, 4.16790406, 3.90756111
2268, 34, -1.77200209, -2.11008798
2269, 34, 0.0842227449, -0.95295375
2270, 34, -4.36830291, 7.04006103
2271, 34, -4.76704315, -6.88575007
2272, 34, -10.5110665, 2.92893855
2273, 34, -10.1426164, 6.14810103
2274, 34, -2.10337045, 0.92327672
2275, 34, 1.75656049, 0.981502416
2276, 34, 7.76483151, 3.26410167
2277, 34, -3.98225459, -4.78675032
2278, 34, -4.00594914, 3.85737256
2279, 34, 2.72221103, -2.60803142
2280, 34, 4.19063676, 5.9127363
2281, 34, 3.71676642, -7.53685673
2282, 34, -6.89033693, 7.09298552
2283, 34, 4.79306969, 7.09715647
2284, 34, 6.45366864, 5.54315733
2285, 34, 5.56702604, 4.53286457
2286, 34, -10.8119732, -2.50933263
2287, 34, 6.45655847, -5.54659979
2288, 34, 5.59609194, -4.75663491
2289, 34, 7.64575066, -3.71965211
2290, 34, -10.6230748, -6.33834903
2291, 34, 4.76672918, -7.01878451
2292, 34, 2.69760767, -8.0844632
2293, 34, -10.3357198, 0.285225298
2294, 34, 6.17623964, -3.56783718
2295, 34, 2.70101595, 2.82695776
2296, 34, -3.27002824, -3.11203257
2297, 34, -2.48703434, 2.57311178
2298, 34, -7.47648312, -6.87113708
2299, 34, 1.59293739, -1.26986232
2300, 34, 4.29173302, -3.74712243
2301, 34, 2.84176795, 8.26002165
2302, 34, 1.79145949, 8.68341447
2303, 34, -1.47281071, -0.359103162
2304, 34, 8.16676981, -2.70638442
2305, 34, -12.0615374, -5.54417451
2306, 34, -12.0615374, -7.91917451
2307, 34, -9.81153741, -7.91917451
2308, 34, -11.8180609, 7.82294504
2309, 34, -11.8249348, 5.4532228
2310, 34, -9.5786436, 7.82990577
2311, 34, 1.18621769, -8.88512746
2312, 34, 0.56621828, -8.92576437
2313, 34, -3.37680589, -8.95385087
2314, 34, -1.13258791, -8.96441519
2315, 34, -0.56621828, -8.92576437
2316, 34, -1.70215001, -8.42576675
2317, 34, 1.79560874, -8.76391205
2318, 34, 2.5781943, -8.63037928
2319, 34, 3.16655014, -8.43065938
2320, 34, 1.91502212, -8.21799598
2321, 34, 3.67612952, -8.15685615
2322, 34, 4.23338321, -7.88204903
2323, 34, 3.20718705, -7.81065997
2324, 34, 4.75836459, -7.62301292
2325, 34, 5.27498138, -7.27782062
2326, 34, 4.2417478, -7.27782062
2327, 34, 5.65395601, -6.81663886
2328, 34, 6.1205591, -6.40729469
2329, 34, 5.14516438, -6.55728884
2330, 34, 6.58703645, -6.13205711
2331, 34, 6.9967076, -5.66491668
2332, 34, 5.99008113, -5.82183737
2333, 34, 7.25179778, -5.22033542
2334, 34, 7.5983053, -4.70385944
2335, 34, 6.71164865, -5.10201852
2336, 34, 7.93621274, -4.23661647
2337, 34, 8.21130311, -3.67757236
2338, 34, 7.30624474, -4.18854468
2339, 34, 8.47181269, -3.17093852
2340, 34, 8.69767185, -2.61892449
2341, 34, 7.90626023, -3.21301827
2342, 34, 8.92695353, -1.52983987
2343, 34, 8.99990718, -0.903384295
2344, 34, 8.49734341, -1.74465111
2345, 34, 9.0399381, -0.310878404
2346, 34, 9.08972138, 0.339111167
2347, 34, 8.60685799, 2.06630394
2348, 34, 8.76952212, 1.49845457
2349, 34, 8.48994354, 2.87784636
2350, 34, 8.26970714, 3.44576527
2351, 34, 7.96508205, 2.49287977
2352, 34, 7.99279552, 4.00278162
2353, 34, 7.5525678, 4.59498318
2354, 34, 7.20250612, 5.10688024
2355, 34, 7.32507393, 3.87193477
2356, 34, 6.99559116, 5.66400163
2357, 34, 6.58618109, 6.13065125
2358, 34, 6.66013655, 4.98365248
2359, 34, 6.14360769, 6.48911597
2360, 34, 5.67649271, 6.89918827
2361, 34, 6.01039771, 5.90226936
2362, 34, 5.28792452, 7.31638028
2363, 34, 4.77138066, 7.66232203
2364, 34, 5.18207826, 6.6777744
2365, 34, 4.19442632, 7.82699105
2366, 34, 3.63256053, 8.1017508
2367, 34, 4.21385205, 7.25697494
2368, 34, 3.23970689, 8.52110066
2369, 34, 2.6632865, 8.72015593
2370, 34, 3.23432414, 7.85113016
2371, 34, 2.12917254, 8.91509775
2372, 34, 1.51425783, 9.06112461
2373, 34, 2.31962297, 8.45195045
2374, 34, -0.0298476609, 9.07406131
2375, 34, 0.617735473, 9.06911594
2376, 34, 0.9142374, 8.75920591
2377, 34, -1.17158805, 8.73989648
2378, 34, -3.29242342, 8.54640399
2379, 34, -1.95799154, -3.19955763
2380, 34, -0.886296335, -2.68041185
2381, 34, 1.40347942, -2.85537672
2382, 34, 2.40843077, -3.47643952
2383, 34, -0.832978154, -1.52766761
2384, 34, 0.0433633943, -2.15575303
2385, 34, 0.832781071, -1.11760211
2386, 34, 0.791379266, -2.29164563
2387, 34, 2.15454033, -1.90870479
2388, 34, -7.99888443, 3.01757454
2389, 34, -6.9290088, 3.53104238
2390, 34, -5.00652332, 3.33771583
2391, 34, -3.93458378, 2.78714368
2392, 34, -6.73622585, 4.73897777
2393, 34, -5.83844685, 3.88800111
2394, 34, -4.82977861, 4.51080921
2395, 34, 4.0089905, 2.80510481
2396, 34, 5.07875097, 3.33909982
2397, 34, 6.89039183, 3.05201837
2398, 34, 6.42603882, 3.55307043
2399, 34, 5.7870258, 3.59129954
2400, 34, 6.21415607, 4.47250148
2401, 34, 4.86633223, 4.24506006
2402, 34, 1.96331799, 8.17843582
2403, 34, -12.0085258, 3.83762561
2404, 34, -12.0140274, 1.45900877
2405, 34, -10.3308964, 4.54175761
2406, 34, -12.170119, -1.2607162
2407, 34, -12.15886, -3.62846611
2408, 34, -10.4485157, 1.63082115
2409, 34, -11.9199867, 0.144743727
2410, 34, -10.5979562, -1.10546114
2411, 34, -10.721072, -4.42434786
2412, 34, -8.23824156, -8.18556854
2413, 34, -5.98824156, -8.18556854
2414, 34, -9.04977896, -6.60474306
2415, 34, -4.63352157, -8.19287503
2416, 34, -3.53727753, -7.66571732
2417, 34, -6.12176313, -6.87844357
2418, 34, -5.70656507, 8.29892522
2419, 34, -7.94616497, 8.29763902
2420, 34, -3.26605203, 7.37326908
2421, 34, -4.44974812, 8.2758686
2422, 34, -5.63179873, 7.06595859
2423, 34, -8.51812178, 6.62232758
2424, 34, -3.26340822, -5.68376498
2425, 34, -3.01141738, -4.57972097
2426, 34, -2.65989258, -3.72911509
2427, 34, -2.51663838, -2.61059801
2428, 34, -3.62403548, -3.94978087
2429, 34, -2.51814039, -7.54012983
2430, 34, -3.65367814, -6.73356462
2431, 34, -4.3744197, -5.83916353
2432, 34, 2.62108476, -7.33262142
2433, 34, 3.05031115, -5.0342922
2434, 34, 3.30230199, -6.13833621
2435, 34, 3.88840427, -6.61637476
2436, 34, 3.13066414, -7.05881819
2437, 34, 3.1661566, -4.05990702
2438, 34, 4.17588757, -4.72150761
2439, 34, 3.50151215, -3.20334981
2440, 34, -9.48372481, -0.156391917
2441, 34, -9.31682907, 1.03067671
2442, 34, -9.2858309, 2.29113658
2443, 34, -9.19780547, 3.62524636
2444, 34, -7.89556658, -3.15439059
2445, 34, -8.72982404, -2.32937032
2446, 34, -9.75178716, -3.23236356
2447, 34, -9.71639659, -1.52395687
2448, 34, -5.51581008, -3.60243979
2449, 34, -6.70085704, -3.54554237
2450, 34, -7.44917368, -4.31895146
2451, 34, -3.25171416, -1.88714843
2452, 34, -4.0559175, -2.76571956
2453, 34, -4.408977, -3.58692727
2454, 34, -5.11888696, -4.73301246
2455, 34, -2.96319626, 1.33521207
2456, 34, -2.67105092, 0.162851973
2457, 34, -2.57953906, -1.35553891
2458, 34, -2.45469631, -0.485026668
2459, 34, -1.61638422, -1.2340179
2460, 34, -1.78436311, 0.27101963
2461, 34, -3.22700727, 2.11534696
2462, 34, -2.291074, 1.76657469
2463, 34, -3.27405617, 3.18792487
2464, 34, 2.53840192, 0.192237036
2465, 34, 2.79595006, 1.35984597
2466, 34, 3.32347267, 2.24058315
2467, 34, 3.44411599, 3.36070839
2468, 34, 2.21926166, 1.92611023
2469, 34, 3.74590351, -2.557877
2470, 34, 3.00860413, -1.60544852
2471, 34, 2.51447516, -0.92287261
2472, 34, 1.66872029, -0.163480052
2473, 34, 6.66794248, -3.02873204
2474, 34, 5.46060626, -3.0738943
2475, 34, 4.55844542, -3.0468597
2476, 34, 5.21585845, -3.67456573
2477, 34, 7.66634127, -2.55582247
2478, 34, 7.38397676, -3.03055405
2479, 34, 6.91099515, -3.64374465
2480, 34, -3.55315511, 6.21812671
2481, 34, -1.81764309, 3.09504184
2482, 34, -2.65532196, 3.93563013
2483, 34, -4.10763516, 5.28350408
2484, 34, -5.01166736, 6.0849007
2485, 34, -3.31691244, 4.63752495
2486, 34, 0.320611575, 2.43251179
2487, 34, -0.850220858, 2.48919122
2488, 34, -1.50846388, 1.99053676
2489, 34, 2.74201107, 4.07787875
2490, 34, 1.92557569, 3.20796789
2491, 34, 1.4598956, 2.30458842
2492, 34, 0.62426979, 1.1688987
2493, 34, 2.87005117, 7.55046494
2494, 34, 3.2112721, 6.42044107
2495, 34, 3.94418651, 6.6607954
2496, 34, 3.38422229, 5.65562898
2497, 34, 3.39052501, 4.65666484
2498, 34, 4.17456262, 4.91222124
2499, 34, 2.458494, 7.94029368
2500, 34, -0.220821479, 0.220014077
2501, 34, 0.927618397, 0.00143800815
2502, 34, -0.695945621, -0.64926165
2503, 34, -1.00523062, 0.5245301
2504, 34, -1.32950199, 1.16031931
2505, 34, -6.86680479, -5.7724558
2506, 34, -8.06352067, -5.4092777
2507, 34, -5.51089994, -5.78249195
2508, 34, 4.79182296, -5.89648387
2509, 34, 4.82806703, -5.22626385
2510, 34, 5.55984786, -5.42685494
2511, 34, 4.41338565, -6.35733865
2512, 34, 6.02632521, -5.15161735
2513, 34, 4.88052346, 6.09229528
2514, 34, 4.50573782, 6.50654198
2515, 34, 5.56880197, 5.39383869
2516, 34, 4.87408175, 5.22729053
2517, 34, 6.01161077, 5.0366246
2518, 34, 6.28141539, -4.70703608
2519, 34, 5.8876428, -4.15759852
2520, 34, 6.57148923, -4.11263722
2521, 34, -7.37032718, 5.70936926
2522, 34, -6.26770437, 6.11545321
2523, 34, -8.99942356, 5.23027309
2524, 34, -9.63298272, -5.14130599
2525, 34, 4.94391248, -4.25187867
2526, 35.9960205, 0.918569236, -9.43979379
2527, 35.9987378, 0.317064682, -9.47921848
2528, 35.9869338, 2.16016779, -9.2356932
2529, 35.9851028, 1.55058149, -9.35694745
2530, 37.99, 0.611972237, -9.46997653
2531, 37.9937805, 0.232748257, -9.49714843
2532, 38.2053668, 0.314906245, -9.49477931
2533, 38.2128002, 0.651866339, -9.47760889
2534, 38.2163921, 0.917879165, -9.45555381
2535, 38.2198233, 1.24023558, -9.41869501
2536, 38.2290457, 3.64665303, -8.77222444
2537, 38.2177018, 3.92880943, -8.64953504
2538, 38.2516797, -2.47420717, 9.172148
2539, 37.9939043, 0.227882452, 9.49726643
2540, 38.2047175, 0.324025406, 9.49447247
2541, 38.2630651, -4.72555645, 8.24130549
2542, 38.245, 3.63549261, 8.77685556
2543, 38.2213206, 1.24012387, 9.41870972
2544, 38.2166828, 0.915494835, 9.45578496
2545, 38.2135129, 0.648843535, 9.47781631
2546, 38.2492417, -0.0153812724, -9.49998755
2547, 38.2572079, -2.47420578, -9.17214837
2548, 38.2660118, -4.72653139, -8.24074639
2549, 38.2156183, 4.17960775, -8.53117103
2550, 38.2058977, 4.49600603, -8.36874721
2551, 38.2150585, 4.75263732, -8.22571812
2552, 38.2058531, 5.00138992, -8.0768867
2553, 38.2151262, 5.30321684, -7.88199792
2554, 38.2172288, 5.51563331, -7.73484254
2555, 38.2245093, 5.78097428, -7.53858981
2556, 38.2234683, 7.54669762, -5.77038604
2557, 38.2184735, 7.72973305, -5.52279159
2558, 38.2198012, 7.88074638, -5.30507648
2559, 38.2015743, 8.0759071, -5.00297157
2560, 38.2148421, 8.22682382, -4.75072309
2561, 38.2042051, 8.36860111, -4.49627796
2562, 38.2176789, 8.53271345, -4.17645796
2563, 38.218169, 8.64776904, -3.93269508
2564, 38.2220041, 8.77322714, -3.64424004
2565, 38.2244188, 9.4208134, -1.22404037
2566, 38.2196217, 9.45486306, -0.924967281
2567, 38.2190991, 9.47729067, -0.656476607
2568, 38.2041765, 9.49523559, -0.300833979
2569, 38.2158651, 9.49999594, -0.00878485182
2570, 38.2056771, 9.49568884, 0.286170446
2571, 38.2163549, 9.4778391, 0.648510541
2572, 38.2183403, 9.4547883, 0.92573115
2573, 38.2304477, 9.41656849, 1.25627941
2574, 38.2223297, 8.77125578, 3.64898234
2575, 38.2191492, 8.64936079, 3.92919304
2576, 38.2175496, 8.53508151, 4.17161643
2577, 38.2059225, 8.37013477, 4.49342229
2578, 38.2165329, 8.23072846, 4.74395499
2579, 38.2048783, 8.0800792, 4.9962306
2580, 38.2170915, 7.89508059, 5.28372051
2581, 38.2141355, 7.72751019, 5.5259014
2582, 38.2435224, 7.52737499, 5.79556949
2583, 38.2480742, 5.8196092, 7.50880475
2584, 38.245, 5.53353812, 7.7220435
2585, 38.245, 5.27791721, 7.89896132
2586, 38.245, 5.01664458, 8.06742072
2587, 38.245, 4.75, 8.22724134
2588, 38.245, 4.478269, 8.37825201
2589, 38.245, 4.20174256, 8.52029104
2590, 38.245, 3.92071678, 8.65320634
2591, 38.2652371, -6.72154959, 6.71347683
2592, 38.2633719, -9.17729834, 2.45503467
2593, 38.2667215, -9.49999998, 0.000573988718
2594, 38.2556282, -8.22897985, 4.74698754
2595, 38.268245, -9.17702577, -2.45605336
2596, 38.2656867, -8.2241018, -4.75543368
2597, 38.2688811, -6.72001422, -6.71501369
2598, 37.99, 0.602207842, 9.47073888
2599, 37.99, 1.85101776, 9.30767816
2600, 37.99, 3.05040584, 8.98620584
2601, 37.99, 4.19724443, 8.51116975
2602, 37.99, 5.272267, 7.89050518
2603, 37.99, 6.25707962, 7.13483187
2604, 37.99, 7.12867836, 6.26426228
2605, 37.99, 7.89096756, 5.27191397
2606, 37.99, 8.51375972, 4.19233148
2607, 37.99, 8.98549746, 3.05289243
2608, 37.99, 9.30685982, 1.85519049
2609, 37.99, 9.46957602, 0.622054524
2610, 37.99, 9.46943748, -0.625299255
2611, 37.99, 9.30854758, -1.84672953
2612, 37.99, 8.98587689, -3.05172047
2613, 37.99, 8.51314273, -4.19359084
2614, 37.99, 7.88812998, -5.27594546
2615, 37.99, 7.13592191, -6.25602667
2616, 37.99, 6.25658246, -7.13559266
2617, 37.99, 5.27276077, -7.8904307
2618, 37.99, 4.19685993, -8.5115818
2619, 37.99, 3.05099024, -8.98601922
2620, 37.99, 1.85067103, -9.30770376
2621, 38.5, 0.0124654474, 8.78725952
2622, 38.5, -2.40902095, 8.28481918
2623, 38.5, 2.40567857, 8.29135943
2624, 38.5, -4.75019241, 7.36056384
2625, 38.5, 4.72614101, 7.34968865
2626, 38.5, -6.56691978, 5.73644221
2627, 38.5, -8.6274461, 1.27499779
2628, 38.5, -7.99953986, 3.59915443
2629, 38.5, -8.63273728, -1.27583618
2630, 38.5, -7.97217538, -3.60174851
2631, 38.5, -6.53785464, -5.70701232
2632, 38.5, -4.74955792, -7.34676004
2633, 38.5, -2.41348673, -8.28049045
2634, 38.5, 0.0135458906, -8.79468605
2635, 38.5, 2.4155763, -8.30746823
2636, 38.5, 6.57830249, -5.73137842
2637, 38.5, 4.77765182, -7.38961812
2638, 38.5, 8.0161138, -3.6342893
2639, 38.5, 8.69547161, -1.26375776
2640, 38.5, 8.67483073, 1.26500964
2641, 38.5, 8.01021596, 3.63973185
2642, 38.5, 6.56174514, 5.70248342
2643, 35.9971628, 3.33506793, -8.87883599
2644, 35.9957669, 2.75824573, -9.07464075
2645, 35.9951592, 4.47429434, -8.36320432
2646, 35.9919393, 3.92385799, -8.63464949
2647, 35.9969487, 0.297450276, 9.48050408
2648, 35.992104, 0.907505936, 9.44051892
2649, 35.9933978, 5.5255551, -7.70903199
2650, 35.9945636, 5.00753623, -8.05516113
2651, 35.99674, 1.56243716, 9.35458921
2652, 35.995005, 2.15634237, 9.23645412
2653, 35.995, 6.48394421, -6.92235
2654, 35.995, 6.01680379, -7.33202115
2655, 35.9939204, 2.75683483, 9.07511968
2656, 35.9922011, 3.34102332, 8.87681441
2657, 35.995, 7.33202115, -6.01680379
2658, 35.995, 6.92235, -6.48394421
2659, 35.9963344, 3.91716269, 8.63795125
2660, 35.9954028, 4.47252483, 8.36407695
2661, 35.9955018, 8.0550221, -5.0077443
2662, 35.9920516, 7.71087542, -5.52279621
2663, 35.9954958, 5.00815388, 8.05474842
2664, 35.9949619, 5.52436707, 7.7098258
2665, 35.9938981, 8.63962103, -3.91377671
2666, 35.9945956, 8.36447796, -4.47171166
2667, 35.9944196, 6.01648162, 7.33230368
2668, 35.9982642, 6.48458012, 6.92179232
2669, 35.9972548, 9.07361334, -2.76127237
2670, 35.9992777, 8.87535761, -3.34531492
2671, 35.9972226, 6.92242547, 6.48385816
2672, 35.9987194, 7.33161135, 6.01727108
2673, 36.0006111, 9.35547885, -1.55796466
2674, 35.9949582, 9.23800324, -2.14855441
2675, 35.9952623, 7.70921743, 5.52527757
2676, 35.996243, 8.05409402, 5.00913327
2677, 35.9866205, 9.47927063, -0.31626905
2678, 35.9874845, 9.43859413, -0.93687246
2679, 35.9963314, 8.36341726, 4.47386254
2680, 35.993746, 8.63819527, 3.91666787
2681, 35.9939577, 9.43962654, 0.921120987
2682, 36.000811, 9.47878032, 0.323749739
2683, 35.9985554, 8.8783401, 3.33652879
2684, 35.9945321, 9.07648643, 2.75280854
2685, 35.9988547, 9.23545196, 2.16138055
2686, 35.9958368, 9.35598187, 1.55543577
2687, 34.275, -1.33107782, -3.75493167
2688, 34.2813749, 1.15277878, -3.6583764
2689, 34.4125, -0.690098416, -3.48288574
2690, 34.1375, -0.690098416, -3.48288574
2691, 34.1375, -1.71389213, -4.0315809
2692, 34.275, 2.04058017, -4.37269162
2693, 34.4125, -1.71389213, -4.0315809
2694, 34.275, -2.54456185, -5.41922036
2695, 34.275, -2.54456185, -6.58077964
2696, 34.275, -2.04058017, -4.37269162
2697, 34.2916128, -2.05158369, -7.61341389
2698, 34.275, 1.71233505e-14, -8.61
2699, 34.275, 1.13243656, -8.35152875
2700, 34.2825458, -1.14230292, -8.3467518
2701, 34.275, 2.04058017, -7.62730838
2702, 34.275, 2.54456185, -6.58077964
2703, 34.275, 2.54456185, -5.41922036
2704, 34.2463998, -7.39502747, 2.2059008
2705, 34.2773436, -4.87106349, 2.35321107
2706, 34.3239387, -6.67352741, 2.52159886
2707, 34.1202032, -6.69557872, 2.51560534
2708, 34.1342462, -7.71248115, 1.96964675
2709, 34.27572, -3.95851379, 1.62617159
2710, 34.3700558, -7.7339655, 1.95075976
2711, 34.2792027, -8.5467538, 0.571091134
2712, 34.2761035, -8.54671204, -0.571277338
2713, 34.2720312, -8.03056502, 1.63978831
2714, 34.2669032, -8.02079048, -1.65181895
2715, 34.2737282, -6.0014796, -2.60999958
2716, 34.275, -4.86756344, -2.35152875
2717, 34.276833, -7.14617567, -2.34486275
2718, 34.2684336, -3.97160565, -1.64247263
2719, 34.275, -3.45543815, -0.580779638
2720, 34.2751793, -3.45566347, 0.581765965
2721, 34.275, 4.86756344, 2.35152875
2722, 34.2776534, 7.12754258, 2.3538793
2723, 34.275, 3.95941983, 1.62730838
2724, 34.275559, 8.04367661, 1.62341797
2725, 34.2765874, 3.45649033, 0.585370441
2726, 34.275, 3.45543815, -0.580779638
2727, 34.2749099, 3.9603095, -1.62842337
2728, 34.2760096, 4.86807002, -2.35177264
2729, 34.2796881, 5.98410705, -2.60995161
2730, 34.2762633, 8.03650302, -1.63240787
2731, 34.2736512, 8.5440298, -0.583105815
2732, 34.2734599, 7.13161099, -2.35192614
2733, 34.2840956, 8.53731357, 0.61166974
2734, 34.2385363, -1.33060637, 8.24534779
2735, 34.275, 1.13243656, 8.35152875
2736, 34.3478968, -0.653520707, 8.52685787
2737, 34.1084054, -0.660454106, 8.52505453
2738, 34.1257396, -1.7307874, 7.95358004
2739, 34.275, 2.04058017, 7.62730838
2740, 34.3781714, -1.73573789, 7.9491829
2741, 34.2742496, -2.54476942, 6.57986949
2742, 34.2759675, -2.03916794, 7.62907769
2743, 34.275, -2.54456185, 5.41922036
2744, 34.275, -2.04058017, 4.37269162
2745, 34.275, -1.13243656, 3.64847125
2746, 34.275, 1.85929266e-14, 3.39
2747, 34.275, 1.13243656, 3.64847125
2748, 34.2824287, 2.02735926, 4.35624989
2749, 34.275, 2.54456185, 6.58077964
2750, 34.275, 2.54456185, 5.41922036
2751, 39.4836267, -3.05661885, 7.39304276
2752, 39.4598919, 2.47273009, 7.60825906
2753, 38.9690402, -1.55998499, 7.84642892
2754, 39.9737661, -1.56560674, 7.84530914
2755, 38.9462937, -3.90770049, 6.98067883
2756, 39.475, 4.70228202, 6.47213595
2757, 39.981005, -3.8992893, 6.98538066
2758, 39.4777967, -6.47254661, 4.70171675
2759, 39.4660269, -4.71057728, 6.46610097
2760, 39.4996384, -7.61696498, 2.44578096
2761, 39.4605883, -7.99999985, -0.00153065171
2762, 39.5030795, -4.67934929, -6.48873564
2763, 39.4789904, -6.47192753, -4.70256888
2764, 39.4560521, -7.63018295, -2.40422713
2765, 39.4911403, -0.0017864005, -7.9999998
2766, 39.4872006, -2.47120792, -7.6087536
2767, 39.4491368, 2.46605329, -7.61042582
2768, 39.4772246, 6.47252647, -4.70174447
2769, 39.4997556, 4.68328248, -6.48589741
2770, 39.4967751, 7.62024146, 2.43555336
2771, 39.4546885, 7.99999993, 0.00105083894
2772, 39.4439203, 7.63079517, -2.40228331
2773, 39.4778464, 6.47249849, 4.70178299
2774, 34.55, 1.12797204, -3.75259035
2775, 34.55, 3.47055197e-05, -3.48426441
2776, 34.55, -1.05381656, -3.71687895
2777, 34.55, -1.96819817, -4.43342372
2778, 34.55, 1.96690292, -4.43149165
2779, 34.55, -2.45454615, -6.56071519
2780, 34.55, -2.44490246, -5.40726379
2781, 34.55, -1.0886795, -8.269533
2782, 34.55, -1.99264179, -7.53663131
2783, 34.55, 1.09150549, -8.2666145
2784, 34.55, -0.0321953408, -8.5144494
2785, 34.55, 2.45265312, -6.55983767
2786, 34.55, 1.94006501, -7.59978712
2787, 34.55, 2.46037468, -5.48064705
2788, 34.55, -4.8754848, 2.2503476
2789, 34.55, -6.00295233, 2.51550857
2790, 34.55, -7.06376713, 2.2786261
2791, 34.55, -7.9895233, 1.54212748
2792, 34.55, -4.03277612, 1.56976559
2793, 34.55, -8.4538996, -0.553304473
2794, 34.55, -8.44310377, 0.583581413
2795, 34.55, -7.09829464, -2.26425227
2796, 34.55, -7.98035629, -1.54972894
2797, 34.55, -4.90759631, -2.26687217
2798, 34.55, -6.03535565, -2.51504603
2799, 34.55, -3.54626096, -0.559994975
2800, 34.55, -4.0581785, -1.59842854
2801, 34.55, -3.54087153, 0.528468794
2802, 34.55, 7.12572007, 2.25099537
2803, 34.55, 5.9997076, 2.51602799
2804, 34.55, 4.93934572, 2.28001396
2805, 34.55, 4.03137594, 1.56829783
2806, 34.55, 7.96787873, 1.56806486
2807, 34.55, 3.54714357, -0.561312566
2808, 34.55, 3.55616908, 0.59552938
2809, 34.55, 4.90855978, -2.26735428
2810, 34.55, 4.01287931, -1.54036803
2811, 34.55, 7.0935251, -2.26717137
2812, 34.55, 5.96553879, -2.51583833
2813, 34.55, 8.45218064, -0.557036092
2814, 34.55, 7.94361174, -1.59387143
2815, 34.55, 8.4556153, 0.534855262
2816, 34.55, 1.12797204, 8.24740965
2817, 34.55, 3.47055197e-05, 8.51573559
2818, 34.55, -1.05826151, 8.28010263
2819, 34.55, -1.97279061, 7.56276854
2820, 34.55, 1.96690292, 7.56850835
2821, 34.55, -2.45266799, 5.43471147
2822, 34.55, -2.44341036, 6.59700323
2823, 34.55, -1.09156803, 3.73341562
2824, 34.55, -1.99097908, 4.46232636
2825, 34.55, 1.09150549, 3.7333855
2826, 34.55, -0.0411531852, 3.48574515
2827, 34.55, 2.45265312, 5.44016233
2828, 34.55, 1.94006501, 4.40021288
2829, 34.55, 2.46037468, 6.51935295
2830, 40.45, 5.42332966, 1.97088795
2831, 40.45, -5.2736122, 2.03505701
2832, 40.45, 3.55948279, -2.97267079
2833, 40.45, -3.56042455, -2.9725486
2834, 40.45, -1.72329538, 4.95410702
2835, 40.45, 1.72305603, 4.95162827
2836, 40.45, 6.1108842, -2.05498921
2837, 40.45, -6.09853987, -2.06808549
2838, 40.45, 4.15419344, 0.599522563
2839, 40.45, -4.09173953, 0.454882026
2840, 40.45, 4.49761603, -1.3357812
2841, 40.45, -4.53052775, -1.37350645
2842, 40.45, -2.31672595, -4.56812417
2843, 40.45, 2.3211192, -4.56404524
2844, 40.45, 2.38232862, 5.79050399
2845, 40.45, 3.23382544, 4.34649339
2846, 40.45, -2.38200597, 5.79119224
2847, 40.45, -3.16011453, 4.25134007
2848, 40.45, -0.58935898, -4.12123399
2849, 40.45, 0.960444319, -4.25497138
2850, 40.45, -6.20354584, 2.03137574
2851, 40.45, -5.15370884, 3.48312294
2852, 40.45, -1.18015799, 3.88060001
2853, 40.45, 0.904413474, 4.00854635
2854, 40.45, 4.143091, 2.54413643
2855, 40.45, 5.16141157, 3.66237718
2856, 40.45, -3.80982751, -4.74945753
2857, 40.45, -2.89887334, -6.09289764
2858, 40.45, 3.810603, -4.75583002
2859, 40.45, 2.90573448, -6.0463708
2860, 40.45, -4.10537529, 2.1322216
2861, 40.45, 5.17127526, -3.43537294
2862, 40.45, -5.17725155, -3.4485853
2863, 40.45, -1.88030756, -5.56127779
2864, 40.45, 1.86845657, -5.57249563
2865, 40.45, 0.00493967792, 7.63271851
2866, 40.45, -0.558392174, 7.42554734
2867, 40.45, 0.536955098, 7.42474922
2868, 40.45, -2.8593103, 6.87852275
2869, 40.45, 2.87280757, 6.91346127
2870, 40.45, 6.89811151, 1.83582538
2871, 40.45, 7.37843999, 1.52786143
2872, 40.45, 6.54783282, 2.22800496
2873, 40.45, 5.72014601, 1.59602986
2874, 40.45, 5.20520585, 1.38137282
2875, 40.45, -0.295817682, -4.44796323
2876, 40.45, -0.82851109, -4.64380541
2877, 40.45, 1.0078222, -4.7238035
2878, 40.45, 0.482409569, -4.51443347
2879, 40.45, 0.204994253, -4.21532292
2880, 40.45, -0.581565525, 3.45874076
2881, 40.45, -1.88798198, 3.01283129
2882, 40.45, 1.76092027, 3.1094943
2883, 40.45, 0.442524919, 3.51803315
2884, 40.45, -0.142769713, 3.86147314
2885, 40.45, -6.1097866, 1.630216
2886, 40.45, -6.63787526, 1.44525178
2887, 40.45, -5.14290302, 1.42463438
2888, 40.45, -5.64763114, 1.6453234
2889, 40.45, -5.74100395, 2.05698656
2890, 40.45, -6.44359436, 3.03161824
2891, 40.45, -5.05829928, 5.03427685
2892, 40.45, -3.52351022, 6.26334649
2893, 40.45, -1.71805682, 6.34317231
2894, 40.45, -3.95142671, 5.43369611
2895, 40.45, -2.77592518, 5.02278266
2896, 40.45, -4.15460941, 3.86126884
2897, 40.45, -7.47532535, -1.26672947
2898, 40.45, -7.56385451, 1.0114568
2899, 40.45, -7.37407441, 1.51493451
2900, 40.45, -6.95025007, 2.22969282
2901, 40.45, -5.69934085, 2.78169098
2902, 40.45, -5.05439304, -5.01945084
2903, 40.45, -6.45937057, -3.01185974
2904, 40.45, -7.14642547, -1.73707369
2905, 40.45, -6.89276479, -2.26212949
2906, 40.45, -6.35424653, -1.61236
2907, 40.45, -5.66328948, -2.78477975
2908, 40.45, -2.66578604, -7.02704196
2909, 40.45, -0.296556438, -7.56641522
2910, 40.45, -1.78046258, -6.70445571
2911, 40.45, -3.77315269, -6.34668485
2912, 40.45, -3.35310988, -5.40306779
2913, 40.45, -4.27109555, -5.6489937
2914, 40.45, -4.52718631, -4.10965596
2915, 40.45, 0.277924864, -7.54921159
2916, 40.45, 2.6672115, -7.03731354
2917, 40.45, 6.46100633, -3.0096395
2918, 40.45, 5.05960689, -5.02307932
2919, 40.45, 3.76803874, -6.32719929
2920, 40.45, 1.79114296, -6.69767386
2921, 40.45, 3.34984148, -5.3880921
2922, 40.45, 4.2699764, -5.64971878
2923, 40.45, 4.52284563, -4.10822766
2924, 40.45, 7.47762143, -1.25437168
2925, 40.45, 7.56701374, 1.01088601
2926, 40.45, 7.144375, -1.74016576
2927, 40.45, 6.35786248, -1.60993692
2928, 40.45, 6.88429377, -2.26300874
2929, 40.45, 5.65630727, -2.78151193
2930, 40.45, 5.05009291, 5.11654213
2931, 40.45, 6.45952766, 3.14284566
2932, 40.45, 5.30392163, 2.82866808
2933, 40.45, 1.70597888, 6.31385846
2934, 40.45, 3.54667394, 6.25221649
2935, 40.45, 2.81243912, 5.078511
2936, 40.45, 3.98818149, 5.4752552
2937, 40.45, 4.18761779, 4.00198653
2938, 40.45, 4.60357565, 0.688118184
2939, 40.45, 4.46555474, 0.143885617
2940, 40.45, 4.75090191, 1.30547412
2941, 40.45, 4.63948148, -0.806311497
2942, 40.45, 4.9935425, -1.24974469
2943, 40.45, 4.2929771, -0.402103541
2944, 40.45, 5.77940426, -1.61665161
2945, 40.45, 5.29238652, -1.73954415
2946, 40.45, -1.44172851, -5.37929142
2947, 40.45, -1.56182121, -5.94053144
2948, 40.45, -1.48397332, -4.32983003
2949, 40.45, -1.65266646, -4.90552684
2950, 40.45, -2.11903413, -5.07329344
2951, 40.45, -2.0393493, -6.24738328
2952, 40.45, -2.39408083, -5.83349987
2953, 40.45, 2.03613428, -6.23352118
2954, 40.45, 1.57537726, -5.95266979
2955, 40.45, 1.43821755, -5.38819116
2956, 40.45, 2.38750687, -5.83097202
2957, 40.45, 1.65214935, -4.40369843
2958, 40.45, 1.66385857, -4.90143901
2959, 40.45, 2.11938635, -5.07321413
2960, 40.45, -3.35180864, 1.25993575
2961, 40.45, -3.54724802, -0.156107689
2962, 40.45, -3.22874703, 2.05471653
2963, 40.45, -4.11336475, 1.33708637
2964, 40.45, -2.19522075, 4.08262266
2965, 40.45, -2.80115831, 3.07293603
2966, 40.45, -3.64195522, 3.18205212
2967, 40.45, -3.32143393, -1.85489601
2968, 40.45, -2.4741822, -2.91228265
2969, 40.45, -3.72060163, -1.04546088
2970, 40.45, -4.08328335, -2.18204197
2971, 40.45, -4.26828773, -0.487031411
2972, 40.45, -1.00580339, -3.47278771
2973, 40.45, 0.440237581, -3.55025475
2974, 40.45, -2.95041183, -3.7892575
2975, 40.45, -1.84706372, -3.62377236
2976, 40.45, 2.47194115, -2.91396677
2977, 40.45, 3.32134891, -1.85425549
2978, 40.45, 1.84180705, -3.62746495
2979, 40.45, 2.95113785, -3.78909836
2980, 40.45, 1.18723109, -3.51732241
2981, 40.45, 3.59368286, -0.084855731
2982, 40.45, 3.37999232, 1.32779139
2983, 40.45, 4.07032568, -2.15924719
2984, 40.45, 3.70144576, -1.02153581
2985, 40.45, 4.16738074, 1.61578559
2986, 40.45, 3.24247718, 2.2293521
2987, 40.45, 2.10733544, 4.20908944
2988, 40.45, 2.84010622, 3.1303806
2989, 40.45, 3.70371048, 3.43610878
2990, 40.45, -1.78701, 5.7943974
2991, 40.45, -1.48282104, 5.35309651
2992, 40.45, -1.14260672, 4.90048348
2993, 40.45, -2.05554794, 5.37535855
2994, 40.45, 0.167450729, 4.38168278
2995, 40.45, 0.725696367, 4.45837181
2996, 40.45, -1.45604478, 4.40143356
2997, 40.45, -0.86291211, 4.39585594
2998, 40.45, 1.14044937, 4.8979676
2999, 40.45, 1.48225408, 5.35124496
3000, 40.45, 1.31847642, 4.46560792
3001, 40.45, 1.78695061, 5.79345931
3002, 40.45, 2.05530312, 5.37437854
3003, 40.45, -5.78284412, -1.61069287
3004, 40.45, -5.01049249, -1.25538731
3005, 40.45, -4.64637773, -0.832697816
3006, 40.45, -5.3069736, -1.75244169
3007, 40.45, -4.44030407, 0.0756077243
3008, 40.45, -4.53204732, 0.64868125
3009, 40.45, -4.60684331, 1.46708534
3010, 40.45, -4.69333379, 2.10187961
3011, 40.45, 4.79804883, 2.27583612
3012, 40.45, 4.65469076, 3.1021129
3013, 40.45, -5.22396645, 2.76155086
3014, 40.45, -4.6309435, 2.80890648
3015, 40.45, 4.36773127, -3.20395178
3016, 40.45, 4.85398351, -2.39793446
3017, 40.45, 3.06001283, -4.67673037
3018, 40.45, 3.69582195, -3.87442237
3019, 40.45, -4.87133669, -2.42259276
3020, 40.45, -4.36814046, -3.20677968
3021, 40.45, -3.69569879, -3.87363483
3022, 40.45, -3.06040485, -4.67022595
3023, 40.45, -2.43360609, 4.6182225
3024, 40.45, 2.47488733, 4.67437899
3025, 40.45, -2.61691382, -5.32520285
3026, 40.45, 2.62328484, -5.30217675
3027, 36.0054004, 2.35932555, -5.46149934
3028, 36.0149213, 1.6524786, -4.23203097
3029, 36.0417158, -1.89181063, -7.5091231
3030, 36.0224041, 1.89230198, -7.50850695
3031, 36.0174716, 0.0060898933, -8.41999234
3032, 36.0501461, -2.35930931, -5.46142822
3033, 36.0338216, -1.65247222, -4.23202502
3034, 35.2824606, 0.888232781, -3.74890193
3035, 36.7424016, 0.844791726, -3.73224187
3036, 36.7835602, -0.865999217, -3.74025547
3037, 35.2919108, -0.888228726, -3.74890033
3038, 35.2919108, -1.77698197, -4.35721728
3039, 35.2824606, 1.77698493, -4.35722048
3040, 36.7637493, -1.77711736, -4.35736373
3041, 36.7509134, 1.78324424, -4.36401713
3042, 35.2608832, -2.18445994, -4.95859002
3043, 35.2605975, -2.41999904, -6.00215856
3044, 36.0523172, -2.10732542, -4.81021869
3045, 35.2575964, -2.18124496, -7.0481271
3046, 35.2568408, -1.52091152, -7.88234645
3047, 36.0112034, -2.36075517, -6.53219828
3048, 35.2571734, -0.539572246, -8.35908071
3049, 35.2543256, 0.544306054, -8.35799299
3050, 36.041069, -1.0612723, -8.17487956
3051, 35.286202, 1.50901449, -7.89189727
3052, 35.286202, 2.18043854, -7.04980369
3053, 36.0684896, 1.06107637, -8.17497516
3054, 35.2777002, 2.42, -6
3055, 35.2777002, 2.18034466, -4.95000135
3056, 36.0139022, 2.35937369, -6.5382897
3057, 36.0101608, 2.09798504, -4.79382474
3058, 36.7614157, -2.41999009, -5.99307586
3059, 36.7565015, -2.17618427, -4.94140563
3060, 36.8046349, -1.5292106, -7.87561055
3061, 36.7643911, -2.17349096, -7.06411327
3062, 36.7729621, 0.575041891, -8.35068646
3063, 36.7572618, -0.553560153, -8.35583768
3064, 36.761202, 2.18043854, -7.04980369
3065, 36.7629563, 1.50394304, -7.89593126
3066, 36.7424372, 2.18552848, -4.96083435
3067, 36.7527002, 2.42, -6
3068, 36.0467784, -3.64228871, 0.545524934
3069, 36.0309775, -5.99562888, -2.41999605
3070, 36.0044694, -7.88004962, -1.52374979
3071, 36.0375976, -4.10643317, -1.50691893
3072, 36.0311686, -4.34784738, 1.76827366
3073, 36.0510128, -8.36281643, 0.522970862
3074, 35.9376585, -7.76259101, 1.65821378
3075, 35.2594197, -5.12463566, 2.25613326
3076, 36.7687889, -5.11893407, 2.25391278
3077, 36.6845525, -6.93499887, 2.2320791
3078, 35.2881042, -6.91861092, 2.23887337
3079, 35.3616667, -7.72485588, 1.69743106
3080, 35.2599404, -4.22909067, 1.64932718
3081, 36.7668828, -7.78106645, 1.63835353
3082, 36.7703095, -4.21455365, 1.6335793
3083, 35.2590713, -8.14566173, 1.11916744
3084, 35.2589323, -8.41999561, 0.0046071066
3085, 35.9863911, -8.10326237, 1.19694921
3086, 35.2558322, -8.17844798, -1.05392807
3087, 35.2473843, -7.50666292, -1.89377054
3088, 36.0606364, -8.36836845, -0.497223188
3089, 35.2557954, -6.54473134, -2.35789478
3090, 35.2541471, -5.46947663, -2.36113213
3091, 36.0146891, -7.06240064, -2.1743286
3092, 35.2601945, -4.48789324, -1.88942667
3093, 35.2571176, -3.820822, -1.0524178
3094, 36.0336479, -4.96148093, -2.1858358
3095, 35.2617184, -3.58001016, 0.00701117223
3096, 35.2583251, -3.81701552, 1.04449928
3097, 36.0316382, -3.64329176, -0.54984206
3098, 36.0385358, -3.89728015, 1.19790201
3099, 36.7228214, -8.41979976, -0.0311305986
3100, 36.7283543, -8.17236106, 1.06641803
3101, 36.7682387, -7.50693477, -1.89355422
3102, 36.7729547, -8.18689095, -1.03629531
3103, 36.7617311, -5.4538999, -2.35757814
3104, 36.7695593, -6.54954747, -2.35677695
3105, 36.7432252, -3.81730223, -1.04509829
3106, 36.7773654, -4.50427708, -1.90242291
3107, 36.7390249, -3.81545533, 1.04123225
3108, 36.7430772, -3.5800001, 0.000704885611
3109, 36.011633, 8.35489455, 0.557558644
3110, 36.0415566, 7.67190394, 1.74961059
3111, 36.0125345, 6.00149938, -2.41999954
3112, 36.004738, 4.11055781, -1.51208737
3113, 36.0023036, 7.88875848, -1.51294131
3114, 36.0409587, 3.64038051, 0.537211204
3115, 36.0295919, 4.3436934, 1.7643833
3116, 35.2565561, 6.86281578, 2.26096195
3117, 36.7323261, 6.88537222, 2.25222469
3118, 36.7724703, 5.12768256, 2.25731307
3119, 35.2598357, 5.12836508, 2.2575767
3120, 35.2554785, 4.22921749, 1.64946334
3121, 35.2598958, 7.77432825, 1.64564858
3122, 36.7664057, 4.21797754, 1.63731364
3123, 36.7566014, 7.76923176, 1.65112658
3124, 35.2530243, 3.81650893, 1.04343985
3125, 35.2549204, 3.58001483, 0.00847334771
3126, 36.0300793, 3.89842663, 1.19991223
3127, 35.2486241, 3.81930078, -1.04926209
3128, 35.2478971, 4.49299268, -1.89349649
3129, 36.0175336, 3.6358614, -0.516961015
3130, 35.244382, 5.47182825, -2.36165929
3131, 35.2409562, 6.52837402, -2.36161405
3132, 36.0131692, 4.97821229, -2.19370688
3133, 35.2480008, 7.50956964, -1.89145433
3134, 35.2710596, 8.1785149, -1.05378975
3135, 36.0017108, 7.02007973, -2.19450161
3136, 35.2756697, 8.41998731, 0.00783640779
3137, 35.2591024, 8.17933266, 1.05209751
3138, 35.9551438, 8.35948404, -0.537805795
3139, 36.0339864, 8.09524703, 1.21092522
3140, 36.740377, 3.58000806, -0.00624721192
3141, 36.7364013, 3.81807905, 1.04671914
3142, 36.768214, 4.49649549, -1.89627904
3143, 36.7444522, 3.81419302, -1.03857973
3144, 36.7363962, 6.52244668, -2.36293239
3145, 36.769452, 5.47004826, -2.3612605
3146, 36.7942445, 8.18714486, -1.03575932
3147, 36.7604523, 7.49779323, -1.90079337
3148, 36.7502086, 8.16670794, 1.07785745
3149, 36.803725, 8.4198066, -0.0305942235
3150, 36.0445996, 2.35932555, 6.53850066
3151, 36.0350787, 1.6524786, 7.76796903
3152, 36.0322927, 1.1457254e-15, 3.58
3153, 36.0408738, 1.89204189, 4.49116685
3154, 36.0408738, -1.89204189, 4.49116685
3155, 36.0463066, -2.35555945, 6.55474289
3156, 36.0447253, -1.64475143, 7.77515992
3157, 35.2925394, 0.888232781, 8.25109807
3158, 36.7818983, 0.845874778, 8.26735437
3159, 36.7570436, -0.89391873, 8.24884622
3160, 35.2632387, -0.883885677, 8.25280849
3161, 35.264062, -1.77465626, 7.64529486
3162, 35.2925394, 1.77698493, 7.64277952
3163, 36.7773308, -1.78042218, 7.63905364
3164, 36.7322304, 1.81217671, 7.60387517
3165, 35.2603366, -2.1828338, 7.04481415
3166, 35.2638178, -2.41999814, 6.0029987
3167, 36.0396555, -2.10688467, 7.19056162
3168, 35.2615901, -2.1807858, 4.95091788
3169, 35.2599671, -1.51229854, 4.11072683
3170, 36.0524355, -2.35697534, 5.45130404
3171, 35.2911464, -0.53850066, 3.64067445
3172, 35.2911464, 0.53850066, 3.64067445
3173, 36.04057, -1.04844742, 3.81890899
3174, 35.2585055, 1.50692602, 4.10643881
3175, 35.2954369, 2.18034804, 4.95000836
3176, 36.0442433, 1.05276193, 3.82098822
3177, 35.2972998, 2.42, 6
3178, 35.2972998, 2.18034466, 7.04999865
3179, 36.0427367, 2.35932728, 5.46150693
3180, 36.0398392, 2.09798504, 7.20617526
3181, 36.7799797, -2.41998996, 5.99302956
3182, 36.7620913, -2.17444181, 7.06216893
3183, 36.781526, -1.51165645, 4.11021304
3184, 36.7850315, -2.17707128, 4.94323104
3185, 36.7399848, 0.530157788, 3.63878575
3186, 36.7305853, -0.530476599, 3.63885736
3187, 36.7704369, 2.18034804, 4.95000836
3188, 36.777062, 1.49981587, 4.10080218
3189, 36.7722998, 2.18034466, 7.04999865
3190, 36.7722998, 2.42, 6
3191, 38.3371828, 5.06928469, -0.757475423
3192, 39.6603041, 7.00321959, -0.65844549
3193, 38.5860945, 5.48738286, 1.08499939
3194, 39.3656744, 6.52509199, 1.07901733
3195, 39.4906424, 4.84793746, 0.335785489
3196, 38.4615135, 7.17534722, 0.241989491
3197, 38.3402202, 5.97988676, -1.19983143
3198, 39.2883856, 5.4267332, -1.05421306
3199, 38.386656, 4.82940523, 0.264022499
3200, 39.5407229, 7.18706855, 0.175693674
3201, 38.4228188, 6.94477084, -0.739870304
3202, 39.7481641, 5.2441002, 0.931995437
3203, 38.2066685, 6.77044524, 0.920007677
3204, 39.6815163, 6.32196874, -1.15600006
3205, 39.7036256, 4.94733031, -0.576095934
3206, 38.9743953, 6.59967892, -1.03941579
3207, 38.9758706, 7.17509587, -0.243207089
3208, 39.0120711, 4.86088947, -0.377395282
3209, 39.506501, 5.75487065, 1.17469639
3210, 38.036705, 5.74783914, 1.1732071
3211, 38.4276551, 6.26730886, 1.1698487
3212, 39.8823304, 6.26343939, 1.17072614
3213, 40.0917451, 5.13696471, 0.833768604
3214, 40.083219, 5.6078795, 1.13412588
3215, 39.9203654, 6.75021312, 0.936579026
3216, 39.1724991, 5.37117837, 1.02204861
3217, 38.0560678, 5.25796609, 0.943072463
3218, 37.8616768, 6.84386888, 0.85316195
3219, 37.8612954, 6.3986167, 1.13185897
3220, 38.7959582, 6.65664213, 1.00440087
3221, 39.9315756, 4.80040986, 0.0313607435
3222, 39.9441119, 4.9374802, 0.557720069
3223, 39.6279593, 4.98523223, 0.640504785
3224, 40.0619892, 5.16972391, -0.866395757
3225, 40.0708245, 4.86697584, -0.395292623
3226, 39.6103171, 4.80173294, -0.0644673906
3227, 40.0782432, 6.38950334, -1.13502738
3228, 40.0634475, 5.86250408, -1.19209684
3229, 39.8773638, 5.46946956, -1.07635378
3230, 39.5715846, 5.81124035, -1.18506109
3231, 39.4937153, 5.15933164, -0.856315776
3232, 39.9959451, 7.12395566, -0.420385153
3233, 40.0568954, 6.77887536, -0.912881792
3234, 39.6931711, 6.69566825, -0.97777589
3235, 40.0402689, 7.09912505, 0.481585003
3236, 40.0051554, 7.19997591, -0.00760407406
3237, 39.6003109, 7.15688963, -0.318757552
3238, 39.4647183, 6.94558001, 0.738835876
3239, 37.9415798, 4.92791869, 0.53911193
3240, 37.9539212, 4.80001737, -0.0064567331
3241, 38.4797784, 5.07906646, 0.7693383
3242, 37.923864, 4.91883014, -0.520645505
3243, 37.9267606, 5.24563279, -0.933236364
3244, 38.3477053, 4.82987705, -0.266105766
3245, 37.9167497, 5.73074687, -1.16940273
3246, 37.9393031, 6.27186222, -1.16879893
3247, 38.3174962, 5.46285233, -1.07306681
3248, 37.9562549, 6.75741961, -0.930760731
3249, 37.9514412, 7.07958509, -0.523923686
3250, 38.3473073, 6.53830174, -1.07248834
3251, 37.9824703, 7.19992613, 0.013314722
3252, 37.9843838, 7.07195255, 0.539367892
3253, 38.4315499, 7.16193236, -0.299855299
3254, 38.3247159, 7.00648868, 0.653437476
3255, 38.81506, 5.25481033, -0.940580863
3256, 38.7456699, 5.723564, -1.16772563
3257, 38.6785167, 4.94520311, -0.572191852
3258, 39.1422865, 5.09658237, -0.789833262
3259, 38.7036091, 4.80136038, -0.0571232365
3260, 39.2505028, 7.19999069, -0.00472709386
3261, 39.3594133, 7.12340845, -0.421845291
3262, 39.3300371, 6.77668944, -0.914742318
3263, 39.3788823, 6.41803612, -1.12483146
3264, 38.9723314, 6.94173491, -0.743730702
3265, 39.0123533, 5.09921902, 0.792838969
3266, 38.9451835, 4.84275191, 0.317453724
3267, 38.913048, 6.92219284, 0.767828345
3268, 38.9873574, 7.19484916, 0.111065234
3269, 39.2512695, 4.80000003, -0.000258596469
3270, 39.3489595, 4.89907596, -0.477458132
3271, 38.7148721, 7.19994599, 0.0113856069
3272, 38.6529755, 7.10318144, -0.472218916
3273, 39.1068809, 5.99349521, -1.19998237
3274, 38.6602347, 6.2897325, -1.16449778
3275, 38.6944968, 6.77322299, -0.917674351
3276, 38.3767302, -0.00229414623, -7.19999781
3277, 39.4691639, -1.14774218, -5.6497317
3278, 38.4822134, 1.15824863, -5.68621646
3279, 39.6435406, 1.00458944, -6.6563536
3280, 38.58182, -0.512777615, -4.91507645
3281, 39.3673487, 0.524483948, -4.92068698
3282, 38.3924281, 0.864262084, -6.83249688
3283, 38.3534361, -0.936853558, -6.74987026
3284, 39.2377249, -0.54202342, -7.07061226
3285, 39.5516055, 1.17044826, -5.73532876
3286, 38.3821973, -1.16847726, -5.72675856
3287, 39.746883, -0.752976863, -5.06564148
3288, 38.1957833, 0.760132121, -5.0714532
3289, 39.6977076, 0.229862062, -7.17777903
3290, 39.7074736, -1.05571777, -6.57049101
3291, 38.9173238, 1.176115, -6.23822994
3292, 38.9735151, 0.447532646, -7.11342469
3293, 38.9931786, -1.13562028, -6.3877713
3294, 39.5070265, -0.26714753, -4.83011445
3295, 38.0321302, -0.249343451, -4.82619088
3296, 38.4182293, 0.256764389, -4.82779181
3297, 39.8792022, 0.267203561, -4.83012725
3298, 40.1045226, -0.85641199, -5.15942966
3299, 40.0884023, -0.403456375, -4.86985711
3300, 39.9367405, 0.756180769, -5.06823252
3301, 39.1669482, -0.637606475, -4.98340865
3302, 38.0428267, -0.750345131, -5.06352673
3303, 37.8660019, 0.84945457, -5.15239931
3304, 37.8560282, 0.385114853, -4.86347611
3305, 38.7822458, 0.6453405, -4.98830062
3306, 39.9424466, -1.19994241, -5.98824349
3307, 39.945404, -1.05226992, -5.42317419
3308, 39.6241463, -1.00060574, -5.33758913
3309, 40.0635925, -0.864302316, -6.83245511
3310, 40.0939867, -1.1176189, -6.43695309
3311, 39.605059, -1.19556392, -6.10308695
3312, 40.0476334, 0.432548712, -7.11933088
3313, 40.065195, -0.152543943, -7.19026482
3314, 39.8555974, -0.555957046, -7.06344335
3315, 39.4770446, -0.132122839, -7.1927043
3316, 39.4906834, -0.856495316, -6.84048544
3317, 40.0849645, 1.07435217, -6.53457217
3318, 40.0536058, 0.780071625, -6.91185978
3319, 39.7144693, 0.571989088, -7.05490686
3320, 39.9685984, 1.06535677, -5.44771841
3321, 40.0060593, 1.19996676, -6.0089311
3322, 39.6447782, 1.18343581, -6.19869493
3323, 39.4943389, 0.956032206, -5.27473976
3324, 37.9497829, -1.08415786, -5.48560546
3325, 37.9588621, -1.19999245, -6.0042564
3326, 38.4779752, -0.942209072, -5.25687009
3327, 37.9241014, -1.07923022, -6.5246543
3328, 37.9623558, -0.742715889, -6.94253547
3329, 38.3551891, -1.16892168, -6.27133393
3330, 37.9307229, -0.267509452, -7.16980284
3331, 37.9223939, 0.249629496, -7.17374832
3332, 38.3317527, -0.4971674, -7.09216509
3333, 37.9347189, 0.749683416, -6.93700308
3334, 37.9638494, 1.08136388, -6.52024241
3335, 38.3350634, 0.46651816, -7.10560427
3336, 38.0102424, 1.19985687, -5.98146665
3337, 38.0028815, 1.07327186, -5.46326215
3338, 38.4593917, 1.16931106, -6.26965097
3339, 38.3501328, 1.00065867, -5.3376691
3340, 38.6491641, 0.285746302, -7.16548233
3341, 38.644245, 0.712119516, -6.96586013
3342, 38.7805452, -0.746239346, -6.93974828
3343, 38.806182, -0.293807264, -7.16347638
3344, 39.1219629, -0.0264333955, -7.19970883
3345, 39.0433984, -0.918453469, -5.22770263
3346, 38.9373623, -1.16286737, -5.70379149
3347, 39.2298368, -1.19967927, -6.02774254
3348, 38.6980422, -1.19853126, -6.0593534
3349, 39.3510565, -1.09726228, -6.48581424
3350, 38.9195023, 0.927649346, -5.2387729
3351, 39.0143674, 1.16747053, -5.72248864
3352, 38.6780603, 1.07404338, -6.53519232
3353, 38.6807611, 1.1999958, -5.99682603
3354, 39.2508927, 1.19966078, -6.02853093
3355, 39.3585798, 1.09392278, -6.49328791
3356, 39.3304286, 0.751277171, -6.93572571
3357, 39.3377615, 0.373688215, -7.14033202
3358, 39.0078837, 0.926702694, -6.76237925
3359, 38.7033777, -1.03034114, -6.61513993
3360, 39.0865462, -0.934107025, -6.75328883
3361, 39.4925166, 1.29592353, 2.70565745
3362, 39.4937387, 2.92105752, 0.683683366
3363, 39.493352, 2.34666028, -1.86900656
3364, 39.4958287, -2.92406271, 0.670714009
3365, 39.489314, -1.30161882, 2.70292221
3366, 39.4999104, -2.34562867, -1.87030109
3367, 39.4312818, -0.00638803377, -2.9999932
3368, 39.0455719, 0.657760954, 2.92700368
3369, 39.9631373, 0.671800543, 2.92381327
3370, 39.9589499, -0.675319105, 2.92300258
3371, 39.0479176, -0.665111882, 2.92534206
3372, 39.9625183, -1.88221247, 2.33608138
3373, 39.9738821, 1.89368924, 2.32678771
3374, 39.0303126, -1.88228228, 2.33602513
3375, 39.0217788, 1.89298211, 2.32736304
3376, 39.9563664, -2.99999309, -0.00643800084
3377, 39.9710413, -2.69710402, 1.31363233
3378, 39.4779522, -2.34399756, 1.8723449
3379, 39.0393743, -2.70758734, 1.29188652
3380, 39.9713815, -1.8551386, -2.35763881
3381, 39.9586124, -2.70296665, -1.30152652
3382, 39.4771448, -2.92697876, -0.657871827
3383, 39.0302706, -2.99995202, -0.016966186
3384, 38.9997007, -2.6986113, -1.31053311
3385, 39.9381507, 0.685564417, -2.92061662
3386, 39.9476633, -0.684450682, -2.92087782
3387, 39.4785876, -1.3055732, -2.70101437
3388, 39.010621, -1.86970462, -2.34610414
3389, 39.0232328, -0.678073828, -2.92236478
3390, 39.9590965, 2.70468862, -1.29794433
3391, 39.9687263, 1.85615362, -2.35683978
3392, 39.4768859, 1.30521412, -2.70118791
3393, 39.0064371, 1.86305398, -2.35138893
3394, 39.0337253, 0.682853308, -2.92125168
3395, 39.9744399, 2.69525616, 1.31741953
3396, 39.9626297, 2.9999648, -0.0145332222
3397, 39.4754596, 2.92643449, -0.660288692
3398, 39.020986, 2.99986404, -0.0285616957
3399, 39.0210048, 2.70214842, -1.30322442
3400, 39.476107, 2.33535678, 1.88311145
3401, 39.0441616, 2.70126858, 1.30504715
3402, 38.3939461, -0.938197779, 5.25181224
3403, 38.369995, 0.938250851, 5.25187879
3404, 38.393316, 0.828883498, 6.86772815
3405, 38.5728582, -0.529044108, 7.07708511
3406, 39.5783971, 0.00172911593, 4.80000125
3407, 39.5560539, 1.16991349, 6.26702512
3408, 39.4914186, -1.15983786, 6.30785735
3409, 38.3426065, 1.17656381, 6.23600341
3410, 38.3679827, -0.000172250658, 4.80000001
3411, 38.4032232, -1.17175182, 6.2588391
3412, 39.5810556, 0.938198376, 5.25181299
3413, 39.7494215, -0.767475193, 6.92248676
3414, 39.636, -0.943060133, 5.25795042
3415, 39.2384273, 0.742904172, 6.94238707
3416, 38.9652495, 1.16953351, 5.73131547
3417, 38.9050242, 1.11946523, 6.43220087
3418, 38.9671546, 0.520695305, 4.91885413
3419, 38.9843258, -0.520722118, 4.91886704
3420, 38.9826796, -1.15444791, 5.6725095
3421, 39.5318009, -0.256021087, 7.17237076
3422, 38.0141308, -0.261763119, 7.17110207
3423, 38.3558568, 0.358105, 7.14532127
3424, 39.866063, 0.367554634, 7.14232377
3425, 40.095305, -0.862452951, 6.83437096
3426, 40.1165953, -0.355571628, 7.1461103
3427, 39.8442137, 0.846140819, 6.85090876
3428, 39.1478262, -0.636801677, 7.01709568
3429, 38.0682458, -0.740010755, 6.94466083
3430, 37.9494699, 0.872608932, 6.82374368
3431, 37.9383087, 0.403206352, 7.13023212
3432, 38.8179524, 0.788825713, 6.90429751
3433, 39.9791191, -1.19982021, 6.02077186
3434, 39.9606041, -1.07103777, 6.54118213
3435, 39.6145349, -1.01236478, 6.64429617
3436, 40.043, -0.75124492, 5.06424839
3437, 40.043, -1.08285569, 5.48286989
3438, 39.6049627, -1.18107119, 5.78770103
3439, 40.0141986, 0.267867933, 4.83027919
3440, 40.0141986, -0.26618217, 4.82989443
3441, 39.6071986, -0.523407472, 4.92016454
3442, 40.0155278, 1.08116285, 5.47933994
3443, 40.0155278, 0.748188136, 5.06180252
3444, 39.5797264, 0.521439723, 4.91921296
3445, 40.0030269, 1.08116264, 6.52066049
3446, 40.0030269, 1.2, 6
3447, 39.5685547, 1.1699136, 5.73297535
3448, 39.3972406, 1.01427131, 6.64129065
3449, 37.950779, -1.08269649, 6.51746334
3450, 37.9597134, -1.2, 5.99991563
3451, 38.480863, -0.968595994, 6.70839382
3452, 37.9514079, -1.08127901, 5.47958122
3453, 37.950646, -0.752889752, 5.06557129
3454, 38.3674871, -1.16718877, 5.72130593
3455, 37.9340308, -0.271628881, 4.83114682
3456, 37.9247769, 0.266485688, 4.82996351
3457, 38.3809644, -0.520738082, 4.91887473
3458, 37.9526561, 0.745903029, 5.05998475
3459, 37.9349975, 1.08118111, 5.47937786
3460, 38.3689889, 0.520621238, 4.91881846
3461, 37.9213033, 1.19989514, 5.98413673
3462, 37.9213033, 1.08795098, 6.50632268
3463, 38.3563008, 1.16629138, 5.71757403
3464, 38.3809796, 1.05863461, 6.56505997
3465, 38.689136, -0.748214503, 5.06182355
3466, 38.6761543, -0.267142431, 4.83011329
3467, 38.6930835, -1.19995774, 5.98992901
3468, 38.6862684, -1.07057919, 5.45791127
3469, 38.9850178, -0.928908682, 5.24031015
3470, 38.6676223, 1.08081155, 5.47861109
3471, 38.653928, 1.19988359, 5.98328563
3472, 38.6675687, 0.266959993, 4.83007164
3473, 38.6685748, 0.748236145, 5.06184081
3474, 38.9650819, 0.954443284, 5.27265
3475, 38.6238154, 1.1521982, 6.3353197
3476, 38.6660754, 1.00286452, 6.65898616
3477, 39.0717258, 0.965493365, 6.7126167
3478, 39.0308476, -0.935463275, 6.75160393
3479, 38.9421658, -1.16772457, 6.27644044
3480, 39.2661651, 0.754935066, 5.06722294
3481, 39.2727759, 0.267886769, 4.8302835
3482, 39.2813615, -0.26621552, 4.82990201
3483, 39.3101629, -0.751271591, 5.06426981
3484, 38.9757402, -1.48800985e-05, 4.8
3485, 39.2606517, 1.1999997, 5.99914882
3486, 39.2731526, 1.08079326, 5.47857319
3487, 39.230539, 1.1476648, 6.35052176
3488, 38.9351369, 1.19694983, 6.08550501
3489, 39.2278866, -1.19977516, 6.02322837
3490, 39.3093398, -1.06904153, 5.45488515
3491, 38.3873131, -6.96398702, -0.714653084
3492, 39.6669939, -5.04216549, -0.722878314
3493, 38.5938227, -6.53272112, 1.07527122
3494, 39.3698696, -5.485107, 1.08392122
3495, 39.4861179, -7.16905615, 0.270754
3496, 38.455009, -4.8374299, 0.297373094
3497, 38.3113654, -5.99862363, -1.19999921
3498, 39.2972983, -6.52810149, -1.07754759
3499, 38.4612051, -7.1760758, 0.2384234
3500, 39.5598623, -4.82785486, 0.257052067
3501, 38.380578, -5.07089034, -0.759444028
3502, 39.7453261, -6.76782888, 0.92219239
3503, 38.1950343, -5.23983766, 0.928522062
3504, 39.6985415, -5.78898779, -1.18130176
3505, 39.6852013, -7.10929352, -0.45767663
3506, 38.9878758, -5.45697602, -1.07010511
3507, 38.9890501, -4.84190668, -0.314356266
3508, 39.0341425, -7.15811309, -0.314283422
3509, 39.5192621, -6.26295721, 1.17083453
3510, 38.0355707, -6.26803727, 1.16968202
3511, 38.4174203, -5.75161332, 1.17401195
3512, 39.9096491, -5.75408249, 1.17453164
3513, 40.0910156, -6.88329209, 0.812277714
3514, 40.1024599, -6.38684059, 1.13593766
3515, 39.8863894, -5.24539483, 0.933043961
3516, 39.1677743, -6.65786118, 1.00360284
3517, 38.0436616, -6.76561185, 0.924033814
3518, 37.8588753, -5.15612883, 0.853159689
3519, 37.8633991, -5.60194963, 1.13205826
3520, 38.7707106, -5.36786079, 1.02000001
3521, 39.979487, -7.19996723, 0.00886868978
3522, 39.9918585, -7.08940267, 0.503191646
3523, 39.636259, -7.00335124, 0.658244851
3524, 40.0651137, -6.8508103, -0.846239821
3525, 40.0098925, -7.16249975, -0.29764798
3526, 39.5703038, -7.18781519, -0.170572749
3527, 40.0761467, -5.61578017, -1.13682678
3528, 40.0726569, -6.17139633, -1.18769664
3529, 39.8682285, -6.53216234, -1.07554788
3530, 39.4945239, -6.15378089, -1.19010564
3531, 39.4953444, -6.85524938, -0.841753228
3532, 40.0602306, -4.899406, -0.478218407
3533, 40.0408923, -5.23828972, -0.927252636
3534, 39.7060574, -5.34631767, -1.00632967
3535, 40.0196323, -4.9176164, 0.518117505
3536, 39.9694365, -4.80021503, -0.0227159372
3537, 39.6530534, -4.81421323, -0.184145937
3538, 39.4920497, -5.04797164, 0.730508043
3539, 37.9884349, -7.09555497, 0.489652236
3540, 37.9801873, -7.19988321, 0.0167415732
3541, 38.4731567, -6.94197826, 0.743422465
3542, 37.9150131, -7.0822364, -0.518424907
3543, 37.9363306, -6.77223318, -0.918507442
3544, 38.3778533, -7.15903517, -0.310865673
3545, 37.9194125, -6.27263899, -1.16861798
3546, 37.9143527, -5.73117663, -1.1695016
3547, 38.3198176, -6.55501431, -1.06393567
3548, 37.9464174, -5.25362203, -0.939638186
3549, 37.9524615, -4.92080963, -0.524736265
3550, 38.3319205, -5.47903991, -1.08101831
3551, 37.9833594, -4.80023735, 0.0238657142
3552, 37.976599, -4.92183793, 0.526845857
3553, 38.3937399, -4.82464205, -0.241937369
3554, 38.3230154, -5.00771764, 0.674815325
3555, 38.8374526, -6.76617481, -0.923567081
3556, 38.7992029, -6.27912485, -1.16708582
3557, 38.6528321, -7.08949012, -0.50300227
3558, 39.1443638, -6.90952025, -0.782798128
3559, 38.7801412, -7.19756387, -0.0764250012
3560, 39.2713213, -4.80013346, -0.0178966679
3561, 39.3225802, -4.92540615, -0.534086193
3562, 39.3228198, -5.23039202, -0.920708178
3563, 39.3462122, -5.62604121, -1.14024332
3564, 38.9887279, -5.07580592, -0.765418384
3565, 39.0354494, -6.91987563, 0.770602891
3566, 38.9740857, -7.18256432, 0.203817608
3567, 38.9036472, -5.0630353, 0.749731382
3568, 39.016136, -4.83986596, 0.3067393
3569, 39.2224181, -7.19717324, -0.0823178413
3570, 39.3777576, -7.1526804, -0.333658343
3571, 38.7259573, -4.80000523, -0.0035416168
3572, 38.6837626, -4.92941749, -0.542082186
3573, 39.1829774, -5.99434047, -1.19998665
3574, 38.6447322, -5.71811772, -1.1664229
3575, 38.6903341, -5.24463955, -0.932432619
3576, 37.5, 0.965936162, -4.56893989
3577, 37.5, 0.0171573909, -4.17338905
3578, 37.5, -0.523531069, -4.34618237
3579, 37.5, -1.40783994, -4.86576893
3580, 37.5, 1.40467689, -4.89155915
3581, 37.5, -1.76628252, -6.40379158
3582, 37.5, -1.6070674, -5.38638746
3583, 37.5, -1.48036725, -6.87859806
3584, 37.5, -0.800302954, -7.62400106
3585, 37.5, -0.261003264, -7.72091182
3586, 37.5, 0.789489973, -7.63324225
3587, 37.5, 1.75137912, -6.41635
3588, 37.5, 1.18061521, -7.27289755
3589, 37.5, 1.72199228, -5.86383064
3590, 37.5, -5.04438158, 1.43276163
3591, 37.5, -6.00282642, 1.81430197
3592, 37.5, -6.53364901, 1.65829212
3593, 37.5, -7.41752292, 1.13030374
3594, 37.5, -4.59593425, 1.10301305
3595, 37.5, -7.78381724, -0.39405813
3596, 37.5, -7.60808042, 0.615605679
3597, 37.5, -7.51669933, -0.871437614
3598, 37.5, -6.78720177, -1.62231551
3599, 37.5, -5.22537002, -1.64057239
3600, 37.5, -6.25467539, -1.71876783
3601, 37.5, -4.82089361, -1.25573229
3602, 37.5, -4.24061965, -0.420063873
3603, 37.5, -4.27130035, 0.141812832
3604, 37.5, 6.96672346, 1.42646182
3605, 37.5, 6.01909547, 1.81785521
3606, 37.5, 5.47435154, 1.64865154
3607, 37.5, 4.58436837, 1.13365851
3608, 37.5, 7.42708549, 1.11385283
3609, 37.5, 4.24117051, -0.390954147
3610, 37.5, 4.39135113, 0.619743129
3611, 37.5, 5.20535066, -1.61458573
3612, 37.5, 4.50003639, -0.877005055
3613, 37.5, 6.77072513, -1.62604063
3614, 37.5, 5.7573017, -1.71045851
3615, 37.5, 7.76843916, -0.405264999
3616, 37.5, 7.188932, -1.26112928
3617, 37.5, 7.73322624, 0.1342079
3618, 37.5, 0.988132152, 7.43634979
3619, 37.5, 0.00754280836, 7.81280859
3620, 37.5, -0.511458082, 7.64398468
3621, 37.5, -1.4141771, 7.12967326
3622, 37.5, 1.43570696, 7.12663993
3623, 37.5, -1.76291492, 5.60942304
3624, 37.5, -1.6186431, 6.63329564
3625, 37.5, -0.794923884, 4.3635112
3626, 37.5, -1.48897742, 5.12878133
3627, 37.5, 0.772617249, 4.35469314
3628, 37.5, -0.254750214, 4.28068761
3629, 37.5, 1.10995607, 4.77631511
3630, 37.5, 1.76461952, 5.59723711
3631, 37.5, 1.64876166, 6.10484355
3632, 38.5, 0.00299715774, 0.00293003287
3633, 38.5, -1.18737381, 0.945585349
3634, 38.5, 0.00194169551, 1.51716881
3635, 38.5, 1.18507572, 0.945500042
3636, 38.5, -1.47146865, -0.337425019
3637, 38.5, -0.660911167, -1.36845607
3638, 38.5, 0.655692702, -1.37051307
3639, 38.5, 1.47478336, -0.334879666
3640, 31.1688669, -18.6481689, -9.5
3641, 32.5715127, -17.5275347, -9.5
3642, 33.8998829, -15.5906987, -9.5
3643, 33.3586291, -16.6245213, -9.5
3644, 33.9837863, -19.8604295, -9.5
3645, 33.515185, -20.0587757, -9.5
3646, 37.1001823, -14.4395523, -9.5
3647, 33.5021807, -19.6006885, -9.5
3648, 33.1190505, -19.8219536, -9.5
3649, 36.2721329, -17.2274851, -9.5
3650, 34.9094062, -18.9166951, -9.5
3651, 33.0221098, -19.3216923, -9.5
3652, 36.8379662, -15.8835301, -9.5
3653, 33.5075813, -19.0506324, -9.5
3654, 33.0041522, -18.7530914, -9.5
3655, 33.5211657, -18.4518975, -9.5
3656, 32.5083435, -19.0488116, -9.5
3657, 32.4793762, -18.447914, -9.5
3658, 33.1814466, -20.3235952, -9.5
3659, 32.0578995, -18.7126144, -9.5
3660, 31.9679345, -19.2072844, -9.5
3661, 36.1623242, -13.3381082, -9.5
3662, 35.5934889, -14.4262242, -9.5
3663, 36.4597878, -15.1180926, -9.5
3664, 30.0433581, -19.173219, -9.5
3665, 31.9375, -20.5147063, -9.5
3666, 31.6858595, -19.7613741, -9.5
3667, 34.1440594, -18.8262562, -9.5
3668, 34.0758522, -18.1441621, -9.5
3669, 33.5525344, -17.840408, -9.5
3670, 34.0737008, -17.5199858, -9.5
3671, 34.6237237, -17.8241416, -9.5
3672, 34.6425079, -17.2073412, -9.5
3673, 35.1898991, -17.5086214, -9.5
3674, 35.1934178, -16.8316076, -9.5
3675, 34.560918, -16.5611969, -9.5
3676, 35.1761103, -16.1686998, -9.5
3677, 35.8616338, -16.5696865, -9.5
3678, 35.734863, -15.8562076, -9.5
3679, 35.1732866, -15.5115916, -9.5
3680, 28.9001469, -19.413522, -9.5
3681, 32.9781154, -17.0872283, -9.5
3682, 27.4050294, -20.0827044, -9.5
3683, 35.1201101, -18.1817824, -9.5
3684, 34.1584253, -15.0891316, -9.5
3685, 33.6527581, -16.1320422, -9.5
3686, 33.9194484, -16.6197189, -9.5
3687, 30.7541383, -20.0756057, -9.5
3688, 33.0392829, -18.1791333, -9.5
3689, 32.1583287, -17.965061, -9.5
3690, 18.9915947, -19.992031, -9.5
3691, 35.8155297, -17.8840325, -9.5
3692, 34.69437, -15.8446589, -9.5
3693, 34.4598247, -19.4153879, -9.5
3694, 31.6948097, -18.3283871, -9.5
3695, 33.5884074, -17.180603, -9.5
3696, 37.1614259, -15.2921953, -9.5
3697, 36.6327752, -16.6214082, -9.5
3698, 35.7067949, -15.1928979, -9.5
3699, 35.151643, -14.9748245, -9.5
3700, 36.4161859, -1.78284225, -9.5
3701, 34.6906915, -15.2445689, -9.5
3702, 34.469259, -14.5548924, -9.5
3703, 32.488892, -19.7142025, -9.5
3704, 30.6734842, -19.0221749, -9.5
3705, 31.3053545, -19.2420646, -9.5
3706, 33.9305427, -19.3619465, -9.5
3707, 34.5878068, -18.4187237, -9.5
3708, 36.2823507, -16.1320393, -9.5
3709, 34.1862707, -16.0769902, -9.5
3710, 33.0766651, -17.6082168, -9.5
3711, 35.6665227, -17.2042866, -9.5
3712, 32.6162281, -17.972504, -9.5
3713, 35.5716967, -18.562279, -9.5
3714, 31.6226503, -18.8020113, -9.5
3715, 36, -6.75, -9.5
3716, 36.027054, -10.848018, -9.5
3717, 36.2043525, -15.6365535, -9.5
3718, 34.1648266, -17.0560351, -9.5
3719, 32.0976035, -18.3634941, -9.5
3720, 34.3484353, -15.5242557, -9.5
3721, 28.7284566, -19.1936312, -9.5
3722, 28.4500288, -19.206684, -9.5
3723, 29.004628, -19.1550604, -9.5
3724, 27.7025147, -19.5413522, -9.5
3725, 25.9525147, -19.5413522, -9.5
3726, 28.1527936, -19.7482527, -9.5
3727, 29.2759141, -19.0908531, -9.5
3728, 30.111644, -18.8815002, -9.5
3729, 29.8475197, -18.9707016, -9.5
3730, 29.4717525, -19.2933705, -9.5
3731, 30.6814794, -18.6928185, -9.5
3732, 30.4267373, -18.8060669, -9.5
3733, 30.3584211, -19.097697, -9.5
3734, 31.1723005, -18.3694092, -9.5
3735, 30.9291708, -18.5058155, -9.5
3736, 30.9211755, -18.8351719, -9.5
3737, 31.6646896, -18.0511321, -9.5
3738, 31.4352718, -18.2095183, -9.5
3739, 31.4318383, -18.488278, -9.5
3740, 32.110174, -17.6904707, -9.5
3741, 31.8964492, -17.8694691, -9.5
3742, 31.9265692, -18.146724, -9.5
3743, 32.5129521, -17.2736427, -9.5
3744, 32.3167659, -17.4717076, -9.5
3745, 32.3649207, -17.7462979, -9.5
3746, 32.8932069, -16.8380685, -9.5
3747, 32.7162535, -17.0534895, -9.5
3748, 32.7748141, -17.3073815, -9.5
3749, 33.2396564, -16.3757982, -9.5
3750, 33.0834638, -16.606715, -9.5
3751, 33.1683722, -16.8558748, -9.5
3752, 33.5208039, -15.88514, -9.5
3753, 33.3867209, -16.1295586, -9.5
3754, 33.5056936, -16.3782818, -9.5
3755, 33.7551419, -15.3586614, -9.5
3756, 33.6443663, -15.6144683, -9.5
3757, 33.7763205, -15.8613704, -9.5
3758, 33.9710442, -14.8428831, -9.5
3759, 33.884453, -15.1078749, -9.5
3760, 34.0291142, -15.339927, -9.5
3761, 34.1881065, -14.3039181, -9.5
3762, 34.126461, -14.5757635, -9.5
3763, 34.3138421, -14.822012, -9.5
3764, 33.9534505, -13.7764316, -9.5
3765, 34.2346295, -14.0274462, -9.5
3766, 35.013527, -9.92400902, -9.5
3767, 35.013527, -12.174009, -9.5
3768, 35.8779066, -13.8821662, -9.5
3769, 34.7967445, -13.9631121, -9.5
3770, 35.0811621, -13.4190541, -9.5
3771, 36.0946891, -12.0930631, -9.5
3772, 35.0313739, -14.4905583, -9.5
3773, 37.1547258, -0.906364116, -9.5
3774, 35.1979201, -0.911209509, -9.5
3775, 35.1996002, -3.15681994, -9.5
3776, 37.1583615, -0.908177692, -9.5
3777, 37.182053, -3.1527109, -9.5
3778, 37.53083, -14.3618447, -9.5
3779, 37.5502627, -13.9693853, -9.5
3780, 37.013527, -12.174009, -9.5
3781, 37.013527, -9.92400902, -9.5
3782, 36.6312532, -13.8888302, -9.5
3783, 37.0803888, -13.4181479, -9.5
3784, 37.4732323, -14.7501374, -9.5
3785, 37.4084743, -15.5572364, -9.5
3786, 37.5038541, -15.1764589, -9.5
3787, 37.1308041, -14.8658738, -9.5
3788, 37.1145012, -16.2224988, -9.5
3789, 37.2467445, -15.8529037, -9.5
3790, 36.9996961, -15.5878627, -9.5
3791, 36.8440727, -16.9462911, -9.5
3792, 37.0119057, -16.5914378, -9.5
3793, 36.7353707, -16.2524691, -9.5
3794, 36.4619449, -17.5860235, -9.5
3795, 36.6637515, -17.2493295, -9.5
3796, 36.4524541, -16.9244466, -9.5
3797, 35.9998066, -18.2295894, -9.5
3798, 36.2336433, -17.9142972, -9.5
3799, 36.0438313, -17.5557588, -9.5
3800, 35.6142755, -18.8595666, -9.5
3801, 35.8778901, -18.5687126, -9.5
3802, 35.6936132, -18.2231557, -9.5
3803, 34.9922763, -19.3003893, -9.5
3804, 35.2831302, -19.0367747, -9.5
3805, 35.2405514, -18.739487, -9.5
3806, 34.4521933, -19.7835724, -9.5
3807, 34.7674855, -19.5497357, -9.5
3808, 34.6846154, -19.1660415, -9.5
3809, 33.9918931, -20.1393232, -9.5
3810, 34.2141741, -20.0060932, -9.5
3811, 34.2218055, -19.6379087, -9.5
3812, 33.5907233, -20.9117976, -9.5
3813, 33.5907233, -20.3709061, -9.5
3814, 33.7575925, -20.2384964, -9.5
3815, 33.7494856, -19.9596026, -9.5
3816, 33.3483158, -20.1911854, -9.5
3817, 30.90625, -21.0073531, -9.5
3818, 32.96875, -21.0073531, -9.5
3819, 32.5594733, -20.4191507, -9.5
3820, 18.2647356, -19.5557065, -9.5
3821, 18.2802631, -20.7281283, -9.5
3822, 20.3278607, -20.756737, -9.5
3823, 18.2646576, -19.5503522, -9.5
3824, 20.0164026, -19.5226035, -9.5
3825, 35, -5.625, -9.5
3826, 35, -7.875, -9.5
3827, 36.0125735, -8.800585, -9.5
3828, 35.999483, -4.49781964, -9.5
3829, 36.9976816, -5.62738925, -9.5
3830, 36.9947492, -7.87986093, -9.5
3831, 26.5775147, -20.7913522, -9.5
3832, 28.6397089, -20.7915915, -9.5
3833, 30.3145692, -20.7878029, -9.5
3834, 31.3458192, -20.295156, -9.5
3835, 29.3875734, -20.456761, -9.5
3836, 29.8271426, -19.7445639, -9.5
3837, 25.125, -20.25, -9.5
3838, 23.0628371, -20.2543316, -9.5
3839, 21.3218351, -20.2531329, -9.5
3840, 31.65873, -18.5651992, -9.5
3841, 31.3957586, -18.7250901, -9.5
3842, 31.2371107, -18.9451167, -9.5
3843, 30.9894193, -19.1321198, -9.5
3844, 31.4640024, -19.0220379, -9.5
3845, 33.0273902, -17.3477226, -9.5
3846, 32.8240889, -17.5678757, -9.5
3847, 32.5938704, -17.7500193, -9.5
3848, 32.3872784, -17.9687825, -9.5
3849, 32.8464466, -17.7903604, -9.5
3850, 34.2534303, -15.3066936, -9.5
3851, 34.1241591, -15.5574772, -9.5
3852, 34.0430768, -15.8338444, -9.5
3853, 33.9195144, -16.1045162, -9.5
3854, 34.267353, -15.8006229, -9.5
3855, 33.4735183, -16.9025622, -9.5
3856, 33.2832614, -17.1339157, -9.5
3857, 33.7861033, -16.3758805, -9.5
3858, 33.6390388, -16.6221201, -9.5
3859, 33.7539279, -16.900161, -9.5
3860, 33.5086829, -19.8297321, -9.5
3861, 33.7429835, -19.730559, -9.5
3862, 33.7163617, -19.4813175, -9.5
3863, 33.9571645, -19.611188, -9.5
3864, 34.1951837, -19.3886672, -9.5
3865, 33.3171177, -19.9403647, -9.5
3866, 33.3106156, -19.7113211, -9.5
3867, 33.1502485, -20.0727744, -9.5
3868, 36.3468356, -14.4328882, -9.5
3869, 36.7799851, -14.7788224, -9.5
3870, 36.0266384, -14.7721584, -9.5
3871, 36.8106069, -15.205144, -9.5
3872, 33.0705801, -19.571823, -9.5
3873, 33.2621453, -19.4611904, -9.5
3874, 33.2648456, -19.1861624, -9.5
3875, 33.504881, -19.3256605, -9.5
3876, 33.719062, -19.2062895, -9.5
3877, 32.8039713, -19.7680781, -9.5
3878, 32.7555009, -19.5179474, -9.5
3879, 32.8351693, -20.0188988, -9.5
3880, 36.2472045, -16.5955473, -9.5
3881, 36.0668833, -16.8985858, -9.5
3882, 35.9693278, -17.2158858, -9.5
3883, 35.7640782, -16.8869865, -9.5
3884, 35.7410262, -17.5441596, -9.5
3885, 34.301942, -19.120822, -9.5
3886, 34.5267328, -18.8714756, -9.5
3887, 34.3659331, -18.62249, -9.5
3888, 34.7486065, -18.6677094, -9.5
3889, 34.8539585, -18.3002531, -9.5
3890, 35.0147582, -18.5492387, -9.5
3891, 35.3459034, -18.3720307, -9.5
3892, 33.013131, -19.0373919, -9.5
3893, 33.2558668, -18.9018619, -9.5
3894, 32.7652266, -19.1852519, -9.5
3895, 32.7562478, -18.9009515, -9.5
3896, 32.4986178, -19.381507, -9.5
3897, 36.648877, -15.5008113, -9.5
3898, 36.5211594, -15.7600418, -9.5
3899, 36.3320702, -15.3773231, -9.5
3900, 36.457563, -16.3767238, -9.5
3901, 36.5601585, -16.0077847, -9.5
3902, 36.2433516, -15.8842964, -9.5
3903, 33.2626589, -18.6024945, -9.5
3904, 33.5143735, -18.751265, -9.5
3905, 33.8326125, -18.6390769, -9.5
3906, 33.8258204, -18.9384443, -9.5
3907, 34.037301, -19.0941014, -9.5
3908, 33.0217175, -18.4661124, -9.5
3909, 33.2802243, -18.3155154, -9.5
3910, 32.4938598, -18.7483628, -9.5
3911, 32.7417642, -18.6005027, -9.5
3912, 32.7593295, -18.3135236, -9.5
3913, 33.7985089, -18.2980298, -9.5
3914, 34.1099558, -18.4852091, -9.5
3915, 33.53685, -18.1461528, -9.5
3916, 33.8141933, -17.9922851, -9.5
3917, 33.2959087, -18.0097707, -9.5
3918, 32.2831215, -18.880713, -9.5
3919, 32.2686378, -18.5802642, -9.5
3920, 32.238139, -19.128048, -9.5
3921, 32.012917, -18.9599494, -9.5
3922, 32.2284133, -19.4607434, -9.5
3923, 32.0777515, -18.5380543, -9.5
3924, 32.2884898, -18.405704, -9.5
3925, 32.5478021, -18.210209, -9.5
3926, 32.8277555, -18.0758187, -9.5
3927, 32.3188524, -18.2064875, -9.5
3928, 32.1279661, -18.1642776, -9.5
3929, 32.213196, -20.1144544, -9.5
3930, 31.7952924, -19.0046478, -9.5
3931, 31.8402749, -18.7573128, -9.5
3932, 31.8763546, -18.5205007, -9.5
3933, 31.8962066, -18.3459406, -9.5
3934, 32.0873758, -19.7377883, -9.5
3935, 31.826897, -19.4843293, -9.5
3936, 31.495607, -19.5017194, -9.5
3937, 31.6366445, -19.2246745, -9.5
3938, 36.0832914, -15.1554952, -9.5
3939, 35.6501419, -14.809561, -9.5
3940, 35.4292189, -15.0838612, -9.5
3941, 35.3724789, -14.7005589, -9.5
3942, 34.8104054, -14.7648585, -9.5
3943, 35.9555737, -15.4147257, -9.5
3944, 30.3987482, -19.6244124, -9.5
3945, 30.7138113, -19.5488903, -9.5
3946, 31.2200097, -19.9185212, -9.5
3947, 31.8116798, -20.1380402, -9.5
3948, 31.0297464, -19.6588352, -9.5
3949, 34.3318295, -18.2814429, -9.5
3950, 33.8131176, -17.6801969, -9.5
3951, 34.0747765, -17.8320739, -9.5
3952, 34.3487122, -17.6720637, -9.5
3953, 34.349788, -17.9841519, -9.5
3954, 34.6057653, -18.1214327, -9.5
3955, 33.5704709, -17.5105055, -9.5
3956, 33.8310541, -17.3502944, -9.5
3957, 33.057974, -17.8936751, -9.5
3958, 33.3145997, -17.7243124, -9.5
3959, 33.3325362, -17.3944099, -9.5
3960, 34.3581043, -17.3636635, -9.5
3961, 34.6331158, -17.5157414, -9.5
3962, 34.1192637, -17.2880104, -9.5
3963, 34.4036673, -17.1316882, -9.5
3964, 33.876617, -17.1183191, -9.5
3965, 34.9162035, -17.3579813, -9.5
3966, 34.9068114, -17.6663815, -9.5
3967, 35.1550046, -17.8452019, -9.5
3968, 34.8719169, -18.002962, -9.5
3969, 34.9179629, -17.0194744, -9.5
3970, 35.1916585, -17.1701145, -9.5
3971, 34.601713, -16.884269, -9.5
3972, 34.8771679, -16.6964022, -9.5
3973, 34.3628723, -16.808616, -9.5
3974, 35.4299702, -17.0179471, -9.5
3975, 35.4282109, -17.356454, -9.5
3976, 35.5027144, -17.6963269, -9.5
3977, 35.4678199, -18.0329075, -9.5
3978, 34.8685142, -16.3649483, -9.5
3979, 35.1847641, -16.5001537, -9.5
3980, 35.5188721, -16.3691932, -9.5
3981, 35.5275258, -16.700647, -9.5
3982, 34.627644, -16.2029279, -9.5
3983, 34.9352401, -16.0066793, -9.5
3984, 34.0528596, -16.3483545, -9.5
3985, 34.3735944, -16.3190935, -9.5
3986, 34.2401832, -16.5904579, -9.5
3987, 34.0421375, -16.837877, -9.5
3988, 34.4403204, -15.9608245, -9.5
3989, 35.4554867, -16.0124537, -9.5
3990, 35.7982484, -16.212947, -9.5
3991, 35.1746985, -15.8401457, -9.5
3992, 35.4540748, -15.6838996, -9.5
3993, 34.9338283, -15.6781252, -9.5
3994, 36.0086069, -15.9941235, -9.5
3995, 36.0719922, -16.3508629, -9.5
3996, 35.4400408, -15.3522447, -9.5
3997, 35.720829, -15.5245527, -9.5
3998, 35.9696078, -15.7463805, -9.5
3999, 34.6925307, -15.5446139, -9.5
4000, 34.931989, -15.3780803, -9.5
4001, 35.1624648, -15.2432081, -9.5
4002, 34.9211672, -15.1096967, -9.5
4003, 34.5799752, -14.8997307, -9.5
4004, 34.4245584, -15.1668502, -9.5
4005, 34.5195634, -15.3844123, -9.5
4006, 34.5214026, -15.6844573, -9.5
4007, 17.2561993, -19.0061724, -9.49687113
4008, 17.5077866, -18.7579657, -9.49999681
4009, 19.8956636, -18.7440907, -9.19297536
4010, 17.184087, -18.7915579, -9.49474586
4011, 19.8984812, -18.7412878, 9.19224065
4012, 17.2620931, -19.0060718, 9.4970206
4013, 17.177347, -18.7935119, 9.49451921
4014, 13.8645074, -18.755, 8.77685556
4015, 16.2573496, -18.7816087, 9.41837672
4016, 16.5860937, -18.7844507, 9.45593863
4017, 16.8504212, -18.7866749, 9.47776595
4018, 22.1663727, -18.740956, 8.27496019
4019, 24.1144383, -18.7382983, 6.81903264
4020, 25.645845, -18.7392445, 4.88827267
4021, 26.4035307, -18.761621, 3.31317701
4022, 25.6400447, -18.7430007, -4.89792528
4023, 24.1140378, -18.741343, -6.8194211
4024, 26.4071182, -18.7278583, -3.30352017
4025, 22.1690868, -18.7410765, -8.27342906
4026, 16.8523446, -18.7853353, -9.47789758
4027, 16.5821067, -18.7834465, -9.45555244
4028, 16.2640139, -18.7800197, -9.41925359
4029, 13.8483216, -18.7688347, -8.77013369
4030, 13.5697289, -18.7805695, -8.64887099
4031, 13.3212122, -18.7847538, -8.53157268
4032, 13.0056662, -18.793302, -8.36964537
4033, 12.7486656, -18.7831118, -8.22647079
4034, 12.4989558, -18.7943536, -8.07710077
4035, 12.2031404, -18.782057, -7.88627148
4036, 11.9755633, -18.7820215, -7.72855735
4037, 11.7223502, -18.7781406, -7.54113806
4038, 9.96114386, -18.7599583, -5.78062697
4039, 9.77376174, -18.7824553, -5.52767966
4040, 9.60578984, -18.7826976, -5.2850209
4041, 9.42221266, -18.7936257, -4.99993517
4042, 9.2711495, -18.7833752, -4.74721176
4043, 9.12876556, -18.7940715, -4.49137328
4044, 8.96848209, -18.7810893, -4.17889963
4045, 8.85009043, -18.7808825, -3.92798478
4046, 8.72783593, -18.7768321, -3.64679827
4047, 8.07874286, -18.7744154, -1.22062026
4048, 8.04552088, -18.7796888, -0.928883518
4049, 8.0223594, -18.7788775, -0.651405076
4050, 8.00482178, -18.7950901, -0.302639358
4051, 8.00000377, -18.7827638, -0.00846171218
4052, 8.00438558, -18.7944088, 0.288629289
4053, 8.02189132, -18.781966, 0.644558677
4054, 8.04548059, -18.7806966, 0.928473361
4055, 8.08301291, -18.7676752, 1.25313774
4056, 8.73001292, -18.7780282, 3.65203049
4057, 8.85072995, -18.7817667, 3.92939279
4058, 8.96829168, -18.7805003, 4.17851087
4059, 9.12970879, -18.7946088, 4.49313087
4060, 9.2718583, -18.7797891, 4.74844018
4061, 9.42282441, -18.7945952, 5.00092337
4062, 9.60901718, -18.7812755, 5.28983838
4063, 9.77234526, -18.7814278, 5.52569925
4064, 9.96310769, -18.7643708, 5.78318721
4065, 11.7167664, -18.755, 7.53685673
4066, 11.9664619, -18.755, 7.7220435
4067, 12.2220828, -18.755, 7.89896132
4068, 12.4833554, -18.755, 8.06742072
4069, 12.75, -18.755, 8.22724134
4070, 13.021731, -18.755, 8.37825201
4071, 13.2982574, -18.755, 8.52029104
4072, 13.5792832, -18.755, 8.65320634
4073, 26.9610292, -18.770544, 0.859607976
4074, 26.9598101, -18.7480485, -0.87292164
4075, 16.8916944, -19.01, 9.47034701
4076, 16.8741242, -20.2689529, 9.45897793
4077, 16.5713995, -20.8798819, 9.43913631
4078, 16.5776071, -19.6453381, 9.43954318
4079, 16.886496, -19.6201987, 9.45978883
4080, 17.1834871, -19.6331483, 9.47925465
4081, 17.1876235, -20.8920478, 9.47952576
4082, 15.6506101, -20.2702684, 9.29751077
4083, 15.3459146, -20.8851342, 9.23690306
4084, 15.3459146, -19.6401342, 9.23690306
4085, 15.6506101, -19.6401342, 9.29751077
4086, 15.9567575, -19.6603134, 9.35840726
4087, 15.9553056, -20.8851342, 9.35811847
4088, 14.4528632, -20.2702684, 8.97657545
4089, 14.1586853, -20.8851342, 8.87671551
4090, 14.1586853, -19.6401342, 8.87671551
4091, 14.4528632, -19.6401342, 8.97657545
4092, 14.7470412, -19.6401342, 9.0764354
4093, 14.7470412, -20.8851342, 9.0764354
4094, 13.3072537, -20.2702684, 8.50204845
4095, 13.0286268, -20.8851342, 8.36464489
4096, 13.0286268, -19.6401342, 8.36464489
4097, 13.3072537, -19.6401342, 8.50204845
4098, 13.5858805, -19.6401342, 8.639452
4099, 13.5858805, -20.8851342, 8.639452
4100, 12.2333832, -20.2702684, 7.88204903
4101, 11.9750748, -20.8851342, 7.70945288
4102, 11.9750748, -19.6401342, 7.70945288
4103, 12.2332021, -19.6417795, 7.88192805
4104, 12.4916916, -19.6401342, 8.05464519
4105, 12.4916916, -20.8851342, 8.05464519
4106, 11.249626, -20.2702684, 7.12718558
4107, 11.0160558, -20.8851342, 6.92235
4108, 11.0175038, -19.6412385, 6.9236199
4109, 11.249626, -19.6401342, 7.12718558
4110, 11.4831962, -19.6401342, 7.33202115
4111, 11.4831962, -20.8851342, 7.33202115
4112, 10.3728144, -20.2702684, 6.250374
4113, 10.1679788, -20.8851342, 6.01680379
4114, 10.1683424, -19.6479605, 6.01721838
4115, 10.3731599, -19.6323003, 6.25076798
4116, 10.57765, -19.6401342, 6.48394421
4117, 10.57765, -20.8851342, 6.48394421
4118, 9.61795097, -20.2702684, 5.26661679
4119, 9.44535481, -20.8851342, 5.00830839
4120, 9.44399979, -19.6463071, 5.00628045
4121, 9.61658092, -19.6385383, 5.26456637
4122, 9.79123941, -19.6418316, 5.52596127
4123, 9.79084825, -20.8903307, 5.52537586
4124, 8.99869547, -20.2671599, 4.19425481
4125, 8.86065175, -20.8876512, 3.91432986
4126, 8.86146739, -19.6458607, 3.91598381
4127, 8.99919616, -19.6355252, 4.19527011
4128, 9.13668634, -19.6471983, 4.47407262
4129, 9.13580454, -20.886723, 4.47228451
4130, 8.52126142, -20.2747061, 3.0407644
4131, 8.42239978, -20.8942987, 2.74952742
4132, 8.4226369, -19.6446355, 2.75022594
4133, 8.5243287, -19.6392238, 3.04980033
4134, 8.6244199, -19.6550823, 3.34465949
4135, 8.6228453, -20.8884511, 3.34002087
4136, 8.20231122, -20.2635043, 1.84849494
4137, 8.14286409, -20.8940755, 1.54963403
4138, 8.14361118, -19.6529928, 1.55338992
4139, 8.20340277, -19.6337592, 1.85398253
4140, 8.26309092, -19.6511206, 2.15405511
4141, 8.26256814, -20.8832231, 2.15142693
4142, 8.04065281, -20.2750772, 0.620242013
4143, 8.02057059, -20.8780658, 0.31384662
4144, 8.01937561, -19.647153, 0.295614694
4145, 8.04045526, -19.6644153, 0.617228006
4146, 8.06198723, -19.6437775, 0.945742343
4147, 8.06093129, -20.876484, 0.929631834
4148, 8.04087429, -20.2684615, -0.62362118
4149, 8.06119282, -20.8732369, -0.933621966
4150, 8.06120061, -19.6457711, -0.933740939
4151, 8.04094661, -19.6301702, -0.624724537
4152, 8.02083191, -19.6462086, -0.317833499
4153, 8.02022125, -20.8826771, -0.30851662
4154, 8.19964663, -20.26639, -1.83509914
4155, 8.2625928, -20.8873327, -2.15155092
4156, 8.26587386, -19.6583875, -2.1680459
4157, 8.20071842, -19.6324449, -1.84048741
4158, 8.13923925, -19.6508341, -1.53141076
4159, 8.13960065, -20.8903485, -1.53322759
4160, 8.52298118, -20.2678166, -3.04583064
4161, 8.62367193, -20.8877584, -3.34245605
4162, 8.62563829, -19.6542179, -3.34824875
4163, 8.5260202, -19.626503, -3.05478331
4164, 8.42584808, -19.6499941, -2.75968577
4165, 8.42266116, -20.8945296, -2.75029741
4166, 8.99795155, -20.2702684, -4.1927463
4167, 9.13535511, -20.8851342, -4.47137315
4168, 9.13638453, -19.6494489, -4.47346061
4169, 8.99957442, -19.6326417, -4.19603715
4170, 8.86177261, -19.6463667, -3.91660272
4171, 8.860548, -20.8851342, -3.91411946
4172, 9.61795097, -20.2702684, -5.26661679
4173, 9.79054712, -20.8851342, -5.52492518
4174, 9.79166282, -19.6405215, -5.52659495
4175, 9.6183439, -19.636391, -5.26720486
4176, 9.44686077, -19.6436017, -5.01056221
4177, 9.44535481, -20.8851342, -5.00830839
4178, 10.3728144, -20.2702684, -6.250374
4179, 10.57765, -20.8851342, -6.48394421
4180, 10.5745856, -19.6425322, -6.48044997
4181, 10.3726965, -19.6252993, -6.25023955
4182, 10.169304, -19.6500369, -6.01831488
4183, 10.1679788, -20.8851342, -6.01680379
4184, 11.249626, -20.2702684, -7.12718558
4185, 11.4831962, -20.8851342, -7.33202115
4186, 11.4823475, -19.6547147, -7.33127688
4187, 11.2493743, -19.6329327, -7.12696486
4188, 11.0143122, -19.6437903, -6.92082095
4189, 11.0160558, -20.8851342, -6.92235
4190, 12.2333832, -20.2702684, -7.88204903
4191, 12.4916916, -20.8851342, -8.05464519
4192, 12.4916916, -19.6401342, -8.05464519
4193, 12.2336724, -19.6374851, -7.88224224
4194, 11.9750748, -19.6401342, -7.70945288
4195, 11.9750748, -20.8851342, -7.70945288
4196, 13.3072537, -20.2702684, -8.50204845
4197, 13.5858805, -20.8851342, -8.639452
4198, 13.5901912, -19.6487076, -8.64157781
4199, 13.3099862, -19.6332204, -8.50339597
4200, 13.0286268, -19.6401342, -8.36464489
4201, 13.0286268, -20.8851342, -8.36464489
4202, 14.4528632, -20.2702684, -8.97657545
4203, 14.7470412, -20.8851342, -9.0764354
4204, 14.7568961, -19.6610258, -9.07978069
4205, 14.4581524, -19.6418277, -8.9783709
4206, 14.1497299, -19.6623513, -8.87367555
4207, 14.1586853, -20.8851342, -8.87671551
4208, 15.6506101, -20.2702684, -9.29751077
4209, 15.9553056, -20.8851342, -9.35811847
4210, 15.9466387, -19.6533672, -9.35639452
4211, 15.6497943, -19.6341169, -9.2973485
4212, 15.3523564, -19.6493732, -9.2381844
4213, 15.3459146, -20.8851342, -9.23690306
4214, 16.8661077, -20.272012, -9.45845251
4215, 17.1849855, -20.8968609, -9.47935286
4216, 17.1851023, -19.6330741, -9.47936052
4217, 16.5651784, -20.8744149, -9.43872856
4218, 16.8769386, -19.6211765, -9.4591624
4219, 16.566671, -19.6302538, -9.43882639
4220, 15.6484824, -19.01, 9.30756082
4221, 14.4495942, -19.01, 8.98620584
4222, 13.3027556, -19.01, 8.51116975
4223, 12.227733, -19.01, 7.89050518
4224, 11.2429204, -19.01, 7.13483187
4225, 10.3689495, -19.01, 6.26151046
4226, 9.60926522, -19.01, 5.27219555
4227, 8.98735135, -19.01, 4.19447835
4228, 8.51439158, -19.01, 3.05249514
4229, 8.19337593, -19.01, 1.8562285
4230, 8.03043114, -19.01, 0.621952423
4231, 8.03061743, -19.01, -0.626012965
4232, 8.19139706, -19.01, -1.84633438
4233, 8.51431734, -19.01, -3.05224839
4234, 8.98712532, -19.01, -4.1942957
4235, 9.6092043, -19.01, -5.2721193
4236, 10.3710598, -19.01, -6.26386248
4237, 11.2446192, -19.01, -7.13643765
4238, 12.225506, -19.01, -7.88926887
4239, 13.3037235, -19.01, -8.51189134
4240, 14.4538567, -19.01, -8.987617
4241, 15.6502441, -19.01, -9.30788762
4242, 16.8841442, -19.01, -9.46980615
4243, 17.4970415, -18.5, 8.77418471
4244, 19.8933315, -18.5, 8.2831098
4245, 15.0950883, -18.5, 8.29296636
4246, 22.2540349, -18.5, 7.3668992
4247, 12.773859, -18.5, 7.34968865
4248, 24.0509722, -18.5, 5.69917733
4249, 25.4558208, -18.5, 3.61046349
4250, 26.1825702, -18.5, 1.28490461
4251, 26.1621641, -18.5, -1.25539681
4252, 25.4646491, -18.5, -3.62250733
4253, 24.0544103, -18.5, -5.70904933
4254, 22.2552491, -18.5, -7.3680417
4255, 17.4940802, -18.5, -8.77934333
4256, 19.9015613, -18.5, -8.28669184
4257, 15.0844295, -18.5, -8.30955235
4258, 12.7264738, -18.5, -7.39202635
4259, 10.9277988, -18.5, -5.71294076
4260, 8.79990774, -18.5, -1.26181535
4261, 9.47858136, -18.5, -3.64778331
4262, 8.82654734, -18.5, 1.26235427
4263, 9.49612023, -18.5, 3.63741968
4264, 10.9367717, -18.5, 5.70144013
4265, 20.5597479, -17.5193049, 7.3917483
4266, 15.027864, -17.525, 7.60845213
4267, 19.0669385, -18.074407, 7.84504327
4268, 19.0638792, -17.0305105, 7.84565369
4269, 21.3913702, -18.0798547, 6.98979528
4270, 12.797718, -17.525, 6.47213595
4271, 21.3991162, -17.0147806, 6.98547729
4272, 23.9727577, -17.5206731, 4.70142619
4273, 22.2107837, -17.5321168, 6.46595056
4274, 25.4999998, -17.5087692, -0.00179675032
4275, 25.1190604, -17.4920204, 2.43924563
4276, 25.1226796, -17.5369727, -2.42791189
4277, 23.9729642, -17.5217235, -4.70114182
4278, 19.9715258, -17.5239635, -7.60865036
4279, 22.1914194, -17.5192266, -6.48001422
4280, 17.4990825, -17.5184797, -7.99999995
4281, 15.027864, -17.525, -7.60845213
4282, 9.87344548, -17.5520658, -2.41571234
4283, 11.0262269, -17.5158661, -4.70002783
4284, 12.797718, -17.525, -6.47213595
4285, 9.87985214, -17.5113648, 2.43584618
4286, 9.50000069, -17.5337393, -0.00333107653
4287, 11.0272004, -17.5215735, 4.70136846
4288, 34.7535944, -23.1491851, -5
4289, 34.2673345, -23.4470792, -5
4290, 35.4805035, -22.6586608, -5
4291, 34.4277943, -22.3916874, -5
4292, 33.6630696, -23.1977786, -5
4293, 21.8523566, -22.7815765, -5
4294, 36.5043796, -19.3738004, -5
4295, 36.5954715, -19.2690657, -5
4296, 36.8263905, -18.953651, -5
4297, 36.4833173, -20.9155366, -5
4298, 36.4911806, -19.5632339, -5
4299, 36.0543105, -22.0009391, -5
4300, 36.1723267, -21.8472118, -5
4301, 35.796887, -22.5806795, -5
4302, 35.7332867, -22.0834402, -5
4303, 36.2703999, -21.6662843, -5
4304, 36.3562713, -21.4884707, -5
4305, 36.4207424, -21.3009285, -5
4306, 36.4496636, -21.1182759, -5
4307, 35.2132844, -21.9449064, -5
4308, 33.1755408, -21.9488261, -5
4309, 34.9526887, -22.5349266, -5
4310, 20.7652937, -22.117451, -5
4311, 20.7685666, -23.3259017, -5
4312, 22.8070731, -22.1216684, -5
4313, 22.9630582, -23.313759, -5
4314, 33.3319196, -23.5936181, -5
4315, 33.5518838, -23.58118, -5
4316, 32.4629617, -22.7479946, -5
4317, 30.2508061, -22.7415389, -5
4318, 32.797638, -22.3531815, -5
4319, 33.7435448, -23.5506974, -5
4320, 34.0424689, -23.6775152, -5
4321, 34.237128, -23.6228971, -5
4322, 33.9639687, -23.323568, -5
4323, 34.4226252, -23.5583313, -5
4324, 34.6623852, -23.415955, -5
4325, 34.8386465, -23.3146504, -5
4326, 34.512917, -23.298803, -5
4327, 35.012063, -23.216885, -5
4328, 35.3677296, -22.9728765, -5
4329, 35.5254223, -22.8560487, -5
4330, 35.1111461, -22.904338, -5
4331, 35.6714251, -22.7264407, -5
4332, 28.2018294, -22.7075087, -5
4333, 34.0444551, -22.7981337, -5
4334, 26.0087777, -22.7176057, -5
4335, 23.9572721, -22.7441022, -5
4336, 34.2007135, -23.1742498, -5
4337, 34.5830547, -22.7776272, -5
4338, 36.0920414, -18.6766992, -7.25026546
4339, 35.8280866, -18.9679285, -7.25032606
4340, 36.4178828, -18.2599045, -7.25006088
4341, 36.8260401, -17.6537878, -7.25005292
4342, 37.0277104, -17.3173213, -7.25001637
4343, 37.7274833, -17.6712134, -4.68612542
4344, 37.2532223, -17.5135599, -4.96740811
4345, 37.2524779, -18.8692286, -4.96760265
4346, 37.6523542, -18.8537575, -4.7579142
4347, 37.279651, -17.473296, -4.96010172
4348, 37.5408295, -17.1097269, -4.84113222
4349, 37.9117064, -18.8145528, -4.41084235
4350, 37.8963688, -17.2170298, -4.44330903
4351, 37.9808058, -15.487036, -4.19498693
4352, 37.9084266, -16.7141015, -4.41804433
4353, 37.9128926, -16.3116325, -4.40819989
4354, 37.9298125, -15.9006401, -4.36803347
4355, 37.3912438, -20.2156567, -4.9153941
4356, 37.9030073, -20.2643972, -4.40095567
4357, 37.1786652, -20.1113668, -4.9827161
4358, 37.1787024, -20.2892066, -4.98102478
4359, 37.5290815, -20.3299397, -4.83789063
4360, 37.5545332, -20.0699033, -4.82950469
4361, 37.961856, -20.3926917, -4.19314428
4362, 37.9750504, -20.1586265, -4.18433282
4363, 37.8216783, -20.0974064, -4.56268325
4364, 37.8195039, -20.3600396, -4.54660947
4365, 37.6937734, -20.225597, -4.70899671
4366, 37.3266465, -20.5993677, -4.92751527
4367, 37.8699587, -20.7094272, -4.37415538
4368, 37.1571832, -20.4650999, -4.9824635
4369, 37.1344671, -20.6676094, -4.98106098
4370, 37.4810098, -20.7526317, -4.83584447
4371, 37.5136955, -20.5287113, -4.83618839
4372, 37.9041681, -20.8492058, -4.19035663
4373, 37.9421465, -20.5953316, -4.18871818
4374, 37.7969612, -20.5825856, -4.54789494
4375, 37.7634427, -20.8116859, -4.54719156
4376, 37.6539267, -20.6741491, -4.70571495
4377, 37.2464608, -21.0303856, -4.92678768
4378, 37.7750375, -21.1878819, -4.37607293
4379, 37.112062, -20.8742534, -4.97828217
4380, 37.0423496, -21.0766859, -4.98200758
4381, 37.3868401, -21.2051541, -4.83236802
4382, 37.4245346, -20.9570115, -4.84768847
4383, 37.7919598, -21.336239, -4.20360526
4384, 37.8606578, -21.0736336, -4.18948101
4385, 37.726116, -21.0452403, -4.53559403
4386, 37.6534594, -21.2849301, -4.55442113
4387, 37.5646392, -21.1147127, -4.70948701
4388, 37.1291513, -21.4469846, -4.92446165
4389, 37.6348799, -21.6443985, -4.38251906
4390, 36.9881489, -21.2828016, -4.9811587
4391, 36.9264564, -21.472012, -4.98002784
4392, 37.2498872, -21.6224928, -4.83246332
4393, 37.3291425, -21.401321, -4.8323889
4394, 37.644867, -21.7852511, -4.19500308
4395, 37.727519, -21.5542542, -4.19500308
4396, 37.5869619, -21.5039621, -4.55549627
4397, 37.5093544, -21.7215184, -4.55516431
4398, 37.4314453, -21.570351, -4.70675428
4399, 36.9741412, -21.8342524, -4.92381144
4400, 37.4513825, -22.090778, -4.38251906
4401, 36.8481681, -21.6616621, -4.98076792
4402, 36.7663594, -21.840151, -4.98029539
4403, 37.0400035, -22.0270286, -4.85122001
4404, 37.1740261, -21.8157815, -4.83142019
4405, 37.4475155, -22.2319312, -4.19500308
4406, 37.5524111, -22.0101479, -4.19500308
4407, 37.4174604, -21.946321, -4.55549627
4408, 37.3189023, -22.1552229, -4.55516431
4409, 37.232056, -21.9988025, -4.72726739
4410, 36.7752165, -22.2149539, -4.92381144
4411, 37.2250158, -22.5170221, -4.38251906
4412, 36.6667667, -22.0308472, -4.98076792
4413, 36.5564657, -22.2001138, -4.98224749
4414, 36.8576258, -22.4145411, -4.83108802
4415, 36.9759493, -22.2161641, -4.83142019
4416, 37.207332, -22.6571166, -4.19500308
4417, 37.3334611, -22.4466828, -4.19500308
4418, 37.2054163, -22.3699357, -4.55549627
4419, 37.0868568, -22.5681714, -4.55516431
4420, 37.0399361, -22.4047093, -4.70675428
4421, 36.5399343, -22.5743242, -4.92381144
4422, 36.9579599, -22.9190259, -4.38251906
4423, 36.4362769, -22.3681801, -4.9842487
4424, 36.3349942, -22.5395733, -4.98029539
4425, 36.6023838, -22.7810279, -4.83108802
4426, 36.7445822, -22.6104776, -4.8225042
4427, 36.9266295, -23.0567125, -4.19500308
4428, 37.0727774, -22.8596549, -4.19500308
4429, 36.9528717, -22.7707267, -4.55549627
4430, 36.8154527, -22.9563869, -4.55516431
4431, 36.7868558, -22.7938117, -4.70225497
4432, 36.2705607, -22.9089024, -4.92381144
4433, 36.6527867, -23.2929179, -4.38251906
4434, 36.2001122, -22.7071757, -4.98076792
4435, 36.0590146, -22.8533715, -4.98201359
4436, 36.3106458, -23.1213122, -4.83172045
4437, 36.4672004, -22.9492503, -4.83142019
4438, 36.6081115, -23.4268706, -4.19500308
4439, 36.7798522, -23.2400832, -4.18565286
4440, 36.6624087, -23.1458863, -4.55427042
4441, 36.5073037, -23.3161309, -4.55516431
4442, 36.4929669, -23.1462061, -4.70721018
4443, 35.9696898, -23.2154662, -4.92381144
4444, 36.3124351, -23.6350973, -4.38251906
4445, 35.9193532, -23.0078058, -4.98076792
4446, 35.775467, -23.1414012, -4.98029539
4447, 35.9906134, -23.4303814, -4.83108802
4448, 36.1614278, -23.2748939, -4.83142019
4449, 36.2559561, -23.7671654, -4.17885965
4450, 36.4366292, -23.5992668, -4.19500308
4451, 36.3363764, -23.488655, -4.55549627
4452, 36.1635741, -23.6366716, -4.56492082
4453, 36.1663832, -23.4687678, -4.71156216
4454, 35.5976226, -23.515963, -4.92602071
4455, 35.9040242, -23.9705406, -4.37968459
4456, 35.5903882, -23.2883217, -4.98172212
4457, 35.4290048, -23.4136674, -4.98083055
4458, 35.6121254, -23.7137811, -4.83843543
4459, 35.8051106, -23.5881432, -4.82913472
4460, 35.8441151, -24.0846525, -4.1935836
4461, 36.0512307, -23.932479, -4.18765246
4462, 35.9593829, -23.8097258, -4.55935896
4463, 35.7756721, -23.9589057, -4.54365067
4464, 35.8022839, -23.774389, -4.70725455
4465, 35.2834606, -23.7281448, -4.92593105
4466, 35.540845, -24.2141131, -4.37544798
4467, 35.276567, -23.5119018, -4.98204041
4468, 35.106177, -23.6215805, -4.98077395
4469, 35.2624026, -23.9417824, -4.83509244
4470, 35.4597121, -23.824969, -4.83427219
4471, 35.4532927, -24.3309424, -4.18867083
4472, 35.6741988, -24.1986217, -4.18828933
4473, 35.5947859, -24.0748204, -4.55009922
4474, 35.3942139, -24.1957504, -4.54917128
4475, 35.4338851, -24.0230845, -4.70620806
4476, 34.9020486, -23.9368186, -4.92576675
4477, 35.1210771, -24.4395886, -4.37693279
4478, 34.9358792, -23.7373714, -4.97721292
4479, 34.7263844, -23.811894, -4.98177276
4480, 34.846694, -24.130902, -4.84807429
4481, 35.0795454, -24.0502653, -4.83082122
4482, 35.0075649, -24.5512927, -4.20535691
4483, 35.2577888, -24.4372073, -4.1860527
4484, 35.1856658, -24.3009188, -4.55998932
4485, 34.9699074, -24.4246414, -4.52984399
4486, 35.0083357, -24.2495709, -4.70794905
4487, 34.5109339, -24.1023608, -4.92597107
4488, 34.6666525, -24.6297084, -4.37610869
4489, 34.5463235, -23.8898509, -4.98189433
4490, 34.3598634, -23.9637616, -4.98056327
4491, 34.4486021, -24.3061843, -4.8361477
4492, 34.6630217, -24.2293516, -4.83621694
4493, 34.5588943, -24.7266376, -4.19127776
4494, 34.7994509, -24.6407362, -4.19044884
4495, 34.7465155, -24.5049564, -4.54869737
4496, 34.5288871, -24.5840465, -4.54694124
4497, 34.5966831, -24.4222876, -4.70650534
4498, 34.0946099, -24.2309128, -4.92657549
4499, 34.2084108, -24.7700294, -4.37575229
4500, 34.1685763, -24.0433697, -4.97723526
4501, 33.9548426, -24.0763401, -4.98135425
4502, 34.0087251, -24.4356118, -4.83264637
4503, 34.2423815, -24.3540317, -4.84709368
4504, 34.0855367, -24.8543256, -4.20560952
4505, 34.3481591, -24.7916882, -4.19050624
4506, 34.3072434, -24.6606159, -4.53539784
4507, 34.0637317, -24.7091552, -4.55400073
4508, 34.1678811, -24.5518214, -4.70900481
4509, 33.6717773, -24.3231965, -4.92457613
4510, 33.7238607, -24.8652717, -4.38033793
4511, 33.7514996, -24.1207328, -4.98131213
4512, 33.5575535, -24.1529594, -4.98063533
4513, 33.5695489, -24.5094607, -4.83500291
4514, 33.8029967, -24.478914, -4.83232804
4515, 33.6074137, -24.9391263, -4.194933
4516, 33.8526492, -24.9031863, -4.19274414
4517, 33.8314232, -24.7566683, -4.55296822
4518, 33.5955529, -24.7951459, -4.54773151
4519, 33.6986407, -24.6509478, -4.70506474
4520, 33.2405787, -24.399093, -4.9113549
4521, 33.2389077, -24.9008038, -4.40875099
4522, 33.3405441, -24.1842854, -4.97939013
4523, 33.111449, -24.1952099, -4.97945809
4524, 33.1059394, -24.5083299, -4.85771808
4525, 33.3667941, -24.5053974, -4.85172385
4526, 33.1176603, -24.973252, -4.20358359
4527, 33.3698589, -24.9628536, -4.19377256
4528, 33.3737043, -24.8322396, -4.52552451
4529, 33.1099649, -24.849466, -4.51855697
4530, 33.2265986, -24.6963271, -4.70640133
4531, 21.715138, -24.7118027, -4.70237944
4532, 23.8767315, -24.6872432, -4.72642744
4533, 21.4607401, -24.9415093, -4.3369871
4534, 30.8378723, -24.3536997, -4.93535902
4535, 30.727867, -24.6924723, -4.72144451
4536, 28.399178, -24.7081011, -4.70611106
4537, 26.2144313, -24.7064485, -4.70776448
4538, 15.9391741, -24.3720785, -4.15061561
4539, 19.067089, -24.1608156, -4.1559197
4540, 16.1549225, -23.2821881, -3.98824295
4541, 19.325479, -22.7452367, -4.41128148
4542, 16.5661477, -24.0882724, -3.76744096
4543, 18.8350478, -21.0474372, -3.98157307
4544, 16.3607419, -20.649156, -3.86493771
4545, 19.5467226, -23.3903324, -4.70874999
4546, 19.5422056, -22.1311428, -4.7016178
4547, 19.9079183, -20.49962, -5.75848532
4548, 19.5616506, -20.5047054, -4.73272065
4549, 19.3323741, -21.2786046, -4.41923902
4550, 19.1351654, -20.3003195, -4.21600613
4551, 19.7063556, -20.5079057, -6.99418063
4552, 19.1027997, -21.8908527, -4.18687198
4553, 19.3070467, -24.4419214, -4.39034717
4554, 19.4481664, -24.0732443, -4.56436506
4555, 19.2030188, -23.4456763, -4.28066093
4556, 18.3321225, -24.5583602, -3.72756251
4557, 18.991787, -24.6056015, -4.09448918
4558, 16.4970553, -24.5441362, -3.79761447
4559, 17.023761, -24.5441362, -3.62732294
4560, 18.3230323, -23.1814733, -3.72425444
4561, 17.023761, -23.1691362, -3.62732294
4562, 18.1923338, -20.325121, -3.68114816
4563, 18.193357, -21.6531709, -3.68145388
4564, 16.9643025, -21.4498788, -3.6400364
4565, 16.9474892, -20.1207763, -3.64391599
4566, 15.9407029, -20.1184914, -4.14932648
4567, 15.816673, -22.3910941, -4.26137695
4568, 15.816673, -23.6410941, -4.26137695
4569, 16.4038104, -21.8667659, -3.84250878
4570, 16.7971672, -22.7660941, -3.68430874
4571, 15.8935558, -21.0771173, -4.19010028
4572, 15.5697194, -20.5, -4.54040521
4573, 15.1275829, -20.5, -5.52246788
4574, 15.2067043, -20.5, -6.77278388
4575, 15.7222973, -24.1860393, -4.35799726
4576, 15.7419088, -24.35223, -4.3370161
4577, 16.0447819, -23.8271333, -4.06641779
4578, 15.800039, -24.4989711, -4.27763752
4579, 15.9632014, -24.6449437, -4.13060172
4580, 16.1743224, -24.6860393, -3.97540646
4581, 16.2380331, -24.2301755, -3.93509334
4582, 18.4806778, -22.5040639, -3.78760966
4583, 16.3551993, -23.6852303, -3.86790448
4584, 19.061692, -20.4418272, -7.84865304
4585, 16.8644722, -20.4916854, -8.33505983
4586, 17.9161963, -20.5281169, -8.38394225
4587, 15.7444822, -20.4901812, -7.66570023
4588, 35.0629568, -20.4880074, -5.23309591
4589, 34.1460505, -20.9207017, -6.24975243
4590, 35.8386334, -20.3321487, -5.00652042
4591, 35.5141502, -20.9355295, -5.05990982
4592, 35.3627739, -19.8175193, -5.10423026
4593, 34.8136647, -21.0051825, -5.38984206
4594, 35.0769507, -20.086305, -5.22574523
4595, 34.7043727, -20.322807, -5.47640234
4596, 34.2773983, -20.5579201, -5.98380944
4597, 34.0372961, -20.6722712, -6.61556113
4598, 34.519695, -20.8188687, -5.65512191
4599, 34.3388062, -21.2029295, -5.88625174
4600, 34.0365422, -21.2134595, -6.61943013
4601, 35.3683598, -19.4183304, -7.3653726
4602, 37.2229736, -16.916806, -7.25036739
4603, 37.9807626, -13.8915863, -8.19345312
4604, 37.9807544, -13.8917527, -6.81902922
4605, 37.9806849, -13.8931682, -5.51545298
4606, 37.90388, -14.6724298, -8.19372064
4607, 37.9036713, -14.6738373, -5.71377619
4608, 37.7507935, -15.441935, -7.12814576
4609, 37.5232519, -16.1919496, -7.21110204
4610, 37.9880238, -20.2437802, -1.99751868
4611, 37.9879694, -20.2448884, -0.000311624822
4612, 37.9880296, -20.2436636, 1.99770486
4613, 37.9401552, -20.7312167, -1.99646393
4614, 37.939851, -20.7332677, 0.000346481575
4615, 37.9398908, -20.7329995, 1.99657257
4616, 37.8439747, -21.2147923, -1.99921142
4617, 37.8441153, -21.2142311, -2.71337108e-05
4618, 37.8438014, -21.2154839, 1.99848316
4619, 37.7021217, -21.6822189, -1.9992515
4620, 37.7021651, -21.6820976, 0.000106562436
4621, 37.7020993, -21.6822815, 1.99970605
4622, 37.514502, -22.1352004, -2
4623, 37.5142619, -22.1357081, 0.00033559416
4624, 37.5140194, -22.1362208, 1.99878796
4625, 37.2839589, -22.5666138, -1.99943682
4626, 37.2834772, -22.5674174, -1.33226763e-14
4627, 37.2834772, -22.5674174, 2
4628, 37.0111271, -22.9750073, -1.99796179
4629, 37.0111779, -22.9749389, -0.000304985375
4630, 37.0108752, -22.9753469, 1.99973549
4631, 36.7005867, -23.3534262, -1.9986482
4632, 36.7002961, -23.3537468, -3.07375769e-05
4633, 36.699932, -23.3541486, 1.99917881
4634, 36.3537697, -23.7002754, -1.99750438
4635, 36.3537911, -23.700256, 0.000131615119
4636, 36.3534157, -23.7005962, 1.99913938
4637, 35.9757622, -24.0105673, -1.9965834
4638, 35.975049, -24.0110962, -0.000207663357
4639, 35.9747433, -24.0113229, 1.9981055
4640, 35.5661431, -24.284241, -1.99680432
4641, 35.5669822, -24.2837381, 8.08823693e-05
4642, 35.5661445, -24.2842402, 1.99646903
4643, 35.1320876, -24.5159742, -1.9969222
4644, 35.1364515, -24.5139103, -3.34519657e-05
4645, 35.1335426, -24.5152861, 1.99697464
4646, 34.6850504, -24.7011086, -1.99639292
4647, 34.681576, -24.7023517, 0.000138697772
4648, 34.6793621, -24.7031439, 1.99589766
4649, 34.2149952, -24.8439238, -1.99663854
4650, 34.2128379, -24.8444642, -0.000292343766
4651, 34.2124356, -24.844565, 1.99874413
4652, 33.7333704, -24.9398358, -1.99743156
4653, 33.732898, -24.9399058, 9.98805842e-05
4654, 33.7306411, -24.9402406, 1.9975903
4655, 33.2444359, -24.9879916, -1.99812247
4656, 33.244923, -24.9879677, -0.000315547438
4657, 33.2449289, -24.9879674, 1.99846183
4658, 15.3758019, -25, 2.49617937
4659, 14.3815682, -25, -1.10520757
4660, 15.8832829, -25, -3.02466493
4661, 14.4404157, -25, 1.05842625
4662, 17.6044581, -25, 2.38712254
4663, 14.9205894, -25, -2.09854183
4664, 16.3943116, -25, 2.98485906
4665, 18.5601172, -25, -2.50386035
4666, 17.1171008, -25, -2.21295552
4667, 17.9953994, -25, -1.18465373
4668, 16.7104863, -25, -0.977494752
4669, 17.4607638, -25, -0.0117742193
4670, 16.2170999, -25, 0.0280878168
4671, 16.1464904, -25, 2.04412191
4672, 19.8067773, -25, 0.546321176
4673, 15.6355112, -25, -0.748196812
4674, 15.1876072, -25, 1.65444328
4675, 27.7749331, -25, 0.475678918
4676, 15.0607082, -25, 0.203729058
4677, 15.9803241, -25, -1.81043553
4678, 20.6219155, -25, -2.47945118
4679, 19.4650345, -25, -1.04815812
4680, 16.7789437, -25, -3.0048198
4681, 16.8763673, -25, 1.0447703
4682, 18.4431695, -25, 1.07771632
4683, 20.0074815, -25, 2.29536848
4684, 30.3339939, -25, 1.43163459
4685, 29.6312148, -25, -1.23260629
4686, 14.7216476, -25, 2.1698971
4687, 15.5146549, -25, -2.58787366
4688, 18.6374604, -25, -0.126954595
4689, 16.3091954, -25, -3.25320345
4690, 14.4556004, -25, -1.67295292
4691, 15.0432098, -25, -1.32279617
4692, 14.855703, -25, -0.514814141
4693, 14.3505694, -25, -0.0582118445
4694, 14.4668872, -25, 1.72725633
4695, 26.7084929, -25, -2.26047627
4696, 16.2780952, -25, -2.59217928
4697, 15.6314292, -25, 0.824700165
4698, 15.833221, -25, 2.9136117
4699, 31.3127103, -25, -2.60978133
4700, 28.989551, -25, -2.5901746
4701, 31.3199062, -25, -0.618527416
4702, 18.737104, -25, -3.21684477
4703, 18.0250966, -25, -3.01238758
4704, 22.0607778, -25, -3.1719929
4705, 19.7413831, -25, -3.20615438
4706, 19.5929812, -25, -2.47381522
4707, 17.1415979, -25, -3.27366315
4708, 16.5968296, -25, -3.4044687
4709, 17.8351794, -25, -2.35477353
4710, 17.3125038, -25, -2.88655637
4711, 16.9509333, -25, -2.61154526
4712, 16.3654135, -25, -3.53928554
4713, 16.1401566, -25, -3.47212566
4714, 16.5399855, -25, -3.1235685
4715, 31.6758168, -25, 2.70438771
4716, 31.6776306, -25, 0.724958491
4717, 29.3322366, -25, 2.72326513
4718, 15.9272004, -25, -3.3578564
4719, 15.5818451, -25, -3.17326012
4720, 16.0962392, -25, -3.13893419
4721, 15.3975311, -25, -2.95486449
4722, 15.0948246, -25, -2.7064397
4723, 15.6989689, -25, -2.8062693
4724, 14.7977918, -25, -2.46177378
4725, 14.549367, -25, -2.1590673
4726, 15.2176221, -25, -2.34320775
4727, 14.3168725, -25, -1.94627284
4728, 14.1322763, -25, -1.6009175
4729, 14.6880949, -25, -1.88574737
4730, 14.0952602, -25, -1.31704483
4731, 14.0258213, -25, -1.08813556
4732, 14.4185843, -25, -1.38908024
4733, 14.0103219, -25, -0.564637698
4734, 14.0103219, -25, 0.506425853
4735, 14.3660688, -25, -0.581709708
4736, 14.055575, -25, 1.06536665
4737, 14.1242989, -25, 1.29389372
4738, 14.3969368, -25, 0.499438034
4739, 14.1381521, -25, 1.62842864
4740, 14.3225073, -25, 1.97362551
4741, 14.4529351, -25, 1.39255776
4742, 14.45015, -25, 2.19516305
4743, 14.6983324, -25, 2.49759509
4744, 14.594063, -25, 1.94849797
4745, 15.0266046, -25, 2.6625589
4746, 15.32863, -25, 2.90963925
4747, 15.0489258, -25, 2.33364428
4748, 15.5586584, -25, 3.12107278
4749, 15.902227, -25, 3.30135197
4750, 15.6030427, -25, 2.70706118
4751, 16.1857941, -25, 3.34669923
4752, 16.4084977, -25, 3.40098001
4753, 16.1142865, -25, 2.95604938
4754, 16.987117, -25, 3.02383769
4755, 18.3022662, -25, 3.09487376
4756, 16.9782968, -25, 2.65552919
4757, 19.4191724, -25, 3.11602469
4758, 21.6892103, -25, 3.11907047
4759, 18.8243633, -25, 2.31500941
4760, 24.5870045, -25, 2.83431376
4761, 23.5356429, -25, 3.20600921
4762, 22.5059692, -25, 2.86394692
4763, 27.4886663, -25, -3.06816275
4764, 25.207408, -25, -3.11663266
4765, 23.003954, -25, -3.09826954
4766, 24.0593846, -25, -3.0676329
4767, 25.6740395, -25, -2.27498613
4768, 21.5201775, -25, -2.33832433
4769, 28.1726649, -25, -1.73438534
4770, 29.9932886, -25, 0.103564996
4771, 26.8448686, -25, 2.73051804
4772, 20.8047393, -25, 1.88642147
4773, 26.6597436, -25, 1.04402614
4774, 28.0510086, -25, 2.24222914
4775, 29.0575518, -25, 0.967494419
4776, 26.8463784, -25, -0.0423260631
4777, 26.3440106, -25, -1.38850203
4778, 27.258683, -25, -0.8833712
4779, 20.7877741, -25, -1.51853562
4780, 20.6259511, -25, 1.07384101
4781, 20.4162272, -25, -0.0183760828
4782, 19.632683, -25, -0.259412812
4783, 20.2985971, -25, -0.796142078
4784, 20.0151532, -25, -1.75354697
4785, 19.8827349, -25, 1.42893321
4786, 15.7603469, -25, 2.272817
4787, 15.280095, -25, 2.07445651
4788, 15.6675373, -25, 1.85389573
4789, 15.9908918, -25, 2.47894764
4790, 14.954124, -25, 1.91270883
4791, 14.7494051, -25, -1.49787454
4792, 14.712389, -25, -1.21400187
4793, 14.9494564, -25, -0.918805156
4794, 14.6186356, -25, -0.810010856
4795, 14.6031362, -25, -0.286512993
4796, 16.0801711, -25, -2.80909913
4797, 15.8962094, -25, -2.59203787
4798, 16.2909652, -25, -2.92055772
4799, 14.8139981, -25, 1.35739891
4800, 14.8271412, -25, 1.69282199
4801, 15.0358027, -25, 0.943571484
4802, 15.4084863, -25, 1.2388453
4803, 14.7497762, -25, 0.630856238
4804, 14.7055254, -25, 0.0736460857
4805, 15.345863, -25, 0.514877481
4806, 16.2682395, -25, 2.51405579
4807, 16.8627589, -25, 2.21382877
4808, 16.5090405, -25, 1.53709656
4809, 17.2335423, -25, 1.72037435
4810, 17.6611377, -25, 1.05326801
4811, 18.0288888, -25, 1.73854687
4812, 19.2120499, -25, 1.67097673
4813, 15.4509224, -25, -1.9549624
4814, 15.7463997, -25, -2.19893748
4815, 15.5101535, -25, -1.56898834
4816, 14.9781888, -25, -1.71014116
4817, 18.2723134, -25, -1.84589405
4818, 17.5552139, -25, -1.69544858
4819, 19.0081458, -25, -1.78238402
4820, 18.7317939, -25, -1.11742029
4821, 17.3521992, -25, -1.08126104
4822, 16.9131373, -25, -1.59627029
4823, 16.3449728, -25, -1.39288268
4824, 16.5478893, -25, -2.01341814
4825, 16.1286802, -25, -2.20186339
4826, 16.6985452, -25, -2.40246966
4827, 16.5267113, -25, -2.80098003
4828, 17.7273065, -25, -0.59824193
4829, 17.0845956, -25, -0.493353773
4830, 18.3162627, -25, -0.657216778
4831, 18.0503331, -25, -0.0704356916
4832, 19.0483907, -25, -0.587575574
4833, 16.8379037, -25, 0.00679874249
4834, 16.4638862, -25, -0.475499114
4835, 15.9256561, -25, -0.358936289
4836, 16.1719453, -25, -0.864151852
4837, 15.8075652, -25, -1.28020977
4838, 17.1688934, -25, 0.516732378
4839, 16.5443593, -25, 0.539209396
4840, 17.9495194, -25, 0.530500207
4841, 18.5371437, -25, 0.476860081
4842, 15.638268, -25, 0.115933347
4843, 15.3489577, -25, -0.272316757
4844, 15.9240648, -25, 0.425268391
4845, 16.2512083, -25, 0.933601432
4846, 15.8867905, -25, 1.4363972
4847, 19.2307601, -25, 0.202244289
4848, 19.1351591, -25, 0.816445415
4849, 14.957392, -25, -0.155255289
4850, 15.2453251, -25, -0.631905362
4851, 15.3394593, -25, -1.03562051
4852, 28.7164132, -25, -0.374165709
4853, 15.9780797, -24.9792367, -3.90500183
4854, 15.2816843, -24.4643356, -4.3267765
4855, 15.3939954, -24.8507781, -3.9784562
4856, 15.3939419, -24.2391032, -4.48353956
4857, 14.9886399, -24.2391032, -4.26690115
4858, 15.4230995, -24.3993942, -4.43765107
4859, 15.67766, -24.9619714, -3.843913
4860, 15.5280677, -24.7491986, -4.2052582
4861, 15.4746037, -24.547657, -4.37438295
4862, 15.325594, -24.6817662, -4.1755268
4863, 15.3323047, -24.9619714, -3.65931672
4864, 15.1381205, -24.7845899, -3.94882917
4865, 15.0795415, -24.5929718, -4.12752333
4866, 15.1274508, -22.75, -4.37398647
4867, 16.5539839, -19.5, -4.64557734
4868, 17.5, -19.5, -4.19
4869, 18.0403741, -19.5, -4.35415735
4870, 18.9043841, -19.5, -4.86843606
4871, 16.0678109, -19.5, -4.88833299
4872, 19.2643825, -19.5, -6.39997085
4873, 19.1129486, -19.5, -5.38398587
4874, 18.2914524, -19.5, -7.62512575
4875, 18.9986231, -19.5, -6.8751145
4876, 16.7052011, -19.5, -7.63303492
4877, 17.7547529, -19.5, -7.72407388
4878, 15.7353805, -19.5, -6.40276289
4879, 16.3115922, -19.5, -7.28739776
4880, 15.8512383, -19.5, -5.89515645
4881, 14.3433075, -22.75, -3.84644098
4882, 13.653559, -22.75, -3.15669254
4883, 13.129599, -22.7451861, -2.37925707
4884, 13.9139125, -24.1719961, -0.171541048
4885, 13.454551, -24.2946382, -1.42693042
4886, 13.6123749, -22.7014915, 1.1807931
4887, 13.7990475, -23.1820582, -0.7555001
4888, 13.4171186, -24.0502688, 1.47683991
4889, 13.8477719, -21.3915217, -0.58682794
4890, 13.7957796, -20.9811566, 0.765373258
4891, 12.2497847, -20.5033414, 2.30091784
4892, 13.7970876, -23.6111596, 0.761438445
4893, 13.9166077, -22.399151, 0.128089902
4894, 10.4336851, -20.5391516, 2.1724117
4895, 9.11059936, -20.6352154, 0.383620374
4896, 13.8747106, -24.5859981, 0.465992963
4897, 13.8357053, -24.5859981, -0.633151487
4898, 13.5699744, -24.6473191, -1.25363713
4899, 13.4223019, -24.6062236, -1.47008692
4900, 13.7726348, -24.2333172, -0.831583439
4901, 13.4031929, -24.4840389, 1.49474302
4902, 13.5536432, -24.5251344, 1.2802147
4903, 13.7389397, -24.3055798, 0.918449226
4904, 13.9012483, -23.8915778, 0.300677152
4905, 13.637249, -23.8307142, 1.13515048
4906, 13.402009, -23.5877173, -1.49624919
4907, 13.4113611, -22.3113571, -1.48428396
4908, 13.2237997, -24.3135099, -1.6985036
4909, 13.2035214, -24.1473191, -1.71884109
4910, 13.6531326, -23.7383482, -1.10472631
4911, 12.7680963, -20.4924299, -2.06114814
4912, 13.4962802, -20.52393, -1.36794205
4913, 13.4732321, -21.4426342, -1.40098365
4914, 13.8543268, -20.4465883, -0.559951184
4915, 11.6534448, -20.4743425, -2.41513037
4916, 13.8252355, -22.2814383, -0.670581771
4917, 11.8364165, -20.0094865, 2.39650244
4918, 11.8426446, -20.9861502, 2.39561989
4919, 10.9586963, -21.0018342, 2.35868403
4920, 10.9470744, -20.0800514, 2.35598669
4921, 12.5986423, -20.9855785, 2.1562433
4922, 9.91456428, -20.9881642, 1.82833082
4923, 12.8750643, -20.0249496, 1.99138099
4924, 9.98606145, -20.0363642, 1.88795924
4925, 13.28011, -22.087397, 1.63939273
4926, 13.3042473, -23.3507457, 1.61279003
4927, 13.1710522, -20.5058768, 1.75042415
4928, 13.6206153, -20.2654859, 1.16592911
4929, 13.4123726, -21.2434081, 1.48298041
4930, 13.714702, -21.8470263, 0.975446012
4931, 13.1812243, -24.0251344, 1.74065648
4932, 13.201763, -24.1913252, 1.72058206
4933, 13.5201771, -23.3758801, 1.33239805
4934, 13.259831, -24.3380663, 1.66114266
4935, 13.2810967, -24.460251, -1.63832065
4936, 13.9168046, -20.2316926, 0.124319379
4937, 13.9179325, -21.1829294, 0.100011181
4938, 10.5995907, -20.4883927, -2.24625535
4939, 9.16283343, -20.4959708, -0.627735935
4940, 9.6802307, -20.4635971, -1.59525537
4941, 9.28954977, -20.0928612, 0.985043031
4942, 9.08187479, -20.0818977, -0.0952390157
4943, 9.0895825, -21.0674645, -0.215145256
4944, 9.59180904, -20.4956095, 1.48835723
4945, 9.27616958, -21.039703, 0.954451808
4946, 13.8745, -23.6770272, -0.467065106
4947, 13.919998, -23.3966089, 0.00312671028
4948, 13.7146793, -23.1563255, 0.975497586
4949, 13.8756582, -21.6938781, 0.461137825
4950, 13.8248585, -22.5503212, 0.671887703
4951, 13.8780272, -23.0051553, 0.448761
4952, 13.898861, -22.7906046, -0.319164517
4953, 13.9089788, -21.9033249, -0.230696996
4954, 13.1260135, -22.75, 2.37254921
4955, 13.6531947, -22.7483842, 3.1562486
4956, 14.3433075, -22.75, 3.84644098
4957, 15.1274508, -22.75, 4.37398647
4958, 17.6963424, -24.0663696, 3.5879781
4959, 16.137254, -24.2484697, 4.00016917
4960, 18.0696828, -21.5410699, 3.64800903
4961, 16.7943412, -22.9755018, 3.68516833
4962, 19.0248875, -23.8101491, 4.12087306
4963, 18.2028708, -22.7869052, 3.68432027
4964, 16.6345108, -21.536717, 3.74006009
4965, 16.6007508, -20.5013601, 8.24672003
4966, 18.6595428, -20.682853, 8.12411405
4967, 17.3432591, -20.4784656, 3.58508131
4968, 18.3292541, -24.5248233, 3.72651422
4969, 17.0462171, -24.5331848, 3.62292594
4970, 16.2801218, -24.6242348, 3.90995286
4971, 16.0613039, -24.5831393, 4.05409315
4972, 16.8814536, -24.1574196, 3.66038458
4973, 19.2868482, -24.2637379, 4.36795417
4974, 18.972525, -24.4489423, 4.07956515
4975, 18.4203354, -23.9279812, 3.76183495
4976, 16.0809239, -23.4785603, 4.03973904
4977, 16.0821545, -22.2486515, 4.03884879
4978, 15.8296958, -24.2904256, 4.24886214
4979, 15.8090319, -24.1242348, 4.26880771
4980, 16.4491478, -23.6006906, 3.82006659
4981, 15.2933252, -20.5, 5.00652813
4982, 15.9282223, -20.5101145, 4.15991448
4983, 15.9942011, -21.5142743, 4.10554241
4984, 16.5437902, -20.5111565, 3.77692493
4985, 15.0840163, -20.5, 5.86063489
4986, 16.7286467, -22.2379937, 3.70622275
4987, 17.0384279, -20.9927233, 8.37557386
4988, 17.0504156, -20.0146362, 8.3778717
4989, 18.0649437, -20.0754084, 8.35313379
4990, 18.0475908, -21.1281391, 8.35723234
4991, 19.157995, -21.0713457, 7.76279685
4992, 16.223213, -21.0006801, 8.05577599
4993, 19.0613433, -20.0982589, 7.84894758
4994, 16.0564184, -20.0006801, 7.94228533
4995, 19.4410578, -22.6551692, 4.55476826
4996, 19.4219475, -23.9061446, 4.52944981
4997, 19.2257615, -20.4756272, 4.30348966
4998, 19.7907385, -20.4944282, 5.21966849
4999, 19.8825636, -20.4976304, 6.42401733
5000, 18.3168146, -20.5214704, 3.72201539
5001, 19.0426978, -21.520535, 4.13546692
5002, 18.1365358, -22.1639876, 3.66521474
5003, 19.0952513, -22.1434526, 4.18022716
5004, 18.6375995, -23.2916864, 3.8640535
5005, 15.8908007, -24.4371667, 4.19254944
5006, 19.4618621, -20.5011931, 7.41686168
5007, 16.880801, -20.0421494, 3.66055719
5008, 17.9562479, -20.0502608, 3.62339784
5009, 17.7024088, -21.0295614, 3.5884796
5010, 16.977501, -21.0025252, 3.63707917
5011, 15.2628056, -20.5, 6.92269243
5012, 15.7402183, -20.5, 7.66119482
5013, 17.2407467, -23.5209357, 3.59392691
5014, 17.9551424, -23.428479, 3.62318588
5015, 17.4383561, -22.8859711, 3.58078525
5016, 17.3983917, -22.2771826, 3.58213405
5017, 17.3409458, -21.5236007, 3.58523256
5018, 34.753472, -23.1492466, 5
5019, 34.2671963, -23.4472229, 5
5020, 35.4817409, -22.6567201, 5
5021, 34.4259313, -22.3925599, 5
5022, 33.6633347, -23.1978344, 5
5023, 21.844054, -22.7728952, 5
5024, 20.7618752, -23.3153026, 5
5025, 20.7585139, -22.1236794, 5
5026, 22.8075792, -22.1262232, 5
5027, 22.9745326, -23.3253656, 5
5028, 36.594771, -19.2701284, 5
5029, 36.502235, -19.3722934, 5
5030, 36.8260773, -18.9543441, 5
5031, 36.4885669, -19.5617054, 5
5032, 36.4839794, -20.9142311, 5
5033, 36.1695043, -21.8411252, 5
5034, 36.0519844, -21.9990153, 5
5035, 35.7324033, -22.082988, 5
5036, 35.7981897, -22.5763115, 5
5037, 36.2705279, -21.666889, 5
5038, 36.3512147, -21.4876017, 5
5039, 36.4202873, -21.3002474, 5
5040, 36.4505164, -21.1166892, 5
5041, 33.1741493, -21.9460541, 5
5042, 35.2176181, -21.9432843, 5
5043, 34.9536126, -22.53406, 5
5044, 33.5520122, -23.5813992, 5
5045, 33.3326537, -23.5928569, 5
5046, 32.4642971, -22.7468649, 5
5047, 30.2478152, -22.747929, 5
5048, 32.7963494, -22.3505194, 5
5049, 33.7434621, -23.5509612, 5
5050, 34.2371017, -23.6226637, 5
5051, 34.0421585, -23.6775257, 5
5052, 33.9636488, -23.3236847, 5
5053, 34.4227075, -23.5584264, 5
5054, 34.8384137, -23.3145219, 5
5055, 34.6627359, -23.4164518, 5
5056, 34.5128891, -23.2991808, 5
5057, 35.0114066, -23.2170904, 5
5058, 35.5233193, -22.8554982, 5
5059, 35.3650913, -22.9737198, 5
5060, 35.1102697, -22.9041174, 5
5061, 35.6680692, -22.7222543, 5
5062, 25.9969808, -22.7458152, 5
5063, 23.9587176, -22.7441059, 5
5064, 28.2101979, -22.7439333, 5
5065, 34.0427796, -22.7988483, 5
5066, 34.2006921, -23.1746177, 5
5067, 34.5837527, -22.7775225, 5
5068, 34, -20.9591085, -8.25
5069, 34, -20.6886628, -8.875
5070, 34, -21.2295543, -8.875
5071, 34, -20.6886628, -7.625
5072, 34, -21.2297749, -7.62435274
5073, 34.768674, -19.911379, -7.6291059
5074, 34.2371771, -20.2760585, -8.26015266
5075, 37.7286837, -17.6728367, 4.68485043
5076, 37.9119526, -18.8150974, 4.41029561
5077, 37.6524692, -18.8538772, 4.75781521
5078, 37.8964856, -17.2190854, 4.44307282
5079, 37.2521885, -18.8692056, 4.96767812
5080, 37.2528727, -17.5131495, 4.96749956
5081, 37.2796662, -17.4729081, 4.96009729
5082, 37.9808082, -15.488816, 4.19497506
5083, 37.9263863, -15.8573291, 4.37657458
5084, 37.8543858, -16.3003295, 4.51963915
5085, 37.9114389, -16.7224029, 4.41143546
5086, 37.5404137, -17.1103945, 4.84139942
5087, 37.3900416, -20.2253614, 4.91571242
5088, 37.9029801, -20.2683198, 4.40057761
5089, 37.9750581, -20.1610847, 4.18364751
5090, 37.9619418, -20.3950516, 4.1921177
5091, 37.8197382, -20.3613273, 4.54615398
5092, 37.8217014, -20.0989748, 4.56253622
5093, 37.1775997, -20.2933099, 4.98120223
5094, 37.1790849, -20.1157234, 4.98259666
5095, 37.5281326, -20.3347992, 4.83835229
5096, 37.5537113, -20.0736517, 4.82993321
5097, 37.6931789, -20.2246285, 4.70963399
5098, 37.325522, -20.6082532, 4.92743807
5099, 37.8699916, -20.7134225, 4.37261798
5100, 37.9422518, -20.5967654, 4.1870744
5101, 37.9041832, -20.8511854, 4.18877508
5102, 37.7975194, -20.5852109, 4.54646118
5103, 37.7636988, -20.8145435, 4.54616128
5104, 37.1335604, -20.6718246, 4.98111591
5105, 37.1569172, -20.4693297, 4.98239557
5106, 37.4805607, -20.757791, 4.83563893
5107, 37.5128172, -20.5327638, 4.83636811
5108, 37.6537779, -20.6748064, 4.70576582
5109, 37.2424201, -21.04323, 4.92711095
5110, 37.7730894, -21.1858887, 4.38186988
5111, 37.8589662, -21.0739328, 4.19743393
5112, 37.7970963, -21.3232151, 4.19465855
5113, 37.7244483, -21.0431156, 4.5389439
5114, 37.656112, -21.2731026, 4.55487227
5115, 37.0378718, -21.0821728, 4.98258171
5116, 37.1105215, -20.8796298, 4.97832197
5117, 37.3875848, -21.2111507, 4.83091276
5118, 37.4209364, -20.9609625, 4.84926674
5119, 37.5623057, -21.1149119, 4.71168043
5120, 37.1317087, -21.4447006, 4.92378419
5121, 37.6338683, -21.6480229, 4.38186988
5122, 37.7291838, -21.5532695, 4.18868125
5123, 37.6442992, -21.7870411, 4.19465855
5124, 37.5865133, -21.5057947, 4.55520416
5125, 37.5089056, -21.723351, 4.55487227
5126, 36.9314837, -21.4782639, 4.9786151
5127, 36.9839267, -21.2793005, 4.98215972
5128, 37.253011, -21.6199671, 4.83106824
5129, 37.3303595, -21.4023181, 4.83140042
5130, 37.4314453, -21.570351, 4.70675428
5131, 36.970208, -21.8427223, 4.92378419
5132, 37.4500205, -22.0942857, 4.38186988
5133, 37.5516706, -22.0118737, 4.19465855
5134, 37.446775, -22.2336569, 4.19465855
5135, 37.4168343, -21.9481008, 4.55520416
5136, 37.3182761, -22.1570027, 4.55487227
5137, 36.7643945, -21.8443869, 4.98028836
5138, 36.8540326, -21.6612786, 4.97973154
5139, 37.073747, -22.0290345, 4.83106824
5140, 37.1720565, -21.820015, 4.83140042
5141, 37.2561854, -21.997147, 4.70675428
5142, 36.770472, -22.2229975, 4.92378419
5143, 37.2233165, -22.5203795, 4.38186988
5144, 37.332555, -22.4483277, 4.19465855
5145, 37.2064259, -22.6587614, 4.19465855
5146, 37.2046188, -22.3716457, 4.55520416
5147, 37.0860592, -22.5698812, 4.55487227
5148, 36.5538422, -22.204448, 4.9822517
5149, 36.6620138, -22.0249376, 4.98215702
5150, 36.8552507, -22.4185612, 4.83106824
5151, 36.9735742, -22.2201842, 4.83140042
5152, 37.0399361, -22.4047093, 4.70675428
5153, 36.5344243, -22.5818641, 4.92378419
5154, 36.9559397, -22.9222005, 4.38186988
5155, 37.0717145, -22.861203, 4.19465855
5156, 36.9255666, -23.0582606, 4.19465855
5157, 36.9519105, -22.7723503, 4.55520416
5158, 36.8144913, -22.9580104, 4.55487227
5159, 36.3362775, -22.5674855, 4.97657104
5160, 36.447299, -22.3842452, 4.98076098
5161, 36.5838481, -22.7835062, 4.83990775
5162, 36.7368242, -22.5989718, 4.83140042
5163, 36.7847799, -22.7891129, 4.70675428
5164, 36.2643381, -22.9158658, 4.92378419
5165, 36.650465, -23.2958792, 4.38186988
5166, 36.7716611, -23.2465233, 4.19465855
5167, 36.6069019, -23.428307, 4.19465855
5168, 36.6611431, -23.1463556, 4.55520416
5169, 36.5061877, -23.3176522, 4.55487227
5170, 36.0575684, -22.8579456, 4.9816269
5171, 36.1970024, -22.7106588, 4.98076098
5172, 36.3093352, -23.1242113, 4.83106824
5173, 36.4640866, -22.9527298, 4.83140042
5174, 36.4931743, -23.1466559, 4.70675428
5175, 35.9967141, -23.1934204, 4.92305775
5176, 36.3098344, -23.6378168, 4.38186988
5177, 36.4352846, -23.6005778, 4.19465855
5178, 36.2535009, -23.765337, 4.19465855
5179, 36.3351169, -23.4900598, 4.55520416
5180, 36.1641177, -23.6453433, 4.55487227
5181, 35.7874551, -23.1294736, 4.98045367
5182, 35.9368916, -22.9939171, 4.98047078
5183, 36.0031008, -23.4240842, 4.82858653
5184, 36.174415, -23.2638652, 4.83105238
5185, 36.1686827, -23.4751693, 4.70529841
5186, 35.5916796, -23.5221541, 4.9254355
5187, 35.9012546, -23.9736206, 4.37767039
5188, 36.0514722, -23.9321095, 4.18845118
5189, 35.842624, -24.0856983, 4.19382837
5190, 35.9546919, -23.8121172, 4.56065148
5191, 35.7734847, -23.9594443, 4.5449922
5192, 35.4258596, -23.4163036, 4.98078209
5193, 35.5868799, -23.2922469, 4.98151547
5194, 35.60903, -23.7164323, 4.83824979
5195, 35.8031458, -23.589655, 4.82910521
5196, 35.8018552, -23.7727988, 4.70878324
5197, 35.2764803, -23.7324313, 4.92589514
5198, 35.5378416, -24.2160852, 4.37508369
5199, 35.672672, -24.1995357, 4.18829436
5200, 35.4518148, -24.3318491, 4.18857743
5201, 35.593644, -24.0758289, 4.54967701
5202, 35.3926875, -24.1966876, 4.54914224
5203, 35.1027676, -23.6237367, 4.98075472
5204, 35.2732545, -23.513875, 4.98204242
5205, 35.2590406, -23.9441911, 4.83486999
5206, 35.4562475, -23.8271234, 4.83422809
5207, 35.4344541, -24.0230793, 4.70591905
5208, 34.8890673, -23.9425434, 4.92591984
5209, 35.11587, -24.4428017, 4.37526174
5210, 35.255715, -24.4382911, 4.1855607
5211, 35.0048463, -24.5529879, 4.20358493
5212, 35.1834569, -24.3023457, 4.5594779
5213, 34.9677398, -24.4260237, 4.52932693
5214, 34.7209031, -23.8136131, 4.98192527
5215, 34.9313105, -23.7410947, 4.97690504
5216, 34.8418953, -24.1345822, 4.84727624
5217, 35.073686, -24.0521926, 4.83133176
5218, 35.0089356, -24.2495802, 4.70768473
5219, 34.5033269, -24.1051084, 4.92596117
5220, 34.6642642, -24.6311358, 4.37477724
5221, 34.7990025, -24.6412057, 4.18894285
5222, 34.558042, -24.7272147, 4.18995828
5223, 34.7456796, -24.5059413, 4.54771222
5224, 34.5273423, -24.5848309, 4.54660709
5225, 34.3562179, -23.9652971, 4.9805197
5226, 34.5427511, -23.8909923, 4.98191917
5227, 34.4448942, -24.3078416, 4.83594346
5228, 34.659055, -24.230446, 4.83641753
5229, 34.5972503, -24.4222476, 4.70635165
5230, 34.0807336, -24.2341139, 4.92668362
5231, 34.202978, -24.7715442, 4.37538375
5232, 34.3457028, -24.7922855, 4.19059603
5233, 34.0832864, -24.8550187, 4.2050107
5234, 34.305196, -24.6617829, 4.53439549
5235, 34.0613945, -24.7097864, 4.55393411
5236, 33.9487197, -24.0774359, 4.98143734
5237, 34.1632851, -24.0459, 4.97698077
5238, 34.0027511, -24.4377165, 4.83225362
5239, 34.2362821, -24.3542509, 4.84788875
5240, 34.1684233, -24.5515554, 4.70913031
5241, 33.6629058, -24.3244129, 4.92461669
5242, 33.7202262, -24.8659577, 4.37998448
5243, 33.8509098, -24.9034571, 4.19267971
5244, 33.6058172, -24.9393632, 4.19493268
5245, 33.8295345, -24.7570953, 4.5527492
5246, 33.5938396, -24.7954146, 4.54770952
5247, 33.5531298, -24.1535578, 4.98064674
5248, 33.7471575, -24.1212026, 4.98134592
5249, 33.5651993, -24.5101297, 4.83498744
5250, 33.7987987, -24.4796288, 4.83226739
5251, 33.6988896, -24.6507335, 4.70524124
5252, 33.2374223, -24.3983581, 4.91175586
5253, 33.2394454, -24.9012586, 4.40767622
5254, 33.3697195, -24.9628785, 4.19368155
5255, 33.1169283, -24.973456, 4.20277511
5256, 33.373859, -24.8323527, 4.52532924
5257, 33.1111162, -24.8491289, 4.51901869
5258, 33.1107676, -24.1949209, 4.97952433
5259, 33.3386624, -24.1829181, 4.97968967
5260, 33.1025558, -24.5067021, 4.85878957
5261, 33.3653015, -24.5048783, 4.85208761
5262, 33.226033, -24.6963624, 4.70639378
5263, 28.4202848, -24.5934357, 4.80488142
5264, 30.7502173, -24.7005568, 4.71359659
5265, 30.8331833, -24.3619092, 4.93221337
5266, 21.4644854, -24.9418016, 4.33616916
5267, 21.7131839, -24.7109323, 4.70326049
5268, 23.8340317, -24.7057797, 4.70843136
5269, 26.1732124, -24.5701719, 4.82152544
5270, 15.9780797, -24.9792367, 3.90500183
5271, 15.2824317, -24.4483531, 4.33647064
5272, 15.3934786, -24.8488847, 3.98164166
5273, 15.6773069, -24.9614792, 3.84568298
5274, 15.3319515, -24.9614792, 3.66108671
5275, 15.1363703, -24.7978224, 3.92847869
5276, 15.527895, -24.7480077, 4.20669057
5277, 14.9899518, -24.230373, 4.26999287
5278, 15.3952538, -24.230373, 4.48663128
5279, 15.0793521, -24.5857162, 4.13342377
5280, 15.4237318, -24.3911445, 4.44201431
5281, 15.4746067, -24.5401205, 4.37992335
5282, 15.3249173, -24.6738424, 4.18344816
5283, 14.4173491, -24.4750149, 3.7519394
5284, 14.7078793, -24.90884, 3.39163056
5285, 14.9910206, -24.9769442, 3.36054792
5286, 14.6883141, -24.9769442, 3.11212313
5287, 14.4348784, -24.8212223, 3.36611159
5288, 14.7913553, -24.8212223, 3.65866469
5289, 14.1721668, -24.2449717, 3.66657243
5290, 14.5510081, -24.2449717, 3.9774795
5291, 14.2898688, -24.5978312, 3.5459546
5292, 14.6463458, -24.5978312, 3.83850769
5293, 14.5402124, -24.7296007, 3.5990816
5294, 13.7480606, -24.4750149, 3.08265091
5295, 14.1083694, -24.90884, 2.79212067
5296, 14.3878769, -24.9769442, 2.81168587
5297, 14.1394521, -24.9769442, 2.50897939
5298, 13.8413353, -24.8212223, 2.70864466
5299, 14.1338884, -24.8212223, 3.06512164
5300, 13.5225205, -24.2449717, 2.94899188
5301, 13.8334276, -24.2449717, 3.32783325
5302, 13.6614923, -24.5978312, 2.85365422
5303, 13.9540454, -24.5978312, 3.21013119
5304, 13.9009184, -24.7296007, 2.95978755
5305, 13.1732235, -24.4643356, 2.21831567
5306, 13.5215438, -24.8507781, 2.10600456
5307, 13.8406833, -24.9619714, 2.1676953
5308, 13.656087, -24.9619714, 1.82233996
5309, 13.2947418, -24.7491986, 1.97193226
5310, 13.5511708, -24.7845899, 2.36187947
5311, 13.0164604, -24.2391032, 2.10605812
5312, 13.2330989, -24.2391032, 2.51136007
5313, 13.0623489, -24.3993942, 2.07690047
5314, 13.1256171, -24.547657, 2.02539634
5315, 13.3244732, -24.6817662, 2.17440601
5316, 13.3724767, -24.5929718, 2.4204585
5317, 13.5949982, -24.9792367, 1.5219203
5318, 13.5949982, -24.9792367, -1.52192031
5319, 13.1635294, -24.4483531, -2.21756834
5320, 13.5183583, -24.8488847, -2.10652143
5321, 13.654317, -24.9614792, -1.82269314
5322, 13.8389133, -24.9614792, -2.16804848
5323, 13.5496823, -24.783475, -2.36208219
5324, 13.2933094, -24.7480077, -1.97210498
5325, 13.2300071, -24.230373, -2.51004815
5326, 13.0133687, -24.230373, -2.1047462
5327, 13.3665762, -24.5857162, -2.42064788
5328, 13.0579857, -24.3911445, -2.07626819
5329, 13.1200766, -24.5401205, -2.02539327
5330, 13.3165518, -24.6738424, -2.17508268
5331, 13.7468442, -24.4750149, -3.08116876
5332, 14.0998548, -24.90884, -2.78174561
5333, 14.1351948, -24.9769442, -2.50379185
5334, 14.3836196, -24.9769442, -2.80649834
5335, 14.1296311, -24.8212223, -3.05993411
5336, 13.837078, -24.8212223, -2.70345713
5337, 13.8328194, -24.2449717, -3.32709217
5338, 13.5219123, -24.2449717, -2.9482508
5339, 13.9534372, -24.5978312, -3.20939012
5340, 13.6608841, -24.5978312, -2.85291314
5341, 13.8960529, -24.7296007, -2.95385894
5342, 14.4173491, -24.4750149, -3.7519394
5343, 14.7078793, -24.90884, -3.39163056
5344, 14.6883141, -24.9769442, -3.11212313
5345, 14.9910206, -24.9769442, -3.36054792
5346, 14.7913553, -24.8212223, -3.65866469
5347, 14.4348784, -24.8212223, -3.36611159
5348, 14.5510081, -24.2449717, -3.9774795
5349, 14.1721668, -24.2449717, -3.66657243
5350, 14.6463458, -24.5978312, -3.83850769
5351, 14.2898688, -24.5978312, -3.5459546
5352, 14.5402124, -24.7296007, -3.5990816
5353, 23.5187338, -23.1944003, -2.41992749
5354, 21.0988619, -21.3195361, 0.301555799
5355, 25.8770787, -23.079035, 0.453758535
5356, 25.3978053, -21.2941556, -1.5015775
5357, 25.3795445, -23.4122796, -1.52437282
5358, 23.2425575, -21.0565269, -2.40626752
5359, 21.6099643, -22.2251791, -1.5113454
5360, 21.0860067, -23.3478915, 0.170400014
5361, 25.8859608, -21.1103555, 0.404464016
5362, 21.6088063, -23.8131126, -1.50989617
5363, 25.0149296, -23.3164806, 1.8871641
5364, 21.9795671, -21.1489438, 1.88273306
5365, 25.1851938, -21.481424, 1.73681371
5366, 21.7374546, -22.9740169, 1.65826225
5367, 21.5865025, -20.6418684, -1.4815287
5368, 24.2819881, -24.1674763, 2.29017348
5369, 25.2196878, -24.1552544, 1.70266671
5370, 21.6671026, -23.9760547, 1.58015417
5371, 22.5963054, -24.0052339, 2.24493565
5372, 24.2617147, -22.7872573, 2.29699603
5373, 22.5754513, -22.6176181, 2.2364279
5374, 22.7346884, -21.7121721, 2.2958001
5375, 22.724579, -20.3248668, 2.29240535
5376, 24.3895124, -20.4885321, 2.25059273
5377, 24.3652203, -21.8728007, 2.26004287
5378, 25.2933913, -20.4918702, 1.62485315
5379, 21.7882598, -20.3225374, 1.7106564
5380, 25.6904821, -24.0197609, 1.02868267
5381, 25.9193111, -24.0355957, -0.0577398612
5382, 25.607269, -23.2120714, 1.18988128
5383, 25.6818395, -24.2202653, -1.04688881
5384, 24.97949, -24.2239235, -1.91507427
5385, 25.8650485, -23.2769424, -0.512782048
5386, 24.0614957, -24.0864798, -2.35395892
5387, 22.9686951, -24.0780828, -2.36095639
5388, 24.4698901, -23.3096114, -2.21714077
5389, 22.0067621, -24.397631, -1.90437404
5390, 21.3132397, -24.3998924, -1.03657099
5391, 22.467479, -23.4966243, -2.18867549
5392, 21.0876632, -24.1760645, -0.192435155
5393, 21.2513888, -24.1691088, 0.894509664
5394, 21.1830363, -23.5817229, -0.698626523
5395, 21.2853684, -23.1700412, 0.975605867
5396, 25.1063455, -22.4060622, 1.8099873
5397, 21.8608801, -22.0646929, 1.78036116
5398, 25.9186606, -20.2710221, -0.0805043146
5399, 25.7081186, -20.3124141, 0.990258689
5400, 25.6492454, -21.2806033, 1.11226993
5401, 24.9981857, -20.3790948, -1.90048405
5402, 25.6912832, -20.4315017, -1.02697519
5403, 25.8513293, -21.1533274, -0.572407484
5404, 22.8175773, -20.2921687, -2.32178794
5405, 23.9032479, -20.3108194, -2.38616662
5406, 24.3866428, -21.1865652, -2.25172479
5407, 21.3188965, -20.1045684, -1.04842136
5408, 21.9916195, -20.1010235, -1.89240281
5409, 22.3271337, -20.8746751, -2.11678641
5410, 21.2690002, -20.4163277, 0.937571219
5411, 21.0827498, -20.4027261, -0.115331411
5412, 21.1677423, -20.98045, -0.645735308
5413, 21.3963432, -21.234857, 1.19625587
5414, 24.5140573, -22.265314, -2.19729101
5415, 25.3814968, -22.3572023, -1.52196244
5416, 23.3695894, -22.1334082, -2.41648362
5417, 22.3498761, -21.6417172, -2.12922875
5418, 22.470306, -22.7152041, -2.19000689
5419, 21.6123911, -23.018464, -1.51437534
5420, 21.1680451, -21.7736335, -0.646827881
5421, 21.0922652, -22.3343903, 0.243337283
5422, 21.1839054, -22.7886695, -0.701502608
5423, 21.6041056, -21.4392154, -1.50398954
5424, 21.312422, -22.1483184, 1.0348442
5425, 25.8668972, -22.2255229, -0.504180137
5426, 25.883417, -22.0906958, 0.419193525
5427, 25.6348732, -22.2968453, 1.13961241
5428, 18.4380447, -18.5923599, -6.74837964
5429, 18.0223328, -18.0146563, -4.9196443
5430, 16.5618553, -18.630005, -6.74825431
5431, 17.5059023, -17.4204209, -7.19998548
5432, 16.3300865, -17.4439461, -5.73297488
5433, 18.6118716, -17.4712916, -5.54862268
5434, 17.5057674, -18.6088501, -7.19998614
5435, 16.3300865, -18.6060539, -5.73297488
5436, 18.645335, -18.5601431, -5.64193894
5437, 16.5617491, -17.419995, -6.74812121
5438, 18.3512349, -17.414107, -6.84581276
5439, 18.2492309, -18.9042832, -5.06263501
5440, 18.2512242, -17.1423413, -5.06423176
5441, 18.646524, -18.0052995, -6.35423543
5442, 16.9793395, -18.0372821, -7.08116264
5443, 16.3519849, -18.0178626, -6.34937267
5444, 16.6676301, -18.025, -5.1356156
5445, 18.0302145, -18.0500712, -7.07650945
5446, 17.7597765, -17.2950524, -4.82845564
5447, 17.7644561, -18.7617607, -4.8295031
5448, 17.051258, -18.7625, -4.88706216
5449, 17.051258, -17.2875, -4.88706216
5450, 17.8714449, -19.2091657, -4.8589353
5451, 18.3605835, -19.1970467, -5.16370094
5452, 16.6085532, -18.7498213, -5.19668022
5453, 18.1356175, -18.4493661, -4.98216388
5454, 18.3666512, -16.8429256, -5.16999053
5455, 17.902994, -16.8576726, -4.86969215
5456, 16.6128118, -17.2875, -5.1919795
5457, 18.1395485, -17.5836199, -4.98462924
5458, 18.5677232, -19.0271815, -5.45230735
5459, 18.6991327, -19.0251598, -5.95438329
5460, 18.4862146, -18.7508806, -5.31634748
5461, 18.5794514, -19.0502424, -6.52419915
5462, 18.2539459, -19.0460504, -6.93357675
5463, 18.6805393, -18.599309, -6.21523691
5464, 17.7561592, -19.0721399, -7.1723406
5465, 17.2466606, -19.0674389, -7.17295317
5466, 17.9798766, -18.6462513, -7.09987203
5467, 16.7521633, -19.0597042, -6.93847766
5468, 16.4188558, -19.0650025, -6.52069883
5469, 17.0166888, -18.6357327, -7.09836711
5470, 16.3, -19.0530269, -6
5471, 16.4188374, -19.0530269, -5.47933951
5472, 16.330096, -18.6180294, -6.26706662
5473, 16.455254, -18.3155269, -5.4096562
5474, 18.697612, -16.9299161, -5.92433366
5475, 18.5563333, -17.0169023, -5.43064947
5476, 18.4908532, -17.2857773, -5.32308799
5477, 18.2611893, -16.9794955, -6.9276804
5478, 18.5581598, -16.920078, -6.5659486
5479, 18.6851716, -17.4054454, -6.18806453
5480, 17.211669, -17.0208948, -7.16484557
5481, 17.8124351, -17.0213485, -7.1586131
5482, 17.9397169, -17.3524558, -7.1165344
5483, 16.4188189, -16.9849975, -6.52062214
5484, 16.751779, -16.9849975, -6.93817124
5485, 17.0704272, -17.3767076, -7.12047632
5486, 16.4188374, -16.9969731, -5.47933951
5487, 16.3, -16.9969731, -6
5488, 16.330077, -17.4319706, -6.26698363
5489, 16.455254, -17.7344731, -5.4096562
5490, 18.2568505, -18.317494, -6.93122359
5491, 17.7780434, -18.3593245, -7.16734393
5492, 18.6997064, -18.3119876, -5.97345697
5493, 18.5701045, -18.2805467, -6.54302515
5494, 18.4566566, -18.0148632, -6.72443638
5495, 18.4412343, -17.7377405, -5.25563589
5496, 18.6446184, -18.0237281, -5.63965474
5497, 18.4431506, -18.3226873, -5.25806544
5498, 17.2075677, -18.349952, -7.16382273
5499, 16.7298986, -18.3205121, -6.92029554
5500, 16.4380243, -18.3239338, -6.55875544
5501, 16.3007566, -18.3119582, -6.04260474
5502, 16.5503253, -18.0272054, -6.73356525
5503, 16.751779, -17.7286386, -6.93817124
5504, 17.2448039, -17.7379663, -7.17255062
5505, 17.7584063, -17.7258161, -7.17184735
5506, 18.2639248, -17.7498895, -6.92542907
5507, 17.5015713, -18.0766319, -7.19999897
5508, 16.3300865, -18.025, -5.73297488
5509, 16.3000891, -17.7392743, -6.01462317
5510, 16.4379847, -17.7189288, -6.55868011
5511, 18.6976083, -17.8507477, -5.92427425
5512, 18.5558101, -17.6885828, -6.57032012
5513, 10.5048462, -19.5, 1.44567061
5514, 11.4743378, -19.5, 1.81963884
5515, 12.0252927, -19.5, 1.6436431
5516, 12.9033871, -19.5, 1.13196397
5517, 10.0709674, -19.5, 1.14034278
5518, 13.1116505, -19.5, 0.616925246
5519, 13.27125, -19.5, -0.393986445
5520, 12.2980006, -19.5, -1.62080478
5521, 12.9909148, -19.5, -0.875114935
5522, 11.7425136, -19.5, -1.70806431
5523, 10.7282976, -19.5, -1.62989932
5524, 10.3115891, -19.5, -1.25986368
5525, 9.73447232, -19.5, -0.403778504
5526, 9.76804122, -19.5, 0.137182475
5527, 16.5131462, -19.5, 7.44773315
5528, 17.4833466, -19.5, 7.80551766
5529, 18.0291299, -19.5, 7.63085213
5530, 18.9165204, -19.5, 7.12107802
5531, 16.0648188, -19.5, 7.12456221
5532, 19.3004044, -19.5, 5.58426506
5533, 19.121881, -19.5, 6.62471964
5534, 18.2911851, -19.5, 4.38100257
5535, 18.9923861, -19.5, 5.12296404
5536, 16.7288277, -19.5, 4.36863277
5537, 17.7463291, -19.5, 4.28863622
5538, 15.7353805, -19.5, 5.59723711
5539, 16.3096821, -19.5, 4.73373236
5540, 15.8512383, -19.5, 6.10484355
5541, 36.0921375, -18.6765932, 7.24988843
5542, 35.8281498, -18.9678587, 7.25113784
5543, 36.4177716, -18.2600545, 7.25006146
5544, 36.8259265, -17.6539775, 7.25001463
5545, 37.0276981, -17.3173418, 7.25011519
5546, 35.0728172, -20.494583, 5.22790179
5547, 34.1489535, -20.9087663, 6.24261831
5548, 35.8386836, -20.3538624, 5.00651636
5549, 35.4052872, -19.7839147, 5.09046691
5550, 35.6903053, -20.9405061, 5.02412318
5551, 34.828509, -20.9983349, 5.37900989
5552, 35.0981825, -20.0857317, 5.21485991
5553, 34.0356633, -21.2024408, 6.62399306
5554, 34.0355032, -20.6759608, 6.62483032
5555, 34.3381176, -21.2060323, 5.88727957
5556, 34.2823491, -20.5651432, 5.97546329
5557, 34.7057004, -20.3184226, 5.47527426
5558, 34.5220272, -20.822006, 5.65255928
5559, 34, -20.9591085, 8.25
5560, 34, -20.6886628, 7.625
5561, 34, -21.2295543, 7.625
5562, 34, -21.2295543, 8.875
5563, 34, -20.6886628, 8.875
5564, 37.9807111, -13.892634, 5.51349972
5565, 37.9807389, -13.8920686, 6.81872064
5566, 37.9807389, -13.8920686, 8.19372064
5567, 37.9035079, -14.6749388, 5.70955371
5568, 37.90388, -14.6724298, 8.19372064
5569, 37.7511139, -15.4406558, 7.12825024
5570, 37.5230839, -16.192419, 7.21253227
5571, 37.2230122, -16.9167245, 7.2505142
5572, 22.5248976, -19.5, 1.43934985
5573, 23.5033012, -19.5, 1.82214976
5574, 24.046964, -19.5, 1.64280742
5575, 24.9271738, -19.5, 1.1244881
5576, 22.0925074, -19.5, 1.12036678
5577, 25.1100691, -19.5, 0.617806024
5578, 25.2716995, -19.5, -0.413168372
5579, 24.3026339, -19.5, -1.61398782
5580, 25.0327253, -19.5, -0.850952884
5581, 22.7238184, -19.5, -1.62077851
5582, 23.7504071, -19.5, -1.70870018
5583, 21.7390735, -19.5, -0.412404384
5584, 22.3183565, -19.5, -1.26074633
5585, 21.7617629, -19.5, 0.136475442
5586, 12.0754592, -16.55, 1.9684798
5587, 22.7745828, -16.55, 2.03484609
5588, 13.9365954, -16.55, -2.97359757
5589, 21.0628234, -16.55, -2.96840937
5590, 19.2232954, -16.55, 4.95410701
5591, 15.776944, -16.55, 4.95162827
5592, 11.398161, -16.55, -2.05387762
5593, 23.6107806, -16.55, -2.05954619
5594, 13.3451233, -16.55, 0.58926251
5595, 21.5951891, -16.55, 0.45283116
5596, 12.9828943, -16.55, -1.31606383
5597, 22.0391906, -16.55, -1.35339976
5598, 19.8156954, -16.55, -4.56716219
5599, 15.1788808, -16.55, -4.56404524
5600, 15.1176714, -16.55, 5.79050399
5601, 14.2678736, -16.55, 4.34955849
5602, 19.882006, -16.55, 5.79119224
5603, 20.6559873, -16.55, 4.25030001
5604, 18.0861126, -16.55, -4.12707128
5605, 16.5374353, -16.55, -4.25603533
5606, 23.7000822, -16.55, 2.04246306
5607, 22.6507257, -16.55, 3.48123337
5608, 18.680075, -16.55, 3.87699573
5609, 16.5955865, -16.55, 4.00854635
5610, 13.3573496, -16.55, 2.54418032
5611, 12.3472886, -16.55, 3.66280514
5612, 21.3152593, -16.55, -4.75620251
5613, 20.4196641, -16.55, -6.0886695
5614, 13.689397, -16.55, -4.75583002
5615, 14.5942655, -16.55, -6.0463708
5616, 21.6051693, -16.55, 2.1338204
5617, 12.3411916, -16.55, -3.42885723
5618, 22.6765097, -16.55, -3.44998138
5619, 19.3771773, -16.55, -5.56864365
5620, 15.6193752, -16.55, -5.55474967
5621, 17.4979714, -16.55, 7.63157371
5622, 18.0566668, -16.55, 7.42230256
5623, 16.9630449, -16.55, 7.42474922
5624, 20.3581385, -16.55, 6.87455611
5625, 14.6271924, -16.55, 6.91346127
5626, 17.8023888, -16.55, -4.45654572
5627, 18.3279574, -16.55, -4.64508284
5628, 16.5053989, -16.55, -4.73964003
5629, 17.0216748, -16.55, -4.51180181
5630, 17.3009819, -16.55, -4.21107188
5631, 10.5762193, -16.55, 1.83034765
5632, 10.1118749, -16.55, 1.51951383
5633, 10.9488133, -16.55, 2.22492836
5634, 11.7809228, -16.55, 1.59295312
5635, 12.2972283, -16.55, 1.38120917
5636, 18.0789947, -16.55, 3.44999552
5637, 19.3873653, -16.55, 3.01381339
5638, 15.7384707, -16.55, 3.10905894
5639, 17.0574751, -16.55, 3.51803315
5640, 17.6506106, -16.55, 3.90724884
5641, 23.6172004, -16.55, 1.62485734
5642, 24.1376772, -16.55, 1.442204
5643, 22.641972, -16.55, 1.43001515
5644, 23.1468152, -16.55, 1.6494265
5645, 23.2413896, -16.55, 2.05278162
5646, 23.942857, -16.55, 3.03278581
5647, 22.5590697, -16.55, 5.03482717
5648, 21.0361041, -16.55, 6.24606422
5649, 19.2171176, -16.55, 6.34498306
5650, 21.4549595, -16.55, 5.42047463
5651, 20.2684904, -16.55, 5.01524511
5652, 21.6554686, -16.55, 3.86411072
5653, 24.9753762, -16.55, -1.25159657
5654, 25.0644186, -16.55, 1.00159701
5655, 24.8700294, -16.55, 1.52435122
5656, 24.4445245, -16.55, 2.23652071
5657, 23.2033569, -16.55, 2.78453574
5658, 22.5567267, -16.55, -5.02525553
5659, 23.9636951, -16.55, -3.01544838
5660, 24.6438589, -16.55, -1.74823735
5661, 24.3849342, -16.55, -2.25974253
5662, 23.8565848, -16.55, -1.61252712
5663, 23.1617165, -16.55, -2.78879092
5664, 17.7910099, -16.55, -7.55389922
5665, 20.1686071, -16.55, -7.0398004
5666, 19.2835101, -16.55, -6.69428986
5667, 21.2615408, -16.55, -6.33454466
5668, 20.8559125, -16.55, -5.40417976
5669, 21.7659854, -16.55, -5.65119219
5670, 22.0311108, -16.55, -4.11681134
5671, 14.8233323, -16.55, -7.02392859
5672, 17.216099, -16.55, -7.55607657
5673, 11.0430074, -16.55, -3.01341522
5674, 12.4466804, -16.55, -5.01878189
5675, 13.6936475, -16.55, -6.33157511
5676, 15.7435175, -16.55, -6.65480316
5677, 14.1501585, -16.55, -5.3880921
5678, 13.2243139, -16.55, -5.64707354
5679, 12.9735296, -16.55, -4.1140647
5680, 10.0137916, -16.55, -1.2596934
5681, 9.9246131, -16.55, 1.01089984
5682, 10.3423458, -16.55, -1.75343291
5683, 11.1457003, -16.55, -1.60086204
5684, 10.6040157, -16.55, -2.27206906
5685, 11.8405859, -16.55, -2.78335754
5686, 12.4505713, -16.55, 5.11572916
5687, 11.0422516, -16.55, 3.14266334
5688, 12.1982366, -16.55, 2.82866414
5689, 15.7940211, -16.55, 6.31385846
5690, 13.9533261, -16.55, 6.25221649
5691, 14.6935176, -16.55, 5.06777171
5692, 13.5131902, -16.55, 5.47416185
5693, 13.3030084, -16.55, 4.00133499
5694, 18.9417682, -16.55, -5.37764351
5695, 19.0779586, -16.55, -5.97416812
5696, 18.9843147, -16.55, -4.32844324
5697, 19.151953, -16.55, -4.90706473
5698, 19.6101557, -16.55, -5.07783338
5699, 19.560161, -16.55, -6.26433282
5700, 19.9022697, -16.55, -5.84471077
5701, 15.453318, -16.55, -6.23370034
5702, 15.9360131, -16.55, -5.92498597
5703, 16.0552733, -16.55, -5.38110237
5704, 15.1052227, -16.55, -5.82458784
5705, 15.8418868, -16.55, -4.41463285
5706, 15.8311171, -16.55, -4.92654994
5707, 15.3964063, -16.55, -5.06710551
5708, 12.9003352, -16.55, 0.692420282
5709, 13.0492398, -16.55, 0.144191582
5710, 12.7512663, -16.55, 1.30655923
5711, 12.8450892, -16.55, -0.799330324
5712, 12.4931245, -16.55, -1.22428629
5713, 13.2161613, -16.55, -0.395000849
5714, 11.7195715, -16.55, -1.60526935
5715, 12.2016502, -16.55, -1.76028306
5716, 20.8517924, -16.55, 1.26032748
5717, 21.0533366, -16.55, -0.153443157
5718, 20.7305196, -16.55, 2.05564272
5719, 21.6140445, -16.55, 1.33892659
5720, 19.6948199, -16.55, 4.08308757
5721, 20.2994199, -16.55, 3.07257177
5722, 21.142851, -16.55, 3.18131117
5723, 20.8248079, -16.55, -1.85544219
5724, 19.9651945, -16.55, -2.91384107
5725, 21.2208862, -16.55, -1.04390235
5726, 21.5860046, -16.55, -2.18078227
5727, 21.7565969, -16.55, -0.490851369
5728, 18.5068519, -16.55, -3.47167851
5729, 17.0568962, -16.55, -3.55965897
5730, 20.4507074, -16.55, -3.78870758
5731, 19.3499619, -16.55, -3.62852837
5732, 15.0286172, -16.55, -2.91374238
5733, 14.1755739, -16.55, -1.8563981
5734, 15.6641404, -16.55, -3.62881376
5735, 14.5515141, -16.55, -3.78640268
5736, 16.3225025, -16.55, -3.52510024
5737, 13.9113189, -16.55, -0.0771471714
5738, 14.1231703, -16.55, 1.32950882
5739, 13.4263826, -16.55, -2.16249787
5740, 13.7985084, -16.55, -1.01321532
5741, 13.3324791, -16.55, 1.61700184
5742, 14.2569074, -16.55, 2.23196448
5743, 15.39388, -16.55, 4.21217353
5744, 14.66025, -16.55, 3.12987393
5745, 13.7945141, -16.55, 3.44225345
5746, 19.2941074, -16.55, 5.79077592
5747, 18.9897623, -16.55, 5.34959293
5748, 18.6568255, -16.55, 4.88842354
5749, 19.5555479, -16.55, 5.37535855
5750, 17.3325493, -16.55, 4.38168278
5751, 16.7743036, -16.55, 4.45837181
5752, 18.9663093, -16.55, 4.40390716
5753, 18.3576985, -16.55, 4.40184178
5754, 16.3595506, -16.55, 4.8979676
5755, 16.011266, -16.55, 5.35331397
5756, 16.1815236, -16.55, 4.46560792
5757, 15.7130494, -16.55, 5.79345931
5758, 15.4446969, -16.55, 5.37437854
5759, 23.2822994, -16.55, -1.61698153
5760, 22.5154592, -16.55, -1.24602266
5761, 22.1441678, -16.55, -0.83184484
5762, 22.8151531, -16.55, -1.77515935
5763, 21.94414, -16.55, 0.0785958805
5764, 22.0376201, -16.55, 0.649118971
5765, 22.1010048, -16.55, 1.46590297
5766, 22.1910083, -16.55, 2.09682455
5767, 12.7011471, -16.55, 2.27746503
5768, 12.8457253, -16.55, 3.10245211
5769, 22.7195865, -16.55, 2.76273331
5770, 22.1307196, -16.55, 2.80602229
5771, 13.1368176, -16.55, -3.20466733
5772, 12.6484111, -16.55, -2.40002599
5773, 14.4399872, -16.55, -4.67673036
5774, 13.8013842, -16.55, -3.87127948
5775, 22.3700106, -16.55, -2.4231524
5776, 21.8695084, -16.55, -3.20576066
5777, 21.1978269, -16.55, -3.87577146
5778, 20.5618742, -16.55, -4.67639065
5779, 19.9361174, -16.55, 4.62267383
5780, 15.0244942, -16.55, 4.67633632
5781, 20.1159807, -16.55, -5.3250236
5782, 14.8767152, -16.55, -5.30217675
5783, 12.4266219, -18.645093, -0.762477421
5784, 12.0191359, -18.6007992, 1.08189553
5785, 10.5491996, -18.6030596, -0.732105532
5786, 11.6513937, -17.4464837, -1.19041168
5787, 12.6690066, -17.4355523, 0.270967685
5788, 10.319433, -17.4454253, 0.215084878
5789, 11.5646961, -18.6318649, -1.19825474
5790, 10.3204505, -18.5805186, 0.220597118
5791, 12.6659769, -18.6515825, 0.283721342
5792, 12.4389431, -17.4306809, -0.747252235
5793, 10.5254345, -17.4400048, -0.700158605
5794, 12.2346407, -17.4292286, 0.94884298
5795, 12.0932838, -18.0440338, -1.04307927
5796, 10.8714924, -18.014271, -1.02224176
5797, 12.5504717, -18.0186765, 0.580094149
5798, 12.668299, -18.0191344, -0.274002823
5799, 10.3305719, -18.0055881, -0.269143055
5800, 10.6397429, -18.0226727, 0.836634744
5801, 11.7492387, -17.5892415, 1.17383136
5802, 11.7542771, -19.0559117, 1.17275025
5803, 11.062961, -18.7819172, 1.11758529
5804, 11.0403525, -17.3102532, 1.10847831
5805, 12.2492254, -19.0381033, 0.937369377
5806, 10.594683, -18.7412815, 0.787655453
5807, 12.3545455, -16.9945584, 0.84246781
5808, 11.8804987, -17.0043486, 1.13807763
5809, 10.570218, -17.2982859, 0.758620723
5810, 12.1270654, -18.0217819, 1.02312706
5811, 12.5776478, -19.0644438, 0.527896933
5812, 12.6999892, -19.0699552, 0.00508751002
5813, 12.4250838, -18.6437248, 0.764342848
5814, 12.5792534, -19.0709726, -0.524606526
5815, 12.2504848, -19.0599443, -0.936361379
5816, 12.6669463, -18.6617352, -0.279707745
5817, 11.7696683, -19.0755504, -1.16930706
5818, 11.2306264, -19.0463924, -1.16937499
5819, 12.0278052, -18.6670073, -1.07769277
5820, 10.7447795, -19.0586256, -0.932545997
5821, 10.4203492, -19.0599803, -0.523788243
5822, 10.9512297, -18.6726719, -1.06716969
5823, 10.3000057, -19.0481925, 0.00368282532
5824, 10.4304774, -19.0391845, 0.544170318
5825, 10.337662, -18.6022662, -0.298279205
5826, 10.4496425, -18.3058784, 0.580300832
5827, 12.6998628, -16.9846208, -0.0181480565
5828, 12.5797116, -17.0167277, 0.523662884
5829, 12.5229545, -17.4145024, 0.627346946
5830, 12.2322753, -17.0203107, -0.950669686
5831, 12.5918901, -17.0392142, -0.497771045
5832, 12.6474574, -17.38212, -0.351200213
5833, 11.2093709, -17.0466817, -1.16427432
5834, 11.7826143, -16.9998475, -1.16624574
5835, 12.1120545, -17.3856428, -1.03217695
5836, 10.3849245, -17.0738426, -0.443403562
5837, 10.7450413, -16.9675066, -0.93275792
5838, 10.9870957, -17.3890047, -1.08486367
5839, 10.4019663, -16.950007, 0.48406806
5840, 10.3000089, -16.9802833, -0.00460983064
5841, 10.3464802, -17.4663284, -0.330744845
5842, 10.4463286, -17.7314281, 0.574261807
5843, 12.2628575, -18.3532897, -0.926309066
5844, 11.7718116, -18.3087828, -1.1688107
5845, 12.6999695, -18.3302855, -0.00856220243
5846, 12.5783214, -18.3284042, -0.526519664
5847, 12.4399536, -18.0289604, -0.74598074
5848, 12.3118272, -18.309925, 0.883706178
5849, 12.6174791, -18.3342993, 0.437310497
5850, 12.3975186, -17.7325092, 0.796530199
5851, 11.1700766, -18.4162166, -1.15375498
5852, 10.7404177, -18.3103863, -0.928996632
5853, 10.411248, -18.3592535, -0.504597974
5854, 10.3011063, -18.2307109, -0.0515153336
5855, 10.551057, -18.0311384, -0.734511515
5856, 11.7913277, -17.715447, -1.16409972
5857, 12.2678373, -17.744359, -0.92218536
5858, 10.7027596, -17.7136678, -0.896887828
5859, 11.1778527, -17.6882789, -1.1559503
5860, 11.413778, -18.0701616, -1.1968984
5861, 12.5740087, -17.7221143, -0.535261931
5862, 12.6999078, -17.7348752, 0.0148719817
5863, 12.6176368, -17.7345809, 0.436907405
5864, 12.6866993, -18.0201716, 0.178170904
5865, 10.3146884, -18.0160408, 0.187179932
5866, 10.3010741, -17.7687109, -0.0507621441
5867, 10.3929939, -17.6881155, -0.463182002
5868, 18.3867255, -18.6323718, 5.19147183
5869, 18.028267, -18.0336213, 7.07746647
5870, 16.5618553, -18.630005, 5.25174569
5871, 17.5, -17.4439461, 4.8
5872, 16.3300865, -17.4439461, 6.26702512
5873, 18.6527457, -17.4692318, 6.33343269
5874, 17.5046578, -18.6363867, 4.80000904
5875, 16.3300865, -18.6060539, 6.26702512
5876, 18.614951, -18.5736808, 6.44371645
5877, 16.5617491, -17.419995, 5.25187879
5878, 18.436394, -17.3962343, 5.24955595
5879, 18.2508737, -18.8852338, 6.93604952
5880, 18.2572269, -17.1395475, 6.9309175
5881, 18.6494181, -18.0266348, 5.65527124
5882, 16.9806876, -18.0348038, 4.91818918
5883, 16.3519849, -18.0178626, 5.65062733
5884, 16.6676301, -18.025, 6.8643844
5885, 18.022957, -18.0290542, 4.9199463
5886, 17.7483255, -17.2727864, 7.17402489
5887, 17.7598692, -18.7736018, 7.17152378
5888, 17.0808118, -18.7975726, 7.1244026
5889, 17.1043806, -17.2754456, 7.13291011
5890, 17.8681644, -19.1971881, 7.14212739
5891, 18.3686758, -19.1771055, 6.82789029
5892, 16.5868556, -18.7070183, 6.77856742
5893, 18.1330616, -18.4719203, 7.0194278
5894, 18.3571816, -16.8553614, 6.83978553
5895, 17.8600534, -16.826058, 7.14471026
5896, 16.6128118, -17.2875, 6.8080205
5897, 18.1417385, -17.57805, 7.01398803
5898, 18.5478548, -19.0164905, 6.58480795
5899, 18.6961171, -19.1148827, 6.09645716
5900, 18.4793636, -18.7444221, 6.69343126
5901, 18.5868322, -19.0869378, 5.49128017
5902, 18.2569141, -19.0606138, 5.0688281
5903, 18.6918402, -18.6353593, 5.86029709
5904, 17.7690552, -19.0678207, 4.83055171
5905, 17.2378894, -19.059916, 4.82897565
5906, 17.9994946, -18.6730877, 4.90889728
5907, 16.7436481, -19.0614724, 5.06837142
5908, 16.4188558, -19.0650025, 5.47930117
5909, 16.9745355, -18.6704348, 4.92116401
5910, 16.3, -19.0530269, 6
5911, 16.4188374, -19.0530269, 6.52066049
5912, 16.330096, -18.6180294, 5.73293338
5913, 16.455254, -18.3155269, 6.5903438
5914, 18.6995353, -17.0043908, 6.03339289
5915, 18.5637156, -17.0186265, 6.55543592
5916, 18.5021125, -17.3080526, 6.66012911
5917, 18.2411987, -16.9773266, 5.05627095
5918, 18.5857261, -16.9631198, 5.48892375
5919, 18.6808225, -17.3901706, 5.78632211
5920, 17.2329749, -16.9969731, 4.83008651
5921, 17.7670251, -16.9969731, 4.83008651
5922, 18.0289229, -17.3849613, 4.92285538
5923, 16.4188189, -16.9849975, 5.47937786
5924, 16.751779, -16.9849975, 5.06182876
5925, 16.9793012, -17.4319706, 4.91885583
5926, 16.4188374, -16.9969731, 6.52066049
5927, 16.3, -16.9969731, 6
5928, 16.330077, -17.4319706, 5.73301637
5929, 16.455254, -17.7344731, 6.5903438
5930, 18.2424907, -18.3230683, 5.05728715
5931, 17.7577975, -18.3378797, 4.82801859
5932, 18.6952403, -18.2228275, 6.10677361
5933, 18.579017, -18.3491214, 5.47490739
5934, 18.4441534, -18.0251951, 5.25934199
5935, 18.4335861, -17.7429835, 6.75393436
5936, 18.6456735, -18.0318339, 6.35697647
5937, 18.4150236, -18.3051394, 6.77635808
5938, 17.2450696, -18.3409675, 4.82739158
5939, 16.7461682, -18.3365051, 5.0663311
5940, 16.4380243, -18.3239338, 5.44124456
5941, 16.3007566, -18.3119582, 5.95739526
5942, 16.5745677, -18.0304939, 5.23607911
5943, 16.7461032, -17.7368463, 5.06638359
5944, 17.2345917, -17.7492198, 4.82971865
5945, 17.7682005, -17.7391567, 4.8303554
5946, 18.2498269, -17.7113904, 5.06311171
5947, 17.50232, -18.0531159, 4.80000224
5948, 16.3300865, -18.025, 6.26702512
5949, 16.3007566, -17.7309044, 5.95739526
5950, 16.4379847, -17.7189288, 5.44131989
5951, 18.6989004, -17.7517527, 6.05135922
5952, 18.5791181, -17.7012496, 5.47511504
5953, 35.3680936, -19.4185717, 7.36445092
5954, 34.7714383, -19.9093288, 7.62910769
5955, 34.2324852, -20.2788707, 8.25662916
5956, 24.43744, -18.6101303, -0.749136984
5957, 24.0357201, -17.4450725, 1.07378023
5958, 24.555397, -18.0739132, 0.571084119
5959, 22.5677252, -17.421048, -0.755555166
5960, 22.3321915, -18.6174297, 0.276085501
5961, 24.4779877, -17.4402173, -0.6953704
5962, 24.671721, -18.7121642, 0.258978613
5963, 24.683532, -17.3905638, 0.19812124
5964, 22.3260782, -17.4310186, 0.248812236
5965, 23.4712679, -18.5943294, -1.19965598
5966, 23.3233143, -17.4305518, -1.1869213
5967, 22.5725788, -18.6205484, -0.76150501
5968, 24.3597538, -18.6432384, 0.837151927
5969, 22.9107256, -18.0289222, -1.04534954
5970, 22.3445206, -18.014363, -0.323832194
5971, 22.6730541, -18.0221405, 0.869574928
5972, 24.108579, -18.0253223, -1.03422993
5973, 24.676455, -17.9721002, -0.236545297
5974, 23.7688885, -17.0002784, 1.16948664
5975, 23.7678308, -18.468327, 1.16972932
5976, 23.0780911, -18.7618035, 1.12338456
5977, 23.0880634, -17.2937611, 1.12707951
5978, 23.9168983, -19.0819172, 1.12525367
5979, 24.414976, -19.0626159, 0.776414192
5980, 22.627998, -18.7580281, 0.824386098
5981, 24.2135999, -18.0387678, 0.964766937
5982, 24.2780171, -17.0103024, 0.913613357
5983, 22.6001623, -17.3036943, 0.793909335
5984, 24.5978662, -19.098324, 0.484447834
5985, 24.6999745, -19.0900628, -0.00782168113
5986, 24.5560361, -18.6923964, 0.569901472
5987, 24.5822975, -19.0334829, -0.518297265
5988, 24.2740772, -19.0624092, -0.916953933
5989, 24.6689893, -18.6785055, -0.271042372
5990, 23.7729787, -19.0344304, -1.16853868
5991, 23.2425445, -19.0466898, -1.17205659
5992, 24.0413275, -18.6609211, -1.07096428
5993, 22.7468948, -19.0503845, -0.934255052
5994, 22.4276379, -19.0456244, -0.538553161
5995, 22.9645015, -18.6358125, -1.07389078
5996, 22.300031, -19.0611202, -0.00863152954
5997, 22.4266662, -19.053944, 0.536614013
5998, 22.3324174, -18.6332805, -0.277039529
5999, 22.4578035, -18.3182052, 0.594833178
6000, 24.6998815, -16.9595621, -0.016863124
6001, 24.609651, -16.91688, 0.456809169
6002, 24.4405795, -17.4276174, 0.745191434
6003, 24.2682665, -16.9946701, -0.921827847
6004, 24.6162701, -17.057567, -0.440387404
6005, 24.650032, -17.4156478, -0.342675289
6006, 23.218586, -16.9916592, -1.16653597
6007, 23.7746682, -17.0023655, -1.16814271
6008, 24.0429118, -17.4170924, -1.07016204
6009, 22.4093034, -16.9776472, -0.500380805
6010, 22.7657439, -17.0018926, -0.949140671
6011, 22.8978677, -17.3714745, -1.03799647
6012, 22.4213067, -16.9886286, 0.52575738
6013, 22.3002846, -17.0302487, -0.0261321783
6014, 22.3165341, -17.3775003, -0.198515509
6015, 22.4549026, -17.7140551, 0.58972151
6016, 24.6999151, -18.3254112, -0.0142761425
6017, 24.6103505, -18.3220101, -0.45510624
6018, 24.2714616, -18.3320926, -0.919155596
6019, 23.8238456, -18.3930956, -1.15547567
6020, 24.4479973, -18.0474321, -0.735731735
6021, 24.333948, -17.747952, 0.862861921
6022, 24.6426094, -17.7450919, 0.366665732
6023, 24.4746231, -18.3693226, 0.700078403
6024, 24.647082, -18.3577505, 0.35242436
6025, 24.67336, -18.0598211, 0.251448491
6026, 24.699998, -17.7046191, 0.00220498667
6027, 22.3002856, -17.7325294, -0.0261785647
6028, 22.4397708, -17.7083919, -0.562062222
6029, 22.7423777, -17.7349942, -0.930595757
6030, 23.2046092, -17.6974807, -1.16307536
6031, 22.5722354, -18.0194934, -0.761086569
6032, 22.333055, -18.0167637, 0.279712931
6033, 22.3002885, -18.3036156, -0.0263100282
6034, 22.4347675, -18.3178593, -0.552521162
6035, 24.6116148, -17.6825615, -0.452009544
6036, 23.8058281, -17.6953496, -1.16037457
6037, 24.291478, -17.7300765, -0.901977028
6038, 23.2317477, -18.2796632, -1.16963272
6039, 22.7331895, -18.3281107, -0.923039398
6040, 23.5729387, -18.0573085, -1.19778126
6041, 16.2043071, -17.5518535, 2.70576789
6042, 15.1492581, -17.5087477, -1.86387034
6043, 14.5743605, -17.5050083, 0.663802392
6044, 18.8018172, -17.5313791, 2.70282668
6045, 20.4254935, -17.5027002, 0.664445459
6046, 19.8504262, -17.5361676, -1.86426845
6047, 17.5006703, -17.525, -2.99999993
6048, 16.8393698, -17.972029, 2.92635741
6049, 16.8274056, -17.0568273, 2.92363075
6050, 18.1760546, -17.0576773, 2.92283255
6051, 18.1702832, -17.9683152, 2.92416148
6052, 19.3832043, -17.0485605, 2.3352819
6053, 15.605764, -17.0479711, 2.32634258
6054, 19.3721683, -17.968119, 2.34413864
6055, 15.6114543, -17.9863882, 2.33096445
6056, 20.4999864, -17.0415082, -0.00903482285
6057, 20.1973286, -17.0283107, 1.31317119
6058, 19.8453534, -17.5234278, 1.87064629
6059, 20.2050573, -17.9403147, 1.29717568
6060, 19.3677148, -17.0596688, -2.34768856
6061, 20.2057305, -17.0561676, -1.29577092
6062, 20.4281372, -17.5260251, -0.652696228
6063, 20.4999744, -17.9763871, 0.0123853554
6064, 20.1987954, -17.9952528, -1.31015404
6065, 16.832764, -17.0375, -2.9248583
6066, 18.1794286, -17.0433784, -2.92205009
6067, 18.7906916, -17.5154517, -2.70815715
6068, 19.3756318, -17.9811521, -2.34136823
6069, 18.1667333, -17.9614119, -2.92497294
6070, 14.7938292, -17.0371008, -1.29485113
6071, 15.6432074, -17.0310026, -2.35633644
6072, 16.1982156, -17.5163007, -2.70284246
6073, 15.6413567, -17.9917506, -2.35487685
6074, 16.8219066, -17.9538316, -2.92236022
6075, 14.8037917, -17.025346, 1.31546986
6076, 14.5000061, -17.0445503, -0.0060568645
6077, 14.5746481, -17.5264136, -0.665068461
6078, 14.7991719, -18.0051693, -1.30595858
6079, 14.5000214, -17.977326, 0.0113311461
6080, 15.1632519, -17.5213981, 1.88138472
6081, 14.7982992, -17.9401287, 1.30415221
6082, 17.4974394, -18.5, 0.00233958378
6083, 18.6890505, -18.5, 0.945737099
6084, 17.5001087, -18.5, 1.51212167
6085, 16.3132244, -18.5, 0.945855935
6086, 18.9697787, -18.5, -0.336174768
6087, 18.1577261, -18.5, -1.36795218
6088, 16.8430365, -18.5, -1.36266474
6089, 16.030489, -18.5, -0.337721636
6090, 13.7135236, -21.5, -4.45290459
6091, 11.7602989, -21.5, 6.2800882
6092, 13.0602656, -21.5, 3.73089206
6093, 11.1973563, -21.5, -5.75883648
6094, 12.7884087, -21.5, -7.12115533
6095, 10.6837816, -21.5, 4.67354651
6096, 13.7579638, -21.5, 4.45697369
6097, 12.7972409, -21.5, 4.67573088
6098, 13.0585057, -21.5, -3.76631753
6099, 12.7760858, -21.5, -4.70807133
6100, 13.4071932, -21.5, -5.45972657
6101, 12.0523958, -21.5, 4.00532618
6102, 13.4486942, -21.5, 5.28890411
6103, 12.0869054, -21.5, -4.07295623
6104, 14.2866593, -21.5, -5.33781423
6105, 9.92122817, -21.5, 2.87450802
6106, 13.7387855, -21.5, 7.54082425
6107, 12.3607688, -21.5, -5.63494069
6108, 11.8038516, -21.5, 5.0993665
6109, 12.3681008, -21.5, -3.10939351
6110, 10.6125742, -21.5, -3.77732965
6111, 14.4655362, -21.5, 5.22321231
6112, 11.0280959, -21.5, 3.49038968
6113, 13.6678978, -21.5, -7.67499381
6114, 13.7524862, -21.5, -6.53044545
6115, 12.6770715, -21.5, 6.94043987
6116, 32.084752, -21.5, -7.99487715
6117, 12.3810818, -21.5, 2.98293584
6118, 14.668488, -21.5, -8.215235
6119, 11.9789669, -21.5, -6.49867321
6120, 14.7197675, -21.5, 8.11593877
6121, 11.0005286, -21.5, 5.69988344
6122, 11.5748948, -21.5, -4.81366378
6123, 21.7462871, -21.5, -7.01332627
6124, 21.7453, -21.5, 6.96754042
6125, 15.6167779, -21.5, -8.5375934
6126, 9.14051643, -21.5, -1.90611243
6127, 9.51119703, -21.5, -2.8176992
6128, 9.92368273, -21.5, 3.88762624
6129, 12.6729494, -21.5, 5.79531837
6130, 13.6744569, -21.5, 6.17739932
6131, 10.5318723, -21.5, -4.96876465
6132, 23.9405998, -21.5, 7.53375727
6133, 29.6684124, -21.5, 7.00853697
6134, 31.9166398, -21.5, 7.08087527
6135, 29.9085172, -21.5, -6.91496451
6136, 12.9448924, -21.5, -6.23331629
6137, 24.0415824, -21.5, -7.44018768
6138, 32.6077473, -21.5, 8.26815167
6139, 32.439002, -21.5, -6.55336175
6140, 33.0421148, -21.5, -7.50544108
6141, 33.0467836, -21.5, -8.74615258
6142, 30.9803317, -21.5, -8.74572753
6143, 17.3994344, -21.5, -8.96184955
6144, 16.7830138, -21.5, -8.95060191
6145, 20.5763599, -21.5, -8.43420972
6146, 18.6401673, -21.5, -8.6393422
6147, 16.8892457, -21.5, 8.95729285
6148, 17.5275955, -21.5, 8.9690036
6149, 16.0276062, -21.5, 8.64705256
6150, 15.4395667, -21.5, 8.49385003
6151, 18.6811923, -21.5, 8.58933455
6152, 20.61284, -21.5, 8.38602565
6153, 14.2895989, -21.5, 8.4419228
6154, 14.8799849, -21.5, 8.64305169
6155, 15.2916426, -21.5, 7.97201038
6156, 13.2454613, -21.5, 7.88292987
6157, 13.8004914, -21.5, 8.1611453
6158, 14.2205431, -21.5, 7.82834705
6159, 12.1967188, -21.5, 7.23872514
6160, 12.7100475, -21.5, 7.58366074
6161, 13.2106411, -21.5, 7.23710477
6162, 11.2722101, -21.5, 6.49973012
6163, 11.7359436, -21.5, 6.90848473
6164, 12.2183433, -21.5, 6.61008147
6165, 10.4818359, -21.5, 5.74155851
6166, 10.8915071, -21.5, 6.20869893
6167, 11.3801973, -21.5, 5.99003143
6168, 9.97827015, -21.5, 4.71177325
6169, 10.3205695, -21.5, 5.23061317
6170, 10.8421551, -21.5, 5.18671497
6171, 9.32226465, -21.5, 3.76163527
6172, 9.5982207, -21.5, 4.31881312
6173, 10.3037322, -21.5, 4.28058637
6174, 9.11388728, -21.5, 2.67436415
6175, 9.32053214, -21.5, 3.25599316
6176, 9.9230297, -21.5, 3.38086575
6177, 8.8124875, -21.5, 1.33613842
6178, 8.93264223, -21.5, 1.93869412
6179, 9.69467828, -21.5, 2.18982099
6180, 8.7084804, -21.5, 0.746601562
6181, 8.63811477, -21.5, -0.986916643
6182, 8.56906131, -21.5, -0.376889295
6183, 8.73740242, -21.5, -2.17133717
6184, 8.60441053, -21.5, -1.56952273
6185, 9.12097535, -21.5, -1.33112368
6186, 9.11680739, -21.5, -3.22438344
6187, 8.91271514, -21.5, -2.63721915
6188, 9.33022417, -21.5, -2.37332801
6189, 9.94266641, -21.5, -4.26366482
6190, 9.6678593, -21.5, -3.70641113
6191, 10.0671015, -21.5, -3.29411894
6192, 10.2475078, -21.5, -5.37599911
6193, 9.90231548, -21.5, -4.85938232
6194, 10.5728004, -21.5, -4.37408247
6195, 10.9871483, -21.5, -6.2372012
6196, 10.5806807, -21.5, -5.76944992
6197, 10.8630043, -21.5, -5.36818629
6198, 11.8460485, -21.5, -7.01776555
6199, 11.3811415, -21.5, -6.60815192
6200, 11.5875456, -21.5, -6.12893358
6201, 12.7673596, -21.5, -7.67392343
6202, 12.2529778, -21.5, -7.3290415
6203, 12.3824009, -21.5, -6.80995574
6204, 13.7611925, -21.5, -8.22401054
6205, 13.208755, -21.5, -7.95146315
6206, 13.2288664, -21.5, -7.39804975
6207, 14.8436612, -21.5, -8.70284779
6208, 14.2672612, -21.5, -8.49236562
6209, 14.1765523, -21.5, -7.93428653
6210, 15.9557208, -21.5, -8.98246092
6211, 15.325156, -21.5, -8.84217309
6212, 15.1331921, -21.5, -8.36752284
6213, 16.4382332, -21.5, -8.57674893
6214, 33.2632196, -21.5, -5.30531049
6215, 20.8538936, -21.5, -5.98651045
6216, 22.7732352, -21.5, -6.00020127
6217, 20.6371269, -21.5, -7.22476526
6218, 14.4980675, -21.5, -4.7261794
6219, 14.8587432, -21.5, -4.9330832
6220, 14.6564595, -21.5, -6.19899109
6221, 33.4445143, -21.5, -6.0415803
6222, 33.2072343, -21.5, -6.78946522
6223, 32.2660737, -21.5, -7.27475816
6224, 13.8469453, -21.5, -3.99320383
6225, 14.2062828, -21.5, -4.29063788
6226, 14.0129286, -21.5, -4.88999602
6227, 13.2065463, -21.5, -3.28372388
6228, 13.5159088, -21.5, -3.65305008
6229, 13.3908122, -21.5, -4.1056426
6230, 12.6722552, -21.5, -2.57482002
6231, 12.8644381, -21.5, -2.96671059
6232, 12.709595, -21.5, -3.43826324
6233, 11.5273972, -21.5, -2.82657571
6234, 12.6747308, -21.5, 2.49646562
6235, 11.9270567, -21.5, 2.72713245
6236, 10.6963413, -21.5, 2.72025784
6237, 11.2595241, -21.5, 2.95895616
6238, 10.4683928, -21.5, 3.19943235
6239, 11.7002388, -21.5, 3.24658426
6240, 12.8684081, -21.5, 2.88932738
6241, 13.5117338, -21.5, 3.632518
6242, 13.1979519, -21.5, 3.25543341
6243, 12.7218799, -21.5, 3.35828495
6244, 14.2323576, -21.5, 4.29846428
6245, 13.8588251, -21.5, 3.99233964
6246, 13.41166, -21.5, 4.09428042
6247, 14.9628261, -21.5, 4.8823262
6248, 14.5767807, -21.5, 4.67080385
6249, 14.1190483, -21.5, 4.83767175
6250, 14.7320103, -21.5, 5.75448312
6251, 20.8512289, -21.5, 5.96150026
6252, 20.678433, -21.5, 7.16711298
6253, 22.7744669, -21.5, 5.97433844
6254, 33.2595038, -21.5, 5.30895073
6255, 33.3057581, -21.5, 8.88281962
6256, 33.3028035, -21.5, 7.6374245
6257, 32.9124252, -21.5, 6.02060225
6258, 32.9539499, -21.5, 7.05111885
6259, 31.9110058, -21.5, 6.04116735
6260, 32.263281, -21.5, 7.67536614
6261, 31.2400637, -21.5, 8.88410191
6262, 29.8903697, -21.5, -8.20974421
6263, 27.8345723, -21.5, -8.20841471
6264, 30.9944626, -21.5, -7.45209251
6265, 24.8953246, -21.5, -8.47139142
6266, 22.850362, -21.5, -8.47100512
6267, 28.880829, -21.5, -5.95637058
6268, 26.813024, -21.5, -7.25098406
6269, 25.9448596, -21.5, -6.21774228
6270, 21.7105889, -21.5, -8.26729701
6271, 22.8975382, -21.5, -7.22222795
6272, 30.9091649, -21.5, -5.95622557
6273, 32.1642141, -21.5, -5.76816311
6274, 31.1777421, -21.5, -6.72902573
6275, 23.9227816, -21.5, -6.22315251
6276, 15.3489375, -21.5, -7.81289643
6277, 14.0028832, -21.5, -5.94763641
6278, 14.4866954, -21.5, -6.7859431
6279, 13.7201689, -21.5, -7.10272065
6280, 14.4476351, -21.5, -7.3347668
6281, 14.930954, -21.5, -7.60925219
6282, 9.89449196, -21.5, -2.18984036
6283, 10.6711058, -21.5, -3.0338244
6284, 11.472518, -21.5, -3.49160371
6285, 10.1323004, -21.5, -2.58322935
6286, 21.7008529, -21.5, 8.23458834
6287, 14.8220525, -21.5, 7.20991359
6288, 14.3801859, -21.5, 6.89727469
6289, 13.7066344, -21.5, 6.85390078
6290, 14.370222, -21.5, 6.22824718
6291, 14.060061, -21.5, 5.70498047
6292, 25.8988464, -21.5, 6.26750466
6293, 23.8747972, -21.5, 6.27232356
6294, 22.8532958, -21.5, 7.24771298
6295, 30.7881934, -21.5, 6.00335576
6296, 28.7627507, -21.5, 6.00131501
6297, 24.8503002, -21.5, 8.52178859
6298, 26.8118381, -21.5, 7.25078952
6299, 27.7139523, -21.5, 8.25469554
6300, 30.7920629, -21.5, 7.04292951
6301, 22.7990373, -21.5, 8.52157563
6302, 29.7708673, -21.5, 8.25601723
6303, 30.8993133, -21.5, 8.28805669
6304, 12.9178509, -21.5, -4.23670588
6305, 13.244627, -21.5, -4.58033653
6306, 13.0944944, -21.5, -5.08015922
6307, 13.55514, -21.5, -4.95330645
6308, 13.8522845, -21.5, -5.40406121
6309, 11.4010753, -21.5, 5.3989476
6310, 11.7810716, -21.5, 5.68932042
6311, 12.2388123, -21.5, 5.44694291
6312, 12.2165153, -21.5, 6.03764054
6313, 12.673046, -21.5, 6.36788623
6314, 13.2770989, -21.5, 4.56610333
6315, 12.9285354, -21.5, 4.20166859
6316, 12.4224393, -21.5, 4.34606755
6317, 12.553335, -21.5, 3.86607761
6318, 12.2186078, -21.5, 3.49654265
6319, 12.1669718, -21.5, -6.06730194
6320, 11.7801912, -21.5, -5.69968853
6321, 11.9673091, -21.5, -5.22627117
6322, 11.3841263, -21.5, -5.28405276
6323, 11.0528439, -21.5, -4.89698019
6324, 13.2750529, -21.5, -6.82594381
6325, 13.3489087, -21.5, -6.37986278
6326, 12.8651439, -21.5, -6.67879672
6327, 12.4640024, -21.5, -6.36689246
6328, 11.9275412, -21.5, 4.5524641
6329, 11.2448694, -21.5, 4.88649525
6330, 11.3700206, -21.5, 4.34019313
6331, 10.8546081, -21.5, 4.08139261
6332, 11.5396375, -21.5, 3.75419239
6333, 10.4762842, -21.5, 3.69268362
6334, 13.5999876, -21.5, 4.87198799
6335, 13.1232623, -21.5, 4.98144397
6336, 13.9626143, -21.5, 5.2601917
6337, 12.3005142, -21.5, 4.88819963
6338, 13.0609235, -21.5, 5.54221653
6339, 12.7333959, -21.5, 5.23540635
6340, 12.5743532, -21.5, -3.92545626
6341, 12.4350616, -21.5, -4.38924448
6342, 12.2222837, -21.5, -3.58949728
6343, 12.5703544, -21.5, -5.17379451
6344, 12.886885, -21.5, -5.54951264
6345, 11.8353524, -21.5, -4.44687655
6346, 12.1775655, -21.5, -4.76032382
6347, 13.5654822, -21.5, -5.9938798
6348, 12.6523657, -21.5, -5.93252157
6349, 13.1714078, -21.5, -5.84834102
6350, 13.5589941, -21.5, 5.73403977
6351, 13.173218, -21.5, 5.98574575
6352, 11.3515666, -21.5, -3.95763319
6353, 11.0905391, -21.5, -4.31331706
6354, 13.1741796, -21.5, 6.55743801
6355, 38, -15.1821839, -1.40222816
6356, 38, -15.4807745, 1.66548981
6357, 38, -12.2842057, 1.82362749
6358, 38, -11.7419542, -2.26882368
6359, 38, -11.5997921, 5.18780609
6360, 38, -11.6621735, -5.18833087
6361, 38, -17.3718971, 0.0706926295
6362, 38, -18.012706, -1.95472683
6363, 38, -11.2202155, 7.58168825
6364, 38, -11.2272468, -7.58277631
6365, 38, -18.057113, 2.03640069
6366, 38, -4.69283824, 8.88334009
6367, 38, -4.69283016, -8.88279237
6368, 38, -10.1402701, -8.54776502
6369, 38, -12.3556385, -8.54320995
6370, 38, -12.3636669, -7.16755542
6371, 38, -17.3976081, -2.9430563
6372, 38, -19.0042826, -2.94547388
6373, 38, -19.0089544, -0.976063212
6374, 38, -14.3547839, -2.70560021
6375, 38, -15.9654047, -2.68995717
6376, 38, -12.5773181, -5.97076652
6377, 38, -12.5877605, -4.59771699
6378, 38, -12.6252697, -3.13513947
6379, 38, -13.4551593, -1.83713617
6380, 38, -11.7184524, -3.74662448
6381, 38, -19.0303701, 1.01614454
6382, 38, -19.0257245, 2.9860555
6383, 38, -17.413795, 2.98228539
6384, 38, -16.1120302, 2.81779043
6385, 38, -14.5056851, 2.84234321
6386, 38, -12.560559, 4.60321777
6387, 38, -12.547203, 5.97196041
6388, 38, -13.879911, 1.75592521
6389, 38, -12.9011159, 2.9127902
6390, 38, -11.9728321, 3.53443498
6391, 38, -12.3598923, 7.16912826
6392, 38, -12.3522945, 8.54284856
6393, 38, -10.1371908, 8.54735268
6394, 38, -8.75020127, 7.16139776
6395, 38, -6.91549179, 8.88782011
6396, 38, -10.3907934, 3.37149032
6397, 38, -10.9275706, 0.901540211
6398, 38, -9.76759049, 6.16206263
6399, 38, -9.93750777, 4.98507884
6400, 38, -11.4085016, 6.38146165
6401, 38, -10.6673517, -1.11370894
6402, 38, -10.1010762, -3.58791143
6403, 38, -12.0012595, -0.213032846
6404, 38, -8.75185761, -7.16215081
6405, 38, -6.91533843, -8.88858878
6406, 38, -9.77098419, -6.16232033
6407, 38, -9.97114906, -4.98866235
6408, 38, -11.4426896, -6.38252692
6409, 38, -16.5956408, -1.67796587
6410, 38, -17.693588, -0.940825563
6411, 38, -18.6854713, 0.0354901478
6412, 38, -17.7149623, 1.05213441
6413, 38, -16.767718, 1.85098077
6414, 38, -13.7335323, 0.219387642
6415, 38, -15.3393965, 0.131476627
6416, 38, -16.429544, 0.871277873
6417, 38, -16.27942, -0.667933557
6418, 31.151465, -18.5538135, 9.5
6419, 32.5553145, -17.5313134, 9.5
6420, 34.0288787, -15.6273958, 9.5
6421, 33.3554993, -16.6500901, 9.5
6422, 33.9837863, -19.8604295, 9.5
6423, 33.515185, -20.0587757, 9.5
6424, 37.1001823, -14.4395523, 9.5
6425, 33.5021807, -19.6006885, 9.5
6426, 33.0112634, -19.9146948, 9.5
6427, 36.2721329, -17.2274851, 9.5
6428, 34.9094062, -18.9166951, 9.5
6429, 33.0072108, -19.3315059, 9.5
6430, 36.8379662, -15.8835301, 9.5
6431, 33.5075813, -19.0506324, 9.5
6432, 33.001669, -18.754727, 9.5
6433, 33.5214421, -18.45264, 9.5
6434, 32.5054464, -19.0507198, 9.5
6435, 32.4788272, -18.4482756, 9.5
6436, 33.3225567, -20.4755588, 9.5
6437, 32.0264228, -18.7709343, 9.5
6438, 31.9575962, -19.4968457, 9.5
6439, 35.9588679, -13.5106018, 9.5
6440, 35.8103397, -14.559526, 9.5
6441, 36.4597878, -15.1180926, 9.5
6442, 30.0367809, -19.3277335, 9.5
6443, 34.1440989, -18.8263623, 9.5
6444, 34.0759049, -18.1443035, 9.5
6445, 33.5496216, -17.8491036, 9.5
6446, 34.0738464, -17.5215076, 9.5
6447, 34.6237567, -17.8244188, 9.5
6448, 34.6444135, -17.2107347, 9.5
6449, 35.1902222, -17.5092332, 9.5
6450, 35.1934178, -16.8316076, 9.5
6451, 34.5627039, -16.5722964, 9.5
6452, 35.1708235, -16.1724951, 9.5
6453, 35.8608785, -16.5702287, 9.5
6454, 35.733856, -15.8569305, 9.5
6455, 35.1088249, -15.4595553, 9.5
6456, 28.9001469, -19.413522, 9.5
6457, 32.9719263, -17.1006679, 9.5
6458, 27.9628524, -20.2673345, 9.5
6459, 35.1201695, -18.1819306, 9.5
6460, 34.1775364, -15.0283515, 9.5
6461, 34.3117466, -14.5983537, 9.5
6462, 33.6737473, -16.1519131, 9.5
6463, 33.9255024, -16.63501, 9.5
6464, 34.7490461, -14.9408494, 9.5
6465, 34.858764, -14.2871005, 9.5
6466, 33.03621, -18.1883078, 9.5
6467, 32.1583287, -17.965061, 9.5
6468, 19.0233721, -20.0005922, 9.5
6469, 35.8155843, -17.8841411, 9.5
6470, 34.602008, -15.8983078, 9.5
6471, 34.4598247, -19.4153879, 9.5
6472, 31.6770146, -18.3260488, 9.5
6473, 33.5899905, -17.2097328, 9.5
6474, 37.1614259, -15.2921953, 9.5
6475, 36.6326853, -16.6214728, 9.5
6476, 35.7716755, -15.2407055, 9.5
6477, 36.4072352, -1.79509293, 9.5
6478, 32.516944, -19.6279184, 9.5
6479, 32.1706989, -20.419697, 9.5
6480, 30.9185854, -19.8944572, 9.5
6481, 30.7513781, -18.9663715, 9.5
6482, 33.9305483, -19.3619617, 9.5
6483, 34.5878068, -18.4187237, 9.5
6484, 31.4137437, -19.0014118, 9.5
6485, 36.2823507, -16.1320393, 9.5
6486, 35.6664472, -17.2045391, 9.5
6487, 33.0485511, -17.644512, 9.5
6488, 34.1716585, -16.1790956, 9.5
6489, 35.25973, -14.8975473, 9.5
6490, 34.5341656, -15.3859889, 9.5
6491, 29.5925612, -20.1427328, 9.5
6492, 32.6127344, -17.9761199, 9.5
6493, 35.5717083, -18.5623052, 9.5
6494, 36, -6.75, 9.5
6495, 35.9931446, -10.876767, 9.5
6496, 36.2171273, -15.6462596, 9.5
6497, 32.0864254, -18.3705586, 9.5
6498, 34.1717107, -17.0629505, 9.5
6499, 28.4494953, -19.2068979, 9.5
6500, 28.7284969, -19.1939244, 9.5
6501, 29.004668, -19.1548987, 9.5
6502, 26.2357064, -19.6397652, 9.5
6503, 27.9790391, -19.634934, 9.5
6504, 28.4314997, -19.8404283, 9.5
6505, 29.2759141, -19.0908531, 9.5
6506, 29.8442311, -19.0479588, 9.5
6507, 30.1083857, -18.9588462, 9.5
6508, 29.4684639, -19.3706277, 9.5
6509, 30.4656843, -18.7781652, 9.5
6510, 30.7204264, -18.6649168, 9.5
6511, 30.3940795, -19.1470525, 9.5
6512, 30.9204698, -18.4586378, 9.5
6513, 31.1635995, -18.3222315, 9.5
6514, 30.9514216, -18.7600925, 9.5
6515, 31.4263743, -18.2083492, 9.5
6516, 31.6557921, -18.049963, 9.5
6517, 31.4142398, -18.4399311, 9.5
6518, 31.8964492, -17.8694691, 9.5
6519, 32.110174, -17.6904707, 9.5
6520, 31.9176717, -18.1455549, 9.5
6521, 32.3086669, -17.4735969, 9.5
6522, 32.504853, -17.2755321, 9.5
6523, 32.3568216, -17.7481872, 9.5
6524, 32.713159, -17.0602093, 9.5
6525, 32.8901124, -16.8447883, 9.5
6526, 32.7636204, -17.3159906, 9.5
6527, 33.0818989, -16.6194994, 9.5
6528, 33.2380915, -16.3885826, 9.5
6529, 33.1637128, -16.875379, 9.5
6530, 33.3972102, -16.1395134, 9.5
6531, 33.5312985, -15.8950755, 9.5
6532, 33.5146233, -16.4010016, 9.5
6533, 33.7088642, -15.6328168, 9.5
6534, 33.8196234, -15.3770023, 9.5
6535, 33.851313, -15.8896545, 9.5
6536, 33.8940086, -15.0774849, 9.5
6537, 33.9805997, -14.8124931, 9.5
6538, 34.1032076, -15.3278737, 9.5
6539, 34.0477048, -14.5974941, 9.5
6540, 34.1093238, -14.3256085, 9.5
6541, 34.2446415, -14.8133526, 9.5
6542, 33.9534505, -13.7764316, 9.5
6543, 34.3828325, -14.1699819, 9.5
6544, 34.429382, -13.8935503, 9.5
6545, 34.5852553, -14.4427271, 9.5
6546, 34.995918, -12.1887051, 9.5
6547, 34.9965121, -9.93853624, 9.5
6548, 35.408816, -13.8988512, 9.5
6549, 34.9794339, -13.5053009, 9.5
6550, 35.9760063, -12.1936844, 9.5
6551, 35.1882222, -0.886910689, 9.5
6552, 37.1698246, -0.902161773, 9.5
6553, 35.2001432, -3.16047326, 9.5
6554, 37.1663607, -0.912088773, 9.5
6555, 37.1809805, -3.15175208, 9.5
6556, 18.250479, -19.5511827, 9.5
6557, 18.250037, -19.5456356, 9.5
6558, 20.0223624, -19.5376451, 9.5
6559, 18.2705304, -20.7478565, 9.5
6560, 20.3262305, -20.750277, 9.5
6561, 35.877896, -18.5687257, 9.5
6562, 35.6142813, -18.8595797, 9.5
6563, 35.2831302, -19.0367747, 9.5
6564, 34.9922763, -19.3003893, 9.5
6565, 35.2405573, -18.7395001, 9.5
6566, 36.2336706, -17.9143515, 9.5
6567, 35.999834, -18.2296437, 9.5
6568, 35.6936463, -18.2232231, 9.5
6569, 36.6637515, -17.2493295, 9.5
6570, 36.4619449, -17.5860235, 9.5
6571, 36.0438586, -17.5558131, 9.5
6572, 37.0118608, -16.5914701, 9.5
6573, 36.8440277, -16.9463233, 9.5
6574, 36.4524091, -16.9244789, 9.5
6575, 33.6612784, -20.4468879, 9.5
6576, 33.6612784, -20.9877794, 9.5
6577, 33.0853494, -20.9598485, 9.5
6578, 31.0230236, -20.9593921, 9.5
6579, 32.7466278, -20.4476279, 9.5
6580, 34.2141741, -20.0060932, 9.5
6581, 33.9918931, -20.1393232, 9.5
6582, 33.7494856, -19.9596026, 9.5
6583, 33.7575925, -20.2384964, 9.5
6584, 33.4188709, -20.2671672, 9.5
6585, 37.5500911, -13.9697761, 9.5
6586, 37.53083, -14.3618447, 9.5
6587, 37.4732323, -14.7501374, 9.5
6588, 36.9965723, -9.93838348, 9.5
6589, 36.9965723, -12.1883835, 9.5
6590, 36.9794339, -13.5053009, 9.5
6591, 36.5295251, -13.975077, 9.5
6592, 37.5038541, -15.1764589, 9.5
6593, 37.4084612, -15.5573104, 9.5
6594, 37.1308041, -14.8658738, 9.5
6595, 37.2468012, -15.8530067, 9.5
6596, 37.1145012, -16.2224988, 9.5
6597, 36.9996961, -15.5878627, 9.5
6598, 36.7353258, -16.2525014, 9.5
6599, 34.7674855, -19.5497357, 9.5
6600, 34.4521933, -19.7835724, 9.5
6601, 34.6846154, -19.1660415, 9.5
6602, 34.2218055, -19.6379087, 9.5
6603, 34.9996641, -7.87472593, 9.5
6604, 34.9998439, -5.62693401, 9.5
6605, 35.9998937, -4.4978297, 9.5
6606, 36.99763, -5.62734104, 9.5
6607, 35.9965723, -8.81338348, 9.5
6608, 23.0611962, -20.2548531, 9.5
6609, 25.1261159, -20.2562396, 9.5
6610, 21.3137821, -20.2648739, 9.5
6611, 28.9189262, -20.8836673, 9.5
6612, 26.8572635, -20.8828328, 9.5
6613, 29.7337806, -20.8213664, 9.5
6614, 28.7777068, -20.2050337, 9.5
6615, 31.5446421, -20.1570771, 9.5
6616, 30.3967927, -20.6972286, 9.5
6617, 30.2556118, -20.0185896, 9.5
6618, 37, -7.875, 9.5
6619, 31.2826043, -18.7776126, 9.5
6620, 31.5453792, -18.6637303, 9.5
6621, 31.0825609, -18.9838917, 9.5
6622, 32.8019328, -17.5879127, 9.5
6623, 33.0102387, -17.37259, 9.5
6624, 32.3855315, -17.9705905, 9.5
6625, 32.5840244, -17.7537166, 9.5
6626, 32.8306427, -17.810316, 9.5
6627, 34.2815221, -15.5066924, 9.5
6628, 34.355851, -15.2071702, 9.5
6629, 33.9227029, -16.1655044, 9.5
6630, 34.1002686, -15.9032457, 9.5
6631, 34.3868333, -16.0387017, 9.5
6632, 34.3154434, -15.7628518, 9.5
6633, 34.5680868, -15.6421483, 9.5
6634, 33.2809584, -17.1552004, 9.5
6635, 33.4727449, -16.9299115, 9.5
6636, 33.6405008, -16.6425501, 9.5
6637, 33.7996248, -16.3934616, 9.5
6638, 33.7577464, -16.9223714, 9.5
6639, 33.7429835, -19.730559, 9.5
6640, 33.5086829, -19.8297321, 9.5
6641, 33.9571673, -19.6111956, 9.5
6642, 33.7163645, -19.4813251, 9.5
6643, 34.1951865, -19.3886748, 9.5
6644, 33.2567221, -19.7576917, 9.5
6645, 33.2632242, -19.9867352, 9.5
6646, 33.1669101, -20.1951268, 9.5
6647, 35.8846038, -14.0350639, 9.5
6648, 36.455261, -14.4995391, 9.5
6649, 36.1350638, -14.8388093, 9.5
6650, 36.7799851, -14.7788224, 9.5
6651, 36.8106069, -15.205144, 9.5
6652, 33.2546958, -19.4660972, 9.5
6653, 33.0092371, -19.6231003, 9.5
6654, 33.504881, -19.3256605, 9.5
6655, 33.2573961, -19.1910692, 9.5
6656, 33.7190648, -19.206297, 9.5
6657, 32.7620774, -19.4797121, 9.5
6658, 32.7641037, -19.7713066, 9.5
6659, 32.5909811, -20.1671959, 9.5
6660, 32.3438214, -20.0238077, 9.5
6661, 36.2467819, -16.5958507, 9.5
6662, 36.0665057, -16.8988569, 9.5
6663, 35.7636628, -16.8873839, 9.5
6664, 35.96929, -17.2160121, 9.5
6665, 35.7410157, -17.5443401, 9.5
6666, 34.3019618, -19.1208751, 9.5
6667, 34.5267525, -18.8715287, 9.5
6668, 34.7486065, -18.6677094, 9.5
6669, 34.3659528, -18.622543, 9.5
6670, 34.8539882, -18.3003272, 9.5
6671, 35.0147879, -18.5493128, 9.5
6672, 35.3459389, -18.3721179, 9.5
6673, 33.2546252, -18.9026797, 9.5
6674, 33.0044399, -19.0431164, 9.5
6675, 32.7535577, -18.9027234, 9.5
6676, 32.7563286, -19.1911128, 9.5
6677, 32.5111952, -19.3393191, 9.5
6678, 36.648877, -15.5008113, 9.5
6679, 36.3384576, -15.3821761, 9.5
6680, 36.5275467, -15.7648948, 9.5
6681, 36.5601585, -16.0077847, 9.5
6682, 36.457518, -16.376756, 9.5
6683, 36.249739, -15.8891495, 9.5
6684, 33.5145117, -18.7516362, 9.5
6685, 33.2615556, -18.6036835, 9.5
6686, 33.8258401, -18.9384973, 9.5
6687, 33.8327705, -18.6395011, 9.5
6688, 34.0373236, -19.094162, 9.5
6689, 33.2788261, -18.3204739, 9.5
6690, 33.0189395, -18.4715174, 9.5
6691, 32.7402481, -18.6015013, 9.5
6692, 32.4921368, -18.7494977, 9.5
6693, 32.7575186, -18.3182917, 9.5
6694, 34.1100019, -18.4853329, 9.5
6695, 33.7986735, -18.2984718, 9.5
6696, 33.8127632, -17.9967036, 9.5
6697, 33.5355318, -18.1508718, 9.5
6698, 33.2929158, -18.0187057, 9.5
6699, 32.252625, -18.6096049, 9.5
6700, 32.2659346, -18.910827, 9.5
6701, 31.9920095, -19.13389, 9.5
6702, 32.2315213, -19.2737827, 9.5
6703, 32.2372701, -19.562382, 9.5
6704, 32.2826263, -18.4094171, 9.5
6705, 32.0564241, -18.5707464, 9.5
6706, 32.8244722, -18.0822138, 9.5
6707, 32.5457808, -18.2121977, 9.5
6708, 32.3185779, -18.2066683, 9.5
6709, 32.1223771, -18.1678098, 9.5
6710, 31.7200832, -18.8861731, 9.5
6711, 31.6856699, -19.2491287, 9.5
6712, 31.8517187, -18.5484916, 9.5
6713, 31.88172, -18.3483037, 9.5
6714, 32.0641475, -19.9582714, 9.5
6715, 31.4380908, -19.6956514, 9.5
6716, 31.1661452, -19.44788, 9.5
6717, 35.3345519, -14.4233132, 9.5
6718, 35.7910076, -14.9001157, 9.5
6719, 36.1157317, -15.179399, 9.5
6720, 35.059247, -14.5923239, 9.5
6721, 35.5350349, -14.7285367, 9.5
6722, 35.5157028, -15.0691264, 9.5
6723, 35.9944014, -15.4434825, 9.5
6724, 29.246354, -19.7781274, 9.5
6725, 29.8150241, -19.7352607, 9.5
6726, 30.8351517, -19.4301283, 9.5
6727, 30.478205, -19.6107239, 9.5
6728, 34.3318559, -18.2815136, 9.5
6729, 34.0748757, -17.8329056, 9.5
6730, 33.811734, -17.6853056, 9.5
6731, 34.3498308, -17.9843612, 9.5
6732, 34.3488016, -17.6729632, 9.5
6733, 34.6057818, -18.1215713, 9.5
6734, 33.8319185, -17.3656202, 9.5
6735, 33.569806, -17.5294182, 9.5
6736, 33.2990863, -17.7468078, 9.5
6737, 33.0423805, -17.9164099, 9.5
6738, 33.3192708, -17.4271224, 9.5
6739, 34.6340851, -17.5175768, 9.5
6740, 34.3591299, -17.3661212, 9.5
6741, 34.4080621, -17.1368426, 9.5
6742, 34.1227786, -17.2922291, 9.5
6743, 33.8808506, -17.1363417, 9.5
6744, 34.9069895, -17.666826, 9.5
6745, 34.9173178, -17.3599839, 9.5
6746, 34.8719631, -18.0031747, 9.5
6747, 35.1551959, -17.8455819, 9.5
6748, 35.19182, -17.1704204, 9.5
6749, 34.9189156, -17.0211711, 9.5
6750, 34.8780609, -16.701952, 9.5
6751, 34.6035587, -16.8915156, 9.5
6752, 34.3672073, -16.8176235, 9.5
6753, 35.4283347, -17.3568861, 9.5
6754, 35.4299325, -17.0180733, 9.5
6755, 35.4678769, -18.0330358, 9.5
6756, 35.5029033, -17.6966871, 9.5
6757, 35.1821207, -16.5020513, 9.5
6758, 34.8667637, -16.3723958, 9.5
6759, 35.5271482, -16.7009181, 9.5
6760, 35.515851, -16.3713619, 9.5
6761, 34.8864157, -16.0354014, 9.5
6762, 34.582356, -16.2353021, 9.5
6763, 34.3671812, -16.375696, 9.5
6764, 34.0485676, -16.4070725, 9.5
6765, 34.2441031, -16.6036532, 9.5
6766, 34.0486065, -16.8489803, 9.5
6767, 35.7973673, -16.2135796, 9.5
6768, 35.4523398, -16.0147128, 9.5
6769, 35.4213404, -15.6582429, 9.5
6770, 35.1398242, -15.8160252, 9.5
6771, 34.8554164, -15.6789316, 9.5
6772, 36.0716146, -16.351134, 9.5
6773, 36.0081034, -15.9944849, 9.5
6774, 35.7527658, -15.548818, 9.5
6775, 35.4402502, -15.3501304, 9.5
6776, 35.9754916, -15.751595, 9.5
6777, 35.1842774, -15.1785513, 9.5
6778, 35.0043881, -14.9191984, 9.5
6779, 34.9289355, -15.2002024, 9.5
6780, 34.6416058, -15.1634191, 9.5
6781, 34.8214952, -15.4227721, 9.5
6782, 34.4632913, -14.9846005, 9.5
6783, 34.5303963, -14.7696015, 9.5
6784, 34.8039031, -14.6140085, 9.5
6785, 26.1766896, -19, -7.54765071
6786, 26.1747957, -19, 7.5481193
6787, 27.0949096, -19, 6.14848856
6788, 27.0819654, -19, 8.52044063
6789, 25.3746348, -19, 8.55525109
6790, 27.0799323, -19, -8.52130801
6791, 27.0940699, -19, -6.14727575
6792, 25.3701641, -19, -8.55735243
6793, 21.5941349, -19, -8.93206937
6794, 21.6578092, -19, 8.94408821
6795, 26.801779, -19, 4.91060506
6796, 27.4370704, -19, 3.25201408
6797, 25.9248246, -19, 6.27400473
6798, 24.2314289, -19, 8.02938503
6799, 26.8022051, -19, -4.91056058
6800, 27.4426302, -19, -3.25197693
6801, 25.9241655, -19, -6.27379454
6802, 24.2319996, -19, -8.02977427
6803, 27.4422327, -19, -0.899758111
6804, 27.4504177, -19, 0.904026534
6805, 23.319104, -19, -8.91348656
6806, 23.3216786, -19, 8.91389108
6807, 32.7349985, -18.2656116, 7.02070229
6808, 34.2576157, -17.839368, -6.92223876
6809, 35.4981825, -15.5436518, 6.76799246
6810, 16.8618011, -22.0575428, -0.270830293
6811, 36.0458465, -15.9218425, -7.00612727
6812, 32.4137192, -18.7828434, -6.65718535
6813, 34.9930456, -17.8357474, 7.2152453
6814, 34.1097746, -15.6932538, -7.14846567
6815, 15.1134193, -23.7614709, 2.88120111
6816, 15.1247802, -23.7598748, -2.89693152
6817, 34.0917117, -19.2851511, -8.21323106
6818, 34.1891589, -16.5065797, 7.0460769
6819, 33.7526578, -19.302308, 8.16502161
6820, 12.9883212, -19.1463279, 4.12056839
6821, 36.7619266, -21.4445769, 4.04112705
6822, 36.7615019, -21.440547, -4.04582686
6823, 33.5049387, -24.0006885, 4.04867552
6824, 33.5105445, -24.000929, -4.04911655
6825, 32.4834591, -19.9027887, -7.89868806
6826, 13.1240445, -19.3075539, -4.35512518
6827, 33.1917641, -18.4822504, 8.24499631
6828, 31.2979812, -18.874811, 7.35187387
6829, 15.1706557, -17.9954169, 4.47605114
6830, 38.9996517, 2.37867656, 4.60644887
6831, 35.4875062, -18.0388563, -7.55008813
6832, 36.2320557, -16.7982807, 7.83116311
6833, 14.2644483, -24.0544565, -2.38876808
6834, 15.3629264, -23.5008485, -0.277335404
6835, 33.598059, -17.0512118, -8.08234928
6836, 19.873009, -17.9904557, 4.57203011
6837, 39.0304528, -2.26185376, 4.5259069
6838, 14.2465626, -24.0619297, 2.3848643
6839, 34.2604346, -17.8350891, 8.29951844
6840, 11.2588532, -19.4016756, -4.27381253
6841, 11.841741, -20.1375011, 5.63490205
6842, 34.3972251, -18.4005517, -8.55734269
6843, 35.1255846, -14.728873, 7.3161858
6844, 13.3926742, -18.0047197, -2.06943298
6845, 32.3964902, -18.575454, -8.46899853
6846, 18.9397715, -20.7593233, -1.33478139
6847, 18.4327243, -20.6076332, 1.22148601
6848, 34.5696993, -17.1594303, -8.4119576
6849, 33.8598571, -20.7651101, -0.142153561
6850, 12.5141224, -20.1047821, -6.11499116
6851, 18.7134011, -22.9568556, -0.873068985
6852, 21.6496707, -17.9926991, -1.98134899
6853, 33.158043, -17.5710227, 8.34923051
6854, 32.0523171, -19.8955303, 7.58204625
6855, 36.2703161, 4.80217388, -4.5887457
6856, 16.548693, -23.4197659, -2.03296496
6857, 36.325631, 4.55164486, 4.90997791
6858, 29.9235435, -19.9659273, -7.21979584
6859, 15.6933353, -21.8705652, 1.67494531
6860, 39.1933243, -4.06908641, -1.95529458
6861, 35.2183543, -18.5802075, 7.79974085
6862, 34.8094132, -16.8683043, 8.44579519
6863, 36.5103478, -4.49485683, 4.3938619
6864, 35.9124349, 4.24258847, -6.87240867
6865, 19.1721814, -22.8083123, 1.37575154
6866, 39.0642911, 4.19724316, -1.7821279
6867, 36.319418, -1.5500092, -1.51790821
6868, 10.4559687, -20.0473651, 3.68188234
6869, 35.1917204, -23.6651954, 4.27283951
6870, 37.222592, -20.6327759, 4.3101972
6871, 36.1635702, -22.8508681, 4.26957248
6872, 36.7246936, -22.1802115, 4.48915083
6873, 34.4425698, -24.0156066, 4.27789255
6874, 35.3568644, -15.8439141, -8.1850927
6875, 36.6594456, -16.2346234, -8.19866707
6876, 31.4704978, -19.1234113, -8.35442153
6877, 35.1900174, -23.6684743, -4.27678852
6878, 37.2231638, -20.6355416, -4.28168063
6879, 36.1628775, -22.8504989, -4.26982533
6880, 36.7253093, -22.1784342, -4.4925248
6881, 34.4416878, -24.0135233, -4.27860123
6882, 13.5819428, -20.0559758, 6.74233748
6883, 15.5981096, -21.4276975, -1.92959486
6884, 15.851423, -23.5534563, 1.48051686
6885, 36.1340167, -15.2962745, 8.07605658
6886, 36.175142, 1.77559924, 1.99754902
6887, 28.8269394, -22.1050789, 1.50051611
6888, 36.2205219, -1.52083495, 1.67134666
6889, 36.3441011, -4.45648607, -4.26323979
6890, 21.9449804, -19.2569927, -4.23317942
6891, 34.3812584, -15.8368415, -8.51743261
6892, 33.226712, -17.9055558, -8.58374511
6893, 36.4774329, 1.36645162, -0.457454208
6894, 38.364953, 3.72126377, -3.76654293
6895, 33.179569, -19.0321878, -8.60264696
6896, 16.8511925, -23.6381108, -0.281520066
6897, 15.0376476, -18.0142105, -5.04680339
6898, 35.5785863, 6.89572966, -3.93014213
6899, 20.3697982, -18.021419, -5.63512311
6900, 35.6292389, -13.5256775, -7.47269961
6901, 38.4356743, -3.90394746, -3.93669827
6902, 37.4121854, -6.00708623, -4.3671223
6903, 19.9948454, -21.2157673, 2.63151142
6904, 15.8083491, -20.1975323, 0.213722573
6905, 34.9840347, -18.481516, -9.02870354
6906, 34.6531161, -18.6586489, -9.02861169
6907, 34.7584548, -18.2912843, -9.02885518
6908, 39.4354068, -2.0518012, -5.9951773
6909, 39.9757161, -2.05205254, -5.93902497
6910, 39.7459379, -2.03934348, -6.33244611
6911, 20.8142916, -19.4642299, 3.53241512
6912, 20.9943522, -20.30091, 3.711464
6913, 20.043488, -20.3692024, 4.00461486
6914, 20.9950376, -21.1752746, 2.28817262
6915, 20.8040491, -20.33923, 2.11009729
6916, 39.0401487, 1.01309843, -6.78248323
6917, 40.0159587, 2.05197572, -5.94170137
6918, 39.7062477, 2.00827587, -6.27098084
6919, 39.4840269, 2.02649605, -5.94742104
6920, 11.4086422, -17.5774321, -1.66288452
6921, 11.6842055, -17.3102642, -1.5758653
6922, 11.874223, -17.5926011, -2.35024146
6923, 12.144357, -17.2998424, -2.2489643
6924, 23.5892663, -17.5682101, -1.66379592
6925, 23.3148101, -17.308479, -1.5813879
6926, 22.8520814, -17.2961089, -2.25985481
6927, 23.1251385, -17.5817305, -2.35032711
6928, 27.3526563, -22.5827771, 0.97460289
6929, 27.2480328, -21.7213164, -0.0707347839
6930, 27.2527453, -22.7580099, -0.0510846489
6931, 35.6209756, -15.3783133, 8.78807898
6932, 35.6520376, -15.7343274, 8.78783693
6933, 35.9337743, -15.5767042, 8.78797021
6934, 39.4789547, 3.8921038, 0.524379166
6935, 39.6131248, 4.10693491, 0.835549513
6936, 38.621007, 4.71185144, 1.29213345
6937, 38.566465, 3.60964321, 1.12571221
6938, 38.4698839, 4.48265638, 0.976436758
6939, 13.6157785, -17.7491247, 0.196993247
6940, 13.5586802, -18.0618406, 0.487148548
6941, 13.559238, -17.7589885, 0.648372631
6942, 20.4809378, -22.4875335, -2.97268679
6943, 20.4836923, -23.2876449, -2.99263485
6944, 20.1417397, -23.3844652, -1.2259275
6945, 19.0928565, -22.8558486, -2.59644085
6946, 20.1311435, -22.5858546, -1.22982707
6947, 39.5094133, -3.90295204, 0.487098901
6948, 39.4212887, -4.19065324, 0.940831393
6949, 38.9914548, -3.934926, 0.51010244
6950, 38.8746957, 2.79070601, 7.01262462
6951, 38.8525847, 0.417593236, 7.48111409
6952, 38.4587284, 0.464094199, 7.44826841
6953, 38.4674406, 2.79247676, 6.93225255
6954, 16.3663411, -24.2729109, 1.26673812
6955, 17.5198971, -23.175938, 1.41083455
6956, 18.0346215, -23.9067049, 1.22243061
6957, 16.8660317, -24.3182221, 0.389362207
6958, 18.0097348, -23.2185825, 0.53992149
6959, 16.3551645, -23.593497, 0.59802468
6960, 16.5853426, -18.7746833, -9.44654283
6961, 16.5895996, -18.7731816, 9.44685247
6962, 13.5816661, -18.7553131, 8.64745409
6963, 13.5803963, -18.7682063, -8.64370266
6964, 9.78014472, -18.7674529, 5.52157457
6965, 9.78095792, -18.7688746, -5.52321617
6966, 8.05467792, -18.7700948, 0.932097517
6967, 8.05481791, -18.7729846, -0.925078831
6968, 37.8957659, -1.60021217, -5.15652712
6969, 38.9779303, -2.43236157, -5.3341421
6970, 38.473095, -1.58655055, -5.13686648
6971, 13.5939128, -17.4810907, 0.485984273
6972, 15.5201247, -24.278546, 1.56833609
6973, 15.1575646, -24.2800488, 1.6061594
6974, 15.1492229, -24.2785013, 1.2723373
6975, 21.7673912, -19.4610054, 4.04039159
6976, 20.2411891, -20.8374882, -2.76483125
6977, 20.5307369, -20.0653668, -3.05567401
6978, 18.9264414, -20.895831, -2.64153615
6979, 19.2237306, -20.1182902, -2.88152538
6980, 20.2494598, -20.6839014, -1.46059646
6981, 33.484518, -21.0097817, 5.1255979
6982, 35.9120529, -20.9546462, 4.56974006
6983, 34.3412878, -21.4737386, 4.51045259
6984, 32.8941311, -21.1393208, 2.43083836
6985, 35.3089816, -21.103832, 1.94846743
6986, 34.4630902, -20.6259902, 2.55512956
6987, 39.4184596, 6.06496813, -1.70445405
6988, 39.8543933, 5.78195824, -1.618944
6989, 39.3894559, 5.61885756, -2.36061462
6990, 39.8542314, 5.34041805, -2.2655062
6991, 14.3537489, -24.5241687, -2.03516212
6992, 14.6516594, -24.522048, -1.85701359
6993, 14.3186952, -24.521453, -1.74946715
6994, 20.4594895, -18.5571574, 6.59449988
6995, 20.3107401, -18.7238892, 6.92317895
6996, 19.4527326, -18.265316, 7.37699315
6997, 19.6315012, -18.1130472, 7.06273086
6998, 31.4022207, -19.4312381, 8.5399224
6999, 31.0451123, -19.6121783, 8.53975448
7000, 31.4858529, -19.8950592, 8.54035627
7001, 35.5969485, -21.9217569, 4.52725008
7002, 34.1451019, -21.5855036, 2.43629441
7003, 33.4871433, -20.6084912, 5.0861782
7004, 34.4712204, -20.229556, 2.54966422
7005, 29.2911078, -20.4558401, 8.2561112
7006, 29.6339689, -20.8208522, 8.25565112
7007, 29.8570974, -20.4129473, 8.25535642
7008, 36.3954194, -21.4734026, 4.51515909
7009, 15.9396712, -24.7083502, -3.93119425
7010, 15.9034087, -24.6953588, -3.59376296
7011, 15.6036954, -24.7100909, -3.75080389
7012, 19.2754235, -17.0125365, -5.1396156
7013, 19.0618289, -16.8502584, -4.82917734
7014, 18.9357859, -17.273679, -4.75495833
7015, 34.2780495, 6.42316114, 3.5454603
7016, 34.2927292, 6.89698056, 3.07371592
7017, 35.0616725, 7.73404663, 2.54630869
7018, 35.2772738, 6.86840402, 2.3518649
7019, 35.0535149, 7.28337556, 3.18439653
7020, 22.7111336, -18.782359, -1.66198658
7021, 22.9965493, -19.0856641, -1.69731901
7022, 22.6133437, -18.0092654, -2.84159908
7023, 40.0747092, 1.95559452, -6.42537545
7024, 13.9407477, -17.0498521, 1.61911543
7025, 13.8779689, -18.4820702, 1.13961255
7026, 13.3343539, -18.0048753, 2.04114103
7027, 12.9266596, -17.2999484, 1.58495175
7028, 12.943923, -18.7830553, 1.0755629
7029, 34.7056209, -16.3835231, 8.97307823
7030, 34.9900632, -16.520745, 8.97312006
7031, 34.9590141, -16.1644221, 8.97325037
7032, 35.0567009, -3.39163433, 6.78052731
7033, 35.0393367, -3.05355974, 7.43033076
7034, 35.3007468, -2.2538309, 7.10419635
7035, 35.2773971, -1.84442768, 7.69405054
7036, 34.2847284, -3.27410985, 7.3811334
7037, 13.7772404, -20.323394, 4.65764196
7038, 13.2503222, -20.3276932, 4.68315895
7039, 13.3950919, -20.3271661, 4.28006704
7040, 14.2802416, -20.4934756, 5.3689186
7041, 14.7875559, -20.4928744, 5.34318379
7042, 14.3801736, -20.4876962, 5.81592513
7043, 38.9566019, 3.93027028, 0.491217684
7044, 39.2539047, 3.87653177, 0.148898532
7045, 18.6915452, -22.7974236, 2.52201347
7046, 18.4336244, -23.4290756, 2.48165792
7047, 16.77015, -23.8114027, 2.49707401
7048, 17.0329497, -23.172732, 2.54060978
7049, 15.55558, -16.97418, -6.47959441
7050, 12.7382559, -16.9929772, -1.0702142
7051, 12.2927331, -16.9650074, -1.34333893
7052, 12.5242214, -17.3024577, -1.2492547
7053, 33.6273494, -19.451156, 8.8327859
7054, 33.6300556, -19.1762409, 8.83276654
7055, 33.3799284, -19.3163974, 8.83298304
7056, 37.9004547, -5.48086503, -1.74294245
7057, 38.2347874, -5.2118201, -1.66468428
7058, 39.3998588, -5.62535204, -2.33926722
7059, 39.6999943, -5.33743955, -2.27284678
7060, 38.9989447, -5.11402007, -2.85583196
7061, 40.1028279, -1.97906952, -6.40097084
7062, 16.3253552, -23.2596802, 2.5718793
7063, 38.9625028, -6.13633266, 1.62939498
7064, 39.5220286, -6.38903878, 1.55876791
7065, 38.9635015, -6.16130524, 2.24296256
7066, 37.997584, -6.29321292, 1.73825294
7067, 20.23892, -21.6333743, -2.76007931
7068, 20.2416506, -21.4808924, -1.46414673
7069, 36.8137117, 3.05143573, 3.02079652
7070, 36.0761459, 3.14199381, 3.14677437
7071, 36.1054335, 3.05302802, 1.92340606
7072, 36.1219572, 1.90221256, 3.21109494
7073, 36.8461506, 2.92015881, 1.79030597
7074, 18.013919, -22.4275896, 0.547098551
7075, 17.444083, -22.3327043, 1.5046894
7076, 16.2814972, -21.9614854, 0.700481782
7077, 16.3626336, -22.8059994, 0.603328085
7078, 15.7740936, -22.7129598, 1.57777781
7079, 19.4149311, -16.9674442, -6.51224094
7080, 21.4447298, -18.0377085, 0.478749664
7081, 21.4042376, -17.7501664, 0.176631134
7082, 21.4009028, -17.4798796, 0.483150431
7083, 27.3747587, -21.6306669, 0.927553785
7084, 39.8937427, -5.85292677, 1.58554308
7085, 21.7712853, -18.6997247, 3.60548953
7086, 19.8810233, -18.7416796, 5.0323147
7087, 20.8191728, -18.7158295, 3.07720233
7088, 39.0525453, -2.56776621, -6.52551893
7089, 38.2573438, -1.74630714, -6.55387234
7090, 37.9117682, -1.82591484, -6.19695451
7091, 33.099675, -18.9065399, 8.8726854
7092, 33.0968303, -18.6182452, 8.87258805
7093, 32.8487224, -18.7660135, 8.87269464
7094, 12.8679267, -17.3041227, -0.819849529
7095, 12.9028598, -16.9739291, -0.5577505
7096, 17.0540758, -21.2224559, 1.43469795
7097, 16.5103588, -21.1758406, 2.61482029
7098, 17.8913121, -20.5289863, 2.38939441
7099, 17.1153513, -20.3853245, 0.723038891
7100, 16.555102, -20.3227749, 1.9035675
7101, 15.7475023, -21.0332716, 0.959487811
7102, 35.7575137, 6.4125465, 3.44581482
7103, 36.0103413, 5.99784621, 2.50884762
7104, 34.3674849, -16.7515185, 8.97289738
7105, 34.1998961, -17.0387127, 8.9727612
7106, 34.4906431, -16.9655086, 8.97286127
7107, 18.3918944, -23.9087243, 1.89269768
7108, 17.6559818, -24.517144, 2.96203784
7109, 16.7214523, -24.2768537, 1.96283094
7110, 40.0026937, 1.79196572, -5.18277265
7111, 39.4586478, 1.77479746, -5.16093681
7112, 16.8569481, -22.8482661, -0.275913007
7113, 34.9999027, -17.1887632, 8.97283174
7114, 35.3126627, -17.3761237, 8.97280413
7115, 35.2380204, -17.0365222, 8.97297728
7116, 12.3123697, -21.0010131, 2.6663703
7117, 12.649746, -20.9945896, 3.03400363
7118, 12.1419667, -20.9909216, 3.16194582
7119, 14.615877, -16.986405, -6.91629657
7120, 16.9919735, -16.9910613, -7.41329976
7121, 14.6282369, -17.9497542, -6.89534572
7122, 37.9154269, 4.48280605, 0.878703419
7123, 37.7412286, -10.2093691, 1.71359917
7124, 37.0104826, -10.3351117, 1.1915816
7125, 37.0059164, -10.0259896, 1.84740686
7126, 33.9481721, -19.0643054, 8.83238894
7127, 33.8414507, -19.3319185, 8.83258601
7128, 37.9874456, 4.77371374, 1.37470447
7129, 35.0374255, 3.60767509, 6.82069724
7130, 35.0408894, 3.03195651, 6.988013
7131, 35.0364793, 3.31848445, 6.2190337
7132, 37.9924953, -4.44927266, -3.08311491
7133, 37.9708634, -3.73925437, -2.33794737
7134, 37.2260019, -3.99323698, -2.78319817
7135, 37.8634045, 5.48309816, -1.71739627
7136, 38.3867924, 5.24410139, -1.66789898
7137, 38.9850499, 5.10643473, -2.86635085
7138, 35.1591551, 4.36058217, 5.41462259
7139, 36.1886605, 3.48392783, 5.73079464
7140, 35.1566052, 4.67222504, 5.9973237
7141, 22.2319454, -19.3703583, -3.21150932
7142, 21.7809894, -19.9441325, -2.93557657
7143, 22.6084034, -20.1546922, -3.35041953
7144, 16.8838098, -21.7040553, 2.60054234
7145, 18.2492834, -21.0708127, 2.4334025
7146, 18.6263402, -22.1702725, 2.50076683
7147, 18.7940925, -21.7054703, 1.29695053
7148, 18.8110951, -23.899136, 1.23581837
7149, 17.6446234, -24.3174435, 0.400076903
7150, 35.1551035, 5.49937962, 5.22608415
7151, 35.1606593, 5.70923655, 4.67397648
7152, 35.1592771, 5.05155486, 4.7231822
7153, 35.9276342, -19.0647839, -0.0344892873
7154, 35.9278681, -19.4094239, 0.946775347
7155, 35.9269675, -20.381955, -0.0704679145
7156, 37.9485781, 1.55438165, -5.12166569
7157, 37.8085407, 1.35264673, -4.78724141
7158, 38.3911023, 1.2423909, -4.71558502
7159, 24.9994772, -16.9303554, 1.20058609
7160, 21.675144, -22.497791, -3.34769898
7161, 22.5575065, -21.9238089, -3.73560561
7162, 21.6807309, -21.6927051, -3.33283265
7163, 16.0698178, -20.6700039, 2.7418006
7164, 16.1085509, -19.8442981, 2.05423022
7165, 37.7920464, -4.68633394, 1.26938115
7166, 38.3759143, -4.86668324, 1.34203621
7167, 37.9515089, -4.52840641, 0.906306577
7168, 39.8969794, 1.46266948, -4.73677492
7169, 17.1569157, -24.3180499, -0.144305568
7170, 17.7463648, -24.3186001, -0.204025075
7171, 40.0874668, 4.72023952, 1.77258434
7172, 39.9544889, 3.56229878, 1.62888002
7173, 38.9821372, 4.15344003, 2.04738541
7174, 35.7806533, -15.7407979, -8.84274963
7175, 35.5317205, -15.5191117, -8.84278145
7176, 35.9083546, -15.4818356, -8.84285796
7177, 34.1058473, -19.35869, 8.83214274
7178, 36.1750079, -2.81739262, -1.53660733
7179, 36.9385714, -2.63402029, -1.10154932
7180, 37.3571864, -2.72625385, -2.75157318
7181, 40.0088134, 7.49609888, 1.20518443
7182, 34.4924862, -18.4096889, -9.02882148
7183, 37.1809377, 3.89436581, -2.69684282
7184, 37.9603426, 3.63556262, -2.25172426
7185, 37.9400794, 4.36981246, -3.01090109
7186, 27.5242926, -24.2144653, -1.40981858
7187, 27.5482251, -23.1682308, -1.41727656
7188, 29.2510257, -23.5510514, 0.138874841
7189, 34.8109866, -23.0246036, 4.63844392
7190, 34.528699, -22.2083211, 2.06317187
7191, 35.3038598, -22.626393, 4.64273497
7192, 35.0119937, -21.8074469, 2.06355064
7193, 35.6833002, -23.2635866, 4.28827342
7194, 33.8914196, -18.143447, 8.89979971
7195, 34.2026166, -18.3303892, 8.89963366
7196, 34.1683652, -17.9895327, 8.89988379
7197, 10.00346, -16.9883802, 1.20468547
7198, 39.2473054, -3.90264985, 0.188484399
7199, 38.3497787, -3.85482392, -1.26335549
7200, 38.3326262, -4.52216356, -2.08707701
7201, 38.8293292, -4.0487043, -2.9873918
7202, 38.3005897, 3.32656958, 3.05386047
7203, 38.3027635, 4.26764476, 3.58135662
7204, 36.9358483, 4.32653811, 3.28420515
7205, 36.92116, 5.32626401, 3.71304697
7206, 37.7150705, 3.50028137, 4.80781734
7207, 17.2639151, -21.0727957, -1.61219489
7208, 16.2354594, -21.73976, -1.10089734
7209, 17.8946748, -21.3954276, -0.79504772
7210, 17.3703831, -20.4556907, -0.549230645
7211, 16.3356533, -21.1229189, -0.0259990941
7212, 15.6896849, -20.8010409, -0.861772954
7213, 20.0292037, -19.5959711, 3.57921663
7214, 34.2158953, -17.4490861, 8.90007346
7215, 33.9252193, -17.5222361, 8.90003087
7216, 34.1671253, -17.6782669, 8.89998599
7217, 22.7201077, -16.9624131, -1.36750838
7218, 22.3024102, -17.0023738, -1.0846651
7219, 22.4947116, -17.2946818, -1.27497365
7220, 13.0618379, -19.1206697, 0.913902828
7221, 35.9875823, 4.19227348, 7.82624506
7222, 36.9946003, 3.57420054, 7.389388
7223, 35.9968755, 4.76969915, 7.66321679
7224, 36.1895295, 4.43984792, 3.38626195
7225, 36.1905582, 3.24570978, 4.68812176
7226, 33.9639768, -23.2028227, 4.52637801
7227, 32.7119302, -22.7581293, 4.51997391
7228, 33.6813947, -22.3791613, 1.94951717
7229, 34.1641105, -18.8809825, -9.02882326
7230, 34.2707468, -18.6132494, -9.0288549
7231, 34.428483, -18.9078078, -9.02867103
7232, 35.1229774, 5.19180775, -4.67447669
7233, 35.1185546, 5.61929624, -5.0647336
7234, 35.1219274, 5.15860342, -5.33583583
7235, 17.5293644, -21.0512293, 2.44967335
7236, 16.1724526, -21.7049677, 2.70488504
7237, 39.8464025, 2.77680154, 7.01302881
7238, 39.8410203, 0.427373092, 7.51512737
7239, 39.9707959, 4.46691751, 0.477754785
7240, 40.0752577, 4.49463578, 0.00477312512
7241, 39.7309185, 4.4437011, 0.115522025
7242, 12.3572916, -18.0089453, 2.49794233
7243, 12.6528387, -17.5899082, 1.84436877
7244, 11.7504443, -19.1071806, 1.76401829
7245, 12.7119035, -19.1001813, 1.38335142
7246, 33.3818394, -19.6078552, 8.83307924
7247, 35.9526704, -15.2690802, 8.78821027
7248, 35.6963598, -15.0977932, 8.78832575
7249, 40.0951031, 2.84955546, -6.78202197
7250, 40.071388, 0.533951472, -7.37245783
7251, 39.0885833, 2.82355107, -6.83910082
7252, 38.9265316, -2.66783793, -7.06639281
7253, 38.8681424, -0.306788572, -7.59072309
7254, 39.8632354, -0.269775403, -7.53477851
7255, 39.9895808, -7.48683038, 1.261913
7256, 39.0533529, 2.57296722, -6.50080921
7257, 38.9758134, 2.41179437, -5.3281318
7258, 37.9263731, 1.82092065, -6.1315198
7259, 17.6460256, -21.3230544, 0.470547117
7260, 39.9939016, -4.42847722, 0.352073423
7261, 40.0654198, -4.49623709, -0.151041571
7262, 39.716517, -4.39710697, 0.0617828338
7263, 15.0202911, -24.3788906, -2.50427315
7264, 15.5560002, -24.3742438, -2.35171145
7265, 15.082649, -24.3767954, -2.11336367
7266, 14.882209, -24.2492905, -0.69682982
7267, 15.2074454, -24.2502933, -0.80452178
7268, 15.1185156, -24.2484405, -0.4006574
7269, 34.7872551, -16.3346164, -9.00871357
7270, 34.4710427, -16.1991935, -9.0086926
7271, 34.7785608, -16.0032393, -9.00882661
7272, 32.8294608, -18.7398544, -9.05154804
7273, 33.1093754, -18.6057031, -9.05140006
7274, 33.0918931, -18.8925199, -9.05144182
7275, 15.910833, -19.9492578, -2.29046222
7276, 17.5860247, -19.5849116, -2.02170517
7277, 15.9056691, -19.3052601, -1.28356619
7278, 33.6051622, -19.5526548, -8.85756857
7279, 33.7967538, -19.4423311, -8.85730437
7280, 33.8030294, -19.6712317, -8.85750922
7281, 40.0029558, 1.52243997, -5.65085401
7282, 32.835322, -18.4648947, 8.87256447
7283, 20.5775358, -22.7430361, -4.69928071
7284, 21.6661817, -23.3160718, -3.35153158
7285, 34.5103531, -18.1124905, -9.02895045
7286, 36.795675, -3.03535678, 3.01910959
7287, 36.0670604, -3.15203273, 3.15554521
7288, 36.2865075, -4.41121734, 3.11620558
7289, 36.2813742, -3.21919115, 4.43428117
7290, 37.0164642, -4.27800069, 2.99635098
7291, 33.3498359, -18.7663792, 8.87249538
7292, 14.3542939, -24.5290669, 2.06000327
7293, 14.7203692, -24.5248298, 2.02266109
7294, 15.0500792, -23.8045548, 1.93071396
7295, 11.1246566, -20.7762016, 4.39487992
7296, 10.5659509, -20.7782962, 4.17989371
7297, 11.2605145, -20.7692374, 3.85620402
7298, 16.9501243, -22.3285092, 2.62259114
7299, 35.4452181, 5.28417685, 3.7908616
7300, 35.3971232, -17.3354055, 1.01860865
7301, 35.3965698, -16.9892803, 0.0350538648
7302, 33.3335279, -18.6799072, -0.0699988914
7303, 37.9987676, 3.23741121, 1.64180384
7304, 39.4761277, 3.25764587, 2.20137337
7305, 39.7142275, 3.29375717, 3.57673747
7306, 38.7659264, 2.43608492, 3.22577529
7307, 39.1192908, -2.8942471, -6.77593438
7308, 39.526184, -3.78982707, -6.4258878
7309, 38.616562, -1.70285283, -6.69532145
7310, 38.0548105, -3.48747295, -6.63594334
7311, 14.6679582, -17.2816518, 6.9785563
7312, 17.0295854, -17.292272, 7.4712817
7313, 14.6827005, -18.2474653, 6.95073556
7314, 17.0254408, -18.2715387, 7.48588311
7315, 18.8376215, -19.2236846, -4.77856831
7316, 19.0658768, -19.0889556, -5.11173963
7317, 18.7418897, -18.8006662, -4.7436171
7318, 36.0564102, -2.89780094, -2.89946219
7319, 36.2010546, -4.2482537, -2.93801949
7320, 36.1896832, -3.0728849, -4.23187329
7321, 37.2506081, -2.77216064, -4.09692755
7322, 37.3993342, -4.19078383, -4.10320814
7323, 20.3167942, -19.5725606, -2.22885383
7324, 19.1421887, -19.0041672, -3.55994999
7325, 18.8914006, -19.5906186, -1.95822951
7326, 35.7577188, -6.92569633, 3.41686995
7327, 35.9961443, -5.95159873, 2.50003191
7328, 34.2908841, -6.9170757, 3.52342588
7329, 35.2640646, -6.170583, 4.37601956
7330, 35.533953, -5.26858928, 3.53197617
7331, 37.0279322, -5.29991507, 3.4642497
7332, 35.1723891, -5.35411123, -4.48018635
7333, 35.1779103, -4.63299628, -5.57840373
7334, 35.1687188, -5.97402019, -5.58369912
7335, 18.9077087, -23.900299, 0.627615604
7336, 18.9423762, -22.8794083, 0.250227241
7337, 18.6858658, -23.9775585, -0.494965452
7338, 17.7861853, -23.2987101, -0.576314213
7339, 34.5150776, -14.3960335, 6.03331243
7340, 34.4546337, -14.6604972, 8.40783417
7341, 34.5161923, -14.3889509, 8.40796542
7342, 33.1139893, -18.3351631, 8.8724767
7343, 32.9022009, -18.2289687, 8.87244152
7344, 12.0057492, -19.1209529, -1.71990498
7345, 12.262671, -18.7857203, -1.66541661
7346, 12.3983713, -17.9898544, -2.83715944
7347, 34.4526149, -14.6663769, 6.03297531
7348, 21.9249767, -17.0010703, 0.345078804
7349, 21.902335, -17.2862826, 0.050701722
7350, 22.0017055, -16.958679, -0.181278015
7351, 27.8123231, -24.0507227, -0.390863285
7352, 36.4608817, -22.1477869, 4.15515652
7353, 37.2935242, 2.21130333, 3.17489199
7354, 37.3617311, 2.05827386, 1.94719866
7355, 20.0095167, -23.9026494, -3.45029669
7356, 21.1100397, -24.3870775, -2.01447132
7357, 19.6774017, -23.993663, -1.67744022
7358, 36.135956, -1.78184525, 3.04695083
7359, 36.1332414, -2.92281242, 1.78375772
7360, 36.8757959, -2.76623276, 1.64174923
7361, 35.0433471, -7.83345204, 3.11919799
7362, 35.2616822, -6.89871624, 2.39115878
7363, 36.2082901, -15.7138377, 8.78788157
7364, 36.1756395, -15.4713605, 8.78804601
7365, 14.5170144, -16.9990841, 6.64451158
7366, 40.1018801, -2.90688532, -6.71750364
7367, 38.2648576, 4.58910452, -1.98844821
7368, 38.2814256, 3.92026176, -1.18374985
7369, 38.7195045, 4.01451839, -2.79876913
7370, 20.323087, -16.9432203, -6.82157796
7371, 35.2560497, -5.71274902, 5.76033046
7372, 35.2663112, -4.45562927, 5.72327044
7373, 35.2633124, -5.07271496, 4.76722707
7374, 34.2781351, -6.72162133, -3.57171325
7375, 35.0546024, -6.14304655, -3.58511421
7376, 35.2663418, -6.58416247, -2.43641901
7377, 34.2753066, -7.89815159, -3.15312745
7378, 34.9992425, -7.3505012, -3.22165139
7379, 15.6676248, -24.6323733, -4.07839526
7380, 37.9986826, -1.25400618, -4.72436001
7381, 39.5021451, 4.85593805, 1.85313659
7382, 34.8814447, -16.9957514, -8.95615439
7383, 35.1180245, -17.1820196, -8.95612469
7384, 34.8797615, -17.3340777, -8.95605284
7385, 18.1262161, -22.5927549, -2.2105014
7386, 18.8107442, -21.9941995, -2.38877768
7387, 33.9052389, -17.8418064, 8.89995017
7388, 15.3679519, -21.7225805, -0.431084588
7389, 15.4018462, -22.2259793, -0.0712420321
7390, 14.6224452, -22.4413556, -0.436669924
7391, 14.6549642, -22.9416448, -0.0730721822
7392, 16.1105506, -22.7821457, -0.271403425
7393, 36.4863639, -15.589443, 8.78789705
7394, 34.4242388, -18.1267783, 8.89976384
7395, 20.6305643, -19.519537, 8.89107245
7396, 14.3431277, -24.5266986, 1.72395294
7397, 38.9761672, 2.12090945, -4.55672486
7398, 37.9692826, 2.58048926, -1.71330023
7399, 37.2536571, 2.71693956, -2.15176894
7400, 38.4434639, 2.52558789, -3.26511216
7401, 17.6644702, -20.7007536, -2.5611941
7402, 18.2401698, -20.1172272, -2.44189296
7403, 15.9590235, -21.0199562, -2.9010263
7404, 16.5378847, -20.4534126, -2.71790424
7405, 38.8967607, -2.15813843, 6.98488745
7406, 39.4796338, -2.10952259, 6.93944067
7407, 39.2041541, -2.1178514, 6.65819455
7408, 38.5499718, -3.63092593, 1.13722007
7409, 18.2301078, -21.4973359, -2.43800986
7410, 16.5446553, -21.8344305, -2.72154666
7411, 30.6680272, -19.1008117, 8.42640537
7412, 31.0252967, -18.9202115, 8.4262682
7413, 31.6754406, -19.3852448, 7.46640391
7414, 38.9901345, -2.12405801, -4.57560154
7415, 39.9516534, -1.74834903, -5.14254255
7416, 33.6680185, -18.6546347, 8.87214889
7417, 33.3566722, -18.4674656, 8.87244137
7418, 15.4631024, -24.2751778, 0.842651811
7419, 15.7465421, -24.2757859, 1.15317174
7420, 17.4070108, -19.495393, 3.16591343
7421, 17.9891676, -19.5216339, 2.09482732
7422, 16.6139872, -19.3098888, 1.63510302
7423, 32.4380507, -18.5116015, -8.98449509
7424, 32.4525615, -18.8119162, -8.98457979
7425, 32.2272485, -18.643826, -8.98458402
7426, 15.4371597, -17.2806951, -6.27663947
7427, 15.439942, -16.9979574, -5.94215904
7428, 16.4320489, -24.5440555, -3.50448424
7429, 16.2178233, -24.546867, -3.39290261
7430, 16.4180128, -24.5422619, -3.17432735
7431, 12.9753324, -17.2777876, 0.622291619
7432, 12.8108025, -16.9899005, 0.808770901
7433, 13.0227416, -17.005707, 0.444120525
7434, 16.2504863, -22.4210256, 2.66786528
7435, 34.2764387, 5.7834944, 3.58986441
7436, 35.1583531, 5.05602876, 5.58304227
7437, 30.3862718, -21.8143221, 3.24124956
7438, 31.1645894, -23.0879993, 2.78863874
7439, 31.3503038, -21.4347576, 0.675654107
7440, 23.1788498, -17.9909293, 2.95910412
7441, 22.1506279, -18.0125082, 2.52229872
7442, 21.2811388, -17.251449, 4.06448182
7443, 17.4974475, -17.5251357, 7.6340219
7444, 17.4998605, -18.9763814, 7.6084241
7445, 17.7872226, -18.2787034, 7.54733814
7446, 33.3737907, -17.3905471, 8.92476324
7447, 33.5413205, -17.1033553, 8.92480869
7448, 33.2564343, -17.1106459, 8.92478862
7449, 37.034324, -2.86468594, 4.07843752
7450, 37.0243621, -3.46339456, 4.94296551
7451, 16.5874536, -23.9847279, 3.2956665
7452, 17.0397983, -24.5328794, 3.2185823
7453, 16.1269006, -24.2778481, 2.23884579
7454, 39.9404248, 3.57338695, 0.630984754
7455, 40.1017214, 4.68129819, 0.78648259
7456, 36.1539623, 3.24156432, -4.40479357
7457, 36.1490134, 4.41421671, -3.10386206
7458, 36.037375, 2.87892287, -2.88664757
7459, 37.2008289, 2.66787778, -4.01075784
7460, 37.3526998, 4.29536208, -4.16425012
7461, 37.9966993, 1.79415809, 3.01821515
7462, 36.8596961, 1.45964992, 2.90384308
7463, 35.7057205, -6.12837073, -4.52205685
7464, 36.8828134, -5.23222415, -4.32672132
7465, 35.695355, -6.73701775, -5.62435101
7466, 16.7943354, -18.9890462, -3.19377966
7467, 21.870811, -20.477181, 5.26915283
7468, 23.6703321, -20.5113795, 3.71953316
7469, 22.9007345, -21.3376493, 3.49336524
7470, 21.5313452, -19.2680444, -1.90468989
7471, 22.036226, -18.7388066, -2.1755265
7472, 21.8367136, -18.6029626, -3.16579652
7473, 39.5787969, 3.93821698, 0.031498454
7474, 18.8203609, -21.8530995, -1.09435636
7475, 37.2478615, 1.54359788, -3.38072632
7476, 36.2454511, 2.69982145, -1.00007041
7477, 37.5236983, 1.31827461, -1.53724676
7478, 36.2599238, 1.51005347, -2.32402793
7479, 11.0344891, -18.8441251, 4.53388599
7480, 11.2573861, -19.1103109, 4.7393373
7481, 9.43314556, -18.7659715, 5.00164388
7482, 9.85076324, -19.2821672, 4.23224199
7483, 10.0276315, -19.5524731, 4.47637832
7484, 11.720589, -19.5981648, 3.90727216
7485, 12.1665993, -16.9923164, 1.48046603
7486, 12.7689717, -17.002456, 1.78044041
7487, 12.0345604, -17.5818504, 1.54398523
7488, 18.5644132, -21.7756345, 0.172591611
7489, 18.6790486, -20.6576677, -0.0566301682
7490, 19.044922, -21.7763189, 0.0324017305
7491, 21.5529562, -17.7670342, 0.806744573
7492, 35.6886783, -16.5139585, 0.0346463526
7493, 35.6866739, -15.574805, 0.836893041
7494, 35.6875899, -16.8620514, 1.01703334
7495, 33.5550082, -19.1970419, -9.05138882
7496, 33.3435866, -19.0413406, -9.05140227
7497, 33.661745, -18.9294357, -9.05123351
7498, 15.6409493, -24.3724224, 2.47698717
7499, 15.7605005, -24.3786816, 2.9569768
7500, 15.473019, -24.3801433, 2.90580148
7501, 33.6336494, -19.6801158, 8.83276429
7502, 20.7544964, -18.9731265, 1.73225372
7503, 19.9229655, -18.2305456, 3.23608285
7504, 19.9406061, -19.8245745, 2.26471677
7505, 38.3805318, -5.76430694, 1.77781737
7506, 37.8295559, -5.60111906, 1.762515
7507, 33.868023, -19.581048, 8.83262306
7508, 35.9286652, -19.3875577, -1.04655838
7509, 38.2806731, -1.68814125, 4.18916583
7510, 38.2857401, -2.31596663, 5.03344436
7511, 37.8007002, -3.41913975, 4.45572136
7512, 19.7668196, -20.0533643, 0.349200367
7513, 19.998696, -20.0549228, 1.4111947
7514, 19.752474, -20.9672434, 0.757151757
7515, 39.9082389, -4.80905383, 1.62775878
7516, 39.9387794, -3.53028694, 1.43055185
7517, 39.9991697, -4.4589554, 1.22658165
7518, 19.6039602, -17.4978052, 6.96487601
7519, 19.6186478, -17.8049888, 6.69275153
7520, 19.9812713, -21.0189331, -0.523323496
7521, 19.8770409, -22.1334244, -0.279009689
7522, 20.1222418, -22.0571339, 0.830414739
7523, 35.3978388, -17.3123334, -0.979101934
7524, 33.5371104, -19.8883739, 8.83279441
7525, 35.0502192, 3.07035861, 4.16959348
7526, 35.0456079, 2.34471789, 3.62488502
7527, 35.02903, 3.51562955, 2.31199872
7528, 35.0608604, 4.20301172, 2.88064292
7529, 32.0133977, -21.0064235, -8.74541837
7530, 38.4364247, -2.95755798, 6.53255776
7531, 38.7287869, -2.93465338, 6.22141392
7532, 38.023553, -3.54622756, 6.02001231
7533, 38.2220924, -1.78898504, 5.61647186
7534, 37.925503, -1.79614656, 5.89134379
7535, 26.8116536, -24.0532221, 0.478965784
7536, 26.6564737, -24.1978565, -0.548197376
7537, 39.9631865, -1.52232079, -5.62139721
7538, 22.1790212, -17.3007798, -0.888129979
7539, 21.9636496, -18.026345, -1.19378393
7540, 22.0966634, -17.7140471, -1.40709618
7541, 21.8509446, -17.2681694, -1.69907647
7542, 15.3169689, -24.3776643, -2.74657369
7543, 15.4987523, -24.3781143, -2.96483906
7544, 15.7018458, -24.3758611, -2.74651784
7545, 37.895511, 4.97035883, -1.5109611
7546, 39.7448417, 3.77358927, 4.16256952
7547, 38.9810251, 5.64807014, 3.08108255
7548, 38.4236934, 4.97006696, 4.33258626
7549, 34.0374398, -19.5723685, -8.85709046
7550, 34.0108037, -19.3232776, -8.85700671
7551, 34.2750949, -19.3501801, -8.85675414
7552, 35.0580095, 3.38935901, -2.08226461
7553, 35.0238601, 2.21893134, -3.40295645
7554, 35.2494982, 2.03122872, -1.53785449
7555, 14.9870752, -24.2487062, 3.40772305
7556, 15.2391498, -24.3214992, 3.43628436
7557, 15.1797791, -24.1236037, 3.6120576
7558, 34.1436371, -7.63585656, 3.33989682
7559, 35.0306674, -7.49041361, 2.27434191
7560, 13.647811, -21.2484873, 1.82240264
7561, 13.3871461, -20.4993142, 2.16034585
7562, 14.5423129, -21.6809794, 2.22940913
7563, 14.5660846, -20.6700156, 1.62058948
7564, 14.7460521, -21.4209113, 1.23188645
7565, 16.9370543, -18.9885636, 3.35377074
7566, 18.2087287, -16.8569384, -4.58021726
7567, 18.0754246, -17.2961897, -4.50572891
7568, 35.1614426, -1.50666577, -0.931693376
7569, 35.1597905, -0.736625229, -1.21586328
7570, 35.1194475, -0.709039616, 0.358687737
7571, 36.2994719, -1.53060914, 0.086358713
7572, 35.1189997, -1.49201456, 0.661120634
7573, 16.0941365, -24.2090004, -1.39705901
7574, 16.2645287, -24.2099003, -1.92632813
7575, 16.6330878, -24.2075888, -1.50484328
7576, 17.2758197, -24.2058209, -1.60712425
7577, 16.8317318, -24.209231, -2.12322122
7578, 17.5491367, -24.2084341, -2.27261557
7579, 35.6984912, -16.831428, -3.36084506
7580, 35.6901621, -15.4088591, -3.08364317
7581, 35.7045398, -16.2118837, -4.38198689
7582, 14.8132931, -22.1322727, 0.904886698
7583, 15.5286247, -22.6843353, 0.70155133
7584, 20.6809254, -21.061772, -3.26259887
7585, 37.2956154, -2.192706, 3.17758034
7586, 37.9774823, -3.23000421, 1.64887211
7587, 37.5457651, -3.44507197, 3.11403025
7588, 15.8412837, -18.9917343, -3.56931341
7589, 15.0442307, -19.973459, -3.14975382
7590, 14.776966, -20.4722646, -4.02088904
7591, 15.5641107, -20.4477012, -3.20238705
7592, 14.7799669, -21.4552225, -2.76366312
7593, 14.5295224, -17.046905, -2.44275901
7594, 14.2630168, -17.7471848, -1.99072745
7595, 13.6531642, -17.2740173, -2.52742152
7596, 14.4623622, -17.2671432, -4.02030205
7597, 14.1712793, -17.9754769, -3.57857465
7598, 15.0571244, -17.7436753, -3.49073197
7599, 39.9469796, -3.55688923, 0.577770736
7600, 19.3002542, -17.8030489, 7.34786702
7601, 11.4587081, -17.007224, -1.63600887
7602, 39.9983553, 2.9784475, 6.64098921
7603, 12.9158162, -20.3324813, 4.38228089
7604, 38.0396378, -1.65644272, -3.60622621
7605, 37.4290728, -1.41611283, -2.06008873
7606, 36.9198156, -1.77170133, -2.97558595
7607, 37.9863089, -2.90603615, -4.23850269
7608, 38.4871756, -2.61768894, -3.35979251
7609, 15.2233803, -24.247476, -0.034945256
7610, 14.9165008, -24.2461751, 0.394588269
7611, 15.6095666, -23.5250442, 0.60472104
7612, 17.4226876, -24.318514, -0.734100193
7613, 23.5609732, -17.0241524, -1.65127237
7614, 35.6092464, -16.2069608, -8.84251188
7615, 35.275117, -16.3377802, -8.8423769
7616, 35.2663965, -16.0065145, -8.84254146
7617, 20.0332193, -20.0945818, -0.97680067
7618, 32.247137, -18.469326, -8.98453463
7619, 38.8650859, -3.48733056, -1.31493218
7620, 38.0063624, -3.29415344, -0.567121775
7621, 38.4839959, -3.47323893, -2.36350199
7622, 37.9796918, -2.61311705, -1.75420007
7623, 26.6365622, -21.4393784, -3.25301989
7624, 28.7582302, -23.2877112, -3.16933012
7625, 28.3884566, -21.812361, -1.80081999
7626, 39.7065063, 1.799156, 5.78653097
7627, 38.2308634, 1.80376505, 5.65185368
7628, 38.9903055, 2.39011116, 5.68719586
7629, 39.7213772, 2.3919474, 5.20534974
7630, 38.2732402, 2.35769434, 5.07671062
7631, 38.9714922, 1.80037513, 5.20610419
7632, 37.0315277, 2.49277777, -0.518969358
7633, 13.9303306, -24.6523654, -1.28503057
7634, 13.9531086, -24.65565, -1.56383832
7635, 13.8618644, -24.1844716, -1.91563702
7636, 34.787676, 6.24355439, -4.34537513
7637, 34.7842612, 6.67447135, -4.73469263
7638, 35.9200661, 5.85271212, -4.28128125
7639, 21.0546526, -17.0513082, 0.576657223
7640, 35.1621291, 4.35977978, 4.40518498
7641, 16.0027714, -24.2764159, 1.76591714
7642, 14.735303, -21.4141094, -1.25641938
7643, 15.4839231, -22.4643576, -1.10332709
7644, 19.8588682, -24.5865051, -3.33428033
7645, 18.9371919, -23.5441017, -2.47628006
7646, 14.21384, -20.4832639, -6.00304418
7647, 14.4224885, -20.4914164, -6.53848829
7648, 14.6437273, -20.498092, -5.95194684
7649, 17.1856524, -22.1481814, -1.91745319
7650, 19.515629, -17.7639116, -5.68767163
7651, 19.5144761, -18.2827967, -5.65794843
7652, 19.2706011, -18.026373, -5.26989149
7653, 11.7009981, -20.4513009, -4.16436166
7654, 11.4492261, -20.4503096, -4.53056289
7655, 12.0515155, -20.4511092, -4.47835461
7656, 37.718936, 7.12222004, 3.60520363
7657, 35.9839544, 7.551921, 4.59084295
7658, 36.9812901, 7.94631891, 3.27567649
7659, 14.5624006, -20.884354, -8.59759297
7660, 15.0473917, -20.8876425, -8.73464664
7661, 15.433735, -19.8830061, -8.59543766
7662, 16.0299299, -20.4604811, -8.3964572
7663, 15.5093185, -20.4685921, -8.23995974
7664, 39.7423388, 0.317607904, -7.56160806
7665, 40.0832793, 0.135345195, -7.60411982
7666, 20.3906022, -18.8572057, -3.52549708
7667, 20.6767993, -19.3726609, -4.39857204
7668, 34.2800108, 0.796884966, -2.29679232
7669, 35.2850477, 0.873386327, -3.66647999
7670, 35.0301679, 1.65183608, -2.70049756
7671, 35.242335, 1.45851961, -0.862942829
7672, 35.5167479, 0.663290067, -1.89445144
7673, 32.2265719, -19.5549501, -8.69881405
7674, 32.2719386, -19.307773, -8.69845102
7675, 32.4971393, -19.4758848, -8.69852631
7676, 37.9526438, -1.80885039, 2.95978137
7677, 34.2787947, -5.83526138, 3.88633381
7678, 37.3880082, -1.83071805, 1.76858205
7679, 18.3616528, -23.9785447, -1.02615848
7680, 18.6461882, -23.9791591, -1.68540358
7681, 17.6350977, -23.184841, -1.44813588
7682, 20.9626168, -19.564009, -1.13199548
7683, 20.817906, -18.9976632, -0.600776906
7684, 19.7165522, -19.5791598, -1.01938372
7685, 34.4521989, -17.5230795, 8.90006184
7686, 14.7390995, -23.1278435, 1.33673684
7687, 14.9028434, -22.9716277, 0.807853766
7688, 14.8310405, -23.5805544, 1.12612379
7689, 16.5301693, -19.0017222, 7.80702971
7690, 16.2458182, -18.7541701, 8.6508327
7691, 15.3102713, -19.2804723, 8.38840323
7692, 15.6103076, -19.2680367, 8.44961389
7693, 16.5750032, -18.7486572, 8.68445319
7694, 15.7940624, -24.2116273, -1.68867311
7695, 15.8358883, -23.590841, -2.46181843
7696, 36.8713708, 5.94938128, -3.46756104
7697, 36.1464036, 5.39911128, -3.52716687
7698, 36.8994905, 4.88262969, -3.40311084
7699, 32.8439901, -19.0401593, -9.05158618
7700, 21.4811858, -21.271842, -3.75964962
7701, 11.6274585, -20.9985173, 2.92051671
7702, 10.7459075, -20.7690675, 3.6024892
7703, 11.350495, -20.2707541, 3.00820912
7704, 16.215459, -19.6004668, -3.23296511
7705, 14.4801825, -24.5281138, 2.28140277
7706, 35.5458388, -15.8504694, -8.84266906
7707, 14.693584, -23.9064454, -2.64455272
7708, 14.8238642, -23.7655816, -1.33557329
7709, 15.2482431, -23.6272688, -1.58554061
7710, 36.5553579, 6.99040888, -3.09053922
7711, 35.8074653, 6.44501751, -3.20622648
7712, 14.1768053, -24.5847174, -0.642292158
7713, 14.4187354, -24.5737369, -0.34873785
7714, 14.6511479, -23.837232, -0.230942858
7715, 34.2863446, -7.99395536, 2.99962194
7716, 35.2361101, -7.80765946, 1.82275751
7717, 35.0965235, 2.2375262, 2.42574281
7718, 14.6056526, -23.5549197, 0.250544982
7719, 32.4870439, -19.8082746, -8.69897826
7720, 32.802441, -19.8624104, -8.69864455
7721, 32.8333565, -20.1130992, -8.69912285
7722, 17.7877099, -22.5044148, -0.571748936
7723, 17.0301685, -22.8331014, -2.79087787
7724, 16.7069368, -22.7389728, -1.14978346
7725, 35.0591767, -3.66489525, -2.33748458
7726, 35.0316357, -2.46920411, -3.66943637
7727, 35.1760769, -2.43470115, -2.32292562
7728, 36.1741402, -1.66438662, -2.85059513
7729, 15.1542764, -24.374849, 2.27368208
7730, 15.2466524, -24.3768758, 2.69484842
7731, 14.9154725, -24.3781474, 2.53313716
7732, 37.7730856, -8.19765704, 3.11998219
7733, 37.7567109, -8.83470557, 0.849484189
7734, 15.2469399, -24.3218228, -3.44494723
7735, 14.9948561, -24.2480586, -3.41521079
7736, 15.1887136, -24.1287209, -3.61833733
7737, 32.4840492, -18.0515727, -8.9843859
7738, 32.5064543, -18.2739998, -8.98442571
7739, 32.2774941, -18.270194, -8.98446973
7740, 10.785951, -20.8877701, -6.00693672
7741, 10.4552228, -20.8851969, -5.60854628
7742, 10.9193463, -20.473139, -4.61795258
7743, 10.8389395, -19.8650247, -5.26269612
7744, 11.2593083, -20.4643765, -4.99834317
7745, 37.9478172, 2.79684718, -4.14621066
7746, 37.979198, 3.14221169, -5.16746576
7747, 39.4072622, 3.33651094, -4.89207428
7748, 20.833808, -20.3770042, -4.62989801
7749, 11.4565145, -19.1027413, 4.97085943
7750, 10.3352149, -19.0159835, 3.63429881
7751, 12.2163767, -19.2962033, 3.31365928
7752, 10.9624483, -19.7688728, 3.06440041
7753, 22.2831422, -18.039635, -1.57612518
7754, 22.1755683, -17.2693767, -2.740071
7755, 21.2784807, -18.7328129, -1.34767152
7756, 20.9725434, -18.2521399, -1.3620539
7757, 36.0129684, 0.00411044405, -3.48762386
7758, 35.4425111, -0.774521565, -2.38650871
7759, 36.9086016, -0.777142424, -2.50413525
7760, 37.0031903, 0.67282257, -1.9966923
7761, 36.4095757, -0.101823461, -0.979461423
7762, 14.0508682, -20.9064058, -8.32265389
7763, 14.7205754, -19.9177154, -7.77752431
7764, 14.875908, -20.5136922, -7.38042338
7765, 14.3787402, -20.4971443, -7.10097481
7766, 34.2798455, 0.0423753918, -2.15701221
7767, 35.242354, 0.709171609, -0.690538127
7768, 15.9537278, -23.4610384, -1.15863442
7769, 15.3534149, -22.6014492, -2.40608192
7770, 16.071634, -22.4273899, -1.97376797
7771, 35.0697124, -2.13229629, -8.04452294
7772, 35.2889253, -2.26850952, -7.06686663
7773, 34.2986484, -2.59188063, -7.5547927
7774, 34.2741056, -3.65360363, -6.72555059
7775, 35.0112326, -3.39136531, -7.20512377
7776, 13.0423673, -20.3311818, 3.92096365
7777, 12.533684, -20.3325299, 4.06446484
7778, 12.6200558, -19.8224056, 3.23470336
7779, 34.2788506, -0.894983533, -2.69670465
7780, 34.1468592, -1.57739259, -2.88476697
7781, 35.282317, -1.48103303, -2.55280912
7782, 35.1588604, -1.66471279, -1.79941291
7783, 18.882164, -19.7812925, -3.24850074
7784, 34.2893801, -3.54467382, 6.20665873
7785, 35.2715478, -2.5065146, 5.98576749
7786, 36.2873439, -3.4912485, 5.47833812
7787, 35.5134036, -3.55796159, 4.89909814
7788, 36.9442494, -4.70378199, -3.26530377
7789, 13.9117648, -17.0493773, 0.635735771
7790, 35.2649272, -15.6781554, -8.84267637
7791, 35.2540793, -15.4099532, -8.84274573
7792, 20.666659, -21.8594089, -3.27454529
7793, 34.2366145, -18.2723675, -9.02891779
7794, 14.4446816, -24.0879288, -1.05446873
7795, 14.1271764, -24.0902248, -0.946216261
7796, 14.5876403, -23.339461, -0.523115701
7797, 14.0469961, -23.6154521, -1.57708592
7798, 18.2357078, -19.6055676, -0.686238053
7799, 16.6181621, -19.3368583, 0.108713854
7800, 34.1441209, -21.5864436, -2.57668678
7801, 32.8941019, -21.1384034, -2.57129803
7802, 34.9346313, -21.1390598, -2.57469638
7803, 39.455489, -3.44842601, -5.01282716
7804, 37.9904679, -3.24283204, -5.26072988
7805, 16.0262301, -24.213116, -2.31708026
7806, 16.4121228, -24.2097599, -2.31659597
7807, 20.456708, -23.2496208, 4.54556732
7808, 21.7674014, -22.8848398, 3.3772108
7809, 20.4087056, -23.4271594, 2.91632597
7810, 19.5495566, -22.5298968, 3.33771876
7811, 20.8684664, -22.1074152, 2.18281082
7812, 20.9217816, -21.9859735, 3.82288276
7813, 14.5854858, -24.5247445, -2.24605166
7814, 13.6193886, -17.3009934, -0.498015223
7815, 13.6070678, -17.0187539, -0.219267824
7816, 36.5596523, -15.6773706, -8.84971054
7817, 36.8800267, -15.3379208, -8.84975802
7818, 36.9106856, -15.763822, -8.84951572
7819, 38.7836825, 3.55156568, -1.23436494
7820, 39.2971823, 3.29791663, -1.86146212
7821, 38.9720289, 3.0673637, -2.87835013
7822, 38.4764226, 3.37181951, -2.28296233
7823, 19.2857688, -23.9805762, -0.166827477
7824, 19.5062532, -23.9023287, 0.969152857
7825, 19.0981112, -23.9775502, -0.957994885
7826, 14.890603, -21.313547, 0.176831029
7827, 14.8547921, -20.8028771, -0.18805115
7828, 20.4276558, -22.8969394, 1.55750702
7829, 19.1259089, -23.3062565, 2.73870436
7830, 19.5690979, -22.0202102, 2.00965742
7831, 18.0371853, -16.9421164, -7.44684967
7832, 33.6512096, -18.0250365, -9.04188252
7833, 33.3895841, -17.8730451, -9.04192583
7834, 33.6500318, -17.7129964, -9.04191024
7835, 35.1163915, -1.02864748, 1.52139022
7836, 36.9784543, -13.5168013, 8.12822634
7837, 35.9947752, -11.8379951, 6.44671479
7838, 34.9778754, -11.8310887, 7.82177626
7839, 36.9761876, -12.3574885, 8.53943724
7840, 35.9910988, -10.6932447, 6.85485257
7841, 21.2533256, -23.9248066, -3.81363988
7842, 13.6069952, -24.5340398, 1.51267646
7843, 13.9375303, -24.531798, 1.61200641
7844, 13.9327053, -24.5262867, 1.27520135
7845, 18.0382201, -23.6096681, -2.98906536
7846, 14.0743814, -19.2868853, 4.80467143
7847, 13.830828, -24.0626802, 1.9359633
7848, 39.9107926, -5.35021489, 2.31153319
7849, 39.9057272, -5.39264029, 1.57883648
7850, 35.5418865, -14.1229028, 8.40951679
7851, 36.5630201, -14.1228645, 7.03677462
7852, 37.0678383, -14.4024627, 7.41498118
7853, 35.6297002, -15.0130899, 7.6962651
7854, 36.0461642, -14.4057191, 8.7888835
7855, 35.1699095, -3.86060885, -3.66707117
7856, 33.3706681, -18.1659204, 8.8722154
7857, 38.9863245, -5.65523428, 2.99241243
7858, 39.0085049, -4.64596503, 2.50957316
7859, 38.5061911, -4.94131433, 3.97597346
7860, 33.3503436, -18.7421528, -9.05130981
7861, 39.955127, -2.37195169, -3.25230521
7862, 39.9512027, -2.98158412, -2.45007068
7863, 38.9961431, -3.16409711, -2.964556
7864, 39.4580945, -3.7601725, -3.48439414
7865, 39.4433528, -3.11864577, -4.28304337
7866, 38.772381, -2.35571379, 3.20081733
7867, 35.5525895, -17.1049722, 1.01689831
7868, 35.5535068, -16.7582347, 0.0348461504
7869, 39.0678898, -4.75886137, -1.53665616
7870, 39.8188318, -4.62737512, -2.71104984
7871, 34.4044733, -17.6920941, -2.50262684
7872, 37.0225606, -18.3941497, -3.50777485
7873, 34.9328351, -19.775353, -2.57095967
7874, 26.391462, -19.2426599, -1.11150273
7875, 26.4183756, -20.0550105, -0.657177362
7876, 26.133957, -20.1573147, -1.64686649
7877, 38.0002702, 3.2968415, -0.570233639
7878, 15.5360472, -20.5249861, 3.9379052
7879, 15.6353219, -21.5118786, 3.87548781
7880, 15.2085005, -21.6806365, 2.88676868
7881, 33.1008677, -19.1766652, -9.05151162
7882, 33.1492823, -19.4267018, -9.05159891
7883, 32.8342015, -19.3727075, -9.05173473
7884, 20.47202, -21.2659686, 1.50118378
7885, 19.203198, -20.8966908, 1.9251593
7886, 36.8713456, -1.30523024, 2.75560122
7887, 31.5341882, -24.5143941, -2.69909419
7888, 32.7117339, -22.7694989, -4.52364242
7889, 30.77067, -23.3165936, -3.13982618
7890, 31.7474653, -22.8893311, -0.689221719
7891, 33.6869741, -22.3832106, -2.08837735
7892, 12.9232907, -17.72389, -1.43301253
7893, 13.0598021, -18.0175664, -1.20034655
7894, 13.174267, -17.281258, -1.69886872
7895, 35.8351038, -18.3083931, -6.27706095
7896, 35.8359409, -18.3064299, -8.52498068
7897, 36.0691164, -17.9923004, -6.27567886
7898, 30.296175, -20.6977419, 8.25584748
7899, 39.7519202, 4.69652294, -2.62442527
7900, 39.1457506, 4.81787992, -1.46651138
7901, 15.1849466, -24.3811512, 3.10987265
7902, 33.3408517, -19.3162206, -9.05149313
7903, 18.8577409, -16.8538133, -5.30830787
7904, 19.048506, -17.0242192, -5.62483401
7905, 36.0701769, -17.991269, -8.52534279
7906, 39.3548277, -3.22496358, -1.94430044
7907, 38.8696258, -2.76385601, -2.42433721
7908, 35.1981633, -22.1503969, -0.068961254
7909, 35.0170956, -22.3157778, -0.0684135402
7910, 36.1680004, -23.3575875, 2.12987335
7911, 36.3487894, -23.1933044, 2.12973867
7912, 36.8974879, 3.38841601, -4.53127086
7913, 18.8478531, -24.5646984, -3.29348048
7914, 32.8991454, -17.7162976, -9.04196525
7915, 33.1023427, -17.4963104, -9.04194989
7916, 33.1516798, -17.756806, -9.04194363
7917, 14.2339638, -18.9675704, 1.73720407
7918, 14.5452056, -19.9606281, 2.71023731
7919, 13.6866064, -20.4844293, 2.53291684
7920, 14.8221523, -21.6727474, 2.61046515
7921, 15.4221949, -20.1578443, 1.78786116
7922, 35.5528482, -17.0823094, -0.977227782
7923, 22.1969023, -18.826425, 1.19764173
7924, 21.9507767, -19.0944831, 0.88959443
7925, 21.1329356, -18.4858608, 1.14126145
7926, 39.9567946, 2.36830229, -3.25002789
7927, 39.9508968, 2.98053886, -2.4468905
7928, 39.4001611, 3.01667934, -4.18486901
7929, 39.4213475, 3.67195703, -3.39781822
7930, 36.2433668, -17.7017183, -6.27584978
7931, 34.0170745, -15.9842292, -9.00865268
7932, 34.2837225, -15.9569724, -9.00872688
7933, 34.150392, -16.2282055, -9.00863093
7934, 40.0969617, 5.31911511, 1.47877244
7935, 39.5103266, 5.47149934, 1.54728338
7936, 19.2556892, -18.7288871, 4.21308183
7937, 19.3029194, -20.3572843, 3.18766619
7938, 36.3729833, -0.0808329209, 0.607104625
7939, 15.5033593, -24.2501276, -0.51226346
7940, 15.7215955, -19.0277858, 2.98038556
7941, 15.1735806, -20.4969199, 3.64415934
7942, 32.3902824, -20.9592614, 8.88297273
7943, 35.1373688, 3.74566117, -3.60550907
7944, 13.7475476, -20.4943575, -1.73649518
7945, 12.9425884, -20.5132558, -2.47828436
7946, 14.7305363, -20.4707478, -1.2459189
7947, 14.1309316, -20.4461365, -2.17514326
7948, 14.5214051, -21.4166673, -2.41380625
7949, 37.0767967, -12.2727944, -8.53871832
7950, 37.0770799, -13.4252762, -8.12908844
7951, 36.8099668, -12.3676616, -7.52461937
7952, 36.8133235, -13.5172908, -7.11420126
7953, 35.894994, -13.4345328, -8.48741853
7954, 26.0570501, -24.1969847, -1.92444191
7955, 19.4977931, -17.0069091, 7.19297587
7956, 20.1944979, -16.972192, 6.66864419
7957, 39.9967951, -2.0065867, 7.18845701
7958, 40.0266499, -2.69778678, 6.66447338
7959, 20.100142, -17.2841759, -5.10772129
7960, 34.7848326, 6.9302215, -4.29433399
7961, 14.6571448, -22.2864544, 1.43193578
7962, 34.2772538, 3.16479396, -4.05879576
7963, 34.2801439, 2.41284634, -3.47949228
7964, 35.2824238, 1.85090671, -4.30476727
7965, 35.0236704, 2.98107082, -3.99731488
7966, 24.6588426, -22.4813476, -3.37555925
7967, 23.6459606, -22.387216, -3.71662505
7968, 24.6910256, -21.400438, -3.40086165
7969, 22.1382252, -23.9282832, -3.69757879
7970, 22.6785472, -23.0383907, -3.78355898
7971, 33.253898, -24.4996943, 2.02687654
7972, 33.4970163, -24.4840364, 2.02084606
7973, 33.4295656, -22.8853219, -0.0704833223
7974, 33.675195, -22.8719595, -0.0688812705
7975, 32.4281265, -20.1416326, -6.59970258
7976, 33.2094954, -19.5975388, -6.83396086
7977, 33.218367, -20.9555261, -6.78019559
7978, 32.4690281, -20.6997103, -7.22183993
7979, 33.2413151, -20.1604067, -7.45273789
7980, 32.4488241, -19.3428557, -7.27751526
7981, 15.1409113, -17.0395211, -3.25669525
7982, 15.1132856, -17.2832229, -4.81136012
7983, 35.0251466, -9.46351136, 1.74694691
7984, 35.9943608, -11.3941536, 2.37257257
7985, 35.0135478, -9.12406859, 2.35550983
7986, 14.1343968, -24.301305, 0.919477132
7987, 15.1950193, -24.3801781, -3.11820099
7988, 36.0066915, -4.57672788, 7.64120115
7989, 37.0324234, -3.59836564, 7.40150324
7990, 36.9953267, -3.22143503, 8.01197459
7991, 16.7006081, -23.5270406, -1.15750865
7992, 36.2265589, -1.90071789, -8.53476196
7993, 36.9399403, -2.18743407, -8.1137198
7994, 36.980141, -1.43165834, -8.83487252
7995, 19.4564964, -19.5129448, 0.284786893
7996, 15.5074891, -19.3040306, 1.0355961
7997, 34.4420773, -17.8297806, 8.89990054
7998, 36.6482825, -15.294021, 8.78802313
7999, 36.2970987, -15.2075921, 8.78821399
8000, 39.7003879, -3.89281035, -0.533270416
8001, 40.0369839, -3.99437868, -0.742369751
8002, 39.0765983, -4.41966496, -1.16235398
8003, 39.4142878, -4.55525172, -1.36055501
8004, 39.8245537, -3.50630366, -1.31980531
8005, 33.1330943, -18.0422012, -9.04194059
8006, 32.8532008, -18.1763549, -9.0420208
8007, 32.9215596, -17.9387565, -9.04198143
8008, 20.2560206, -24.1729253, -0.43931813
8009, 20.504168, -24.3962011, -1.29489966
8010, 19.8814488, -23.1430185, -0.352757554
8011, 33.2577865, -24.4971842, -2.02092922
8012, 14.9691538, -22.9697073, 2.0299065
8013, 13.9412332, -23.3759776, 1.78248582
8014, 39.4795025, 0.0160211242, 7.62008534
8015, 38.5343258, -0.275461022, 7.55155065
8016, 38.0185681, 0.00467317913, 7.61305822
8017, 20.6359768, -18.9882925, 0.738589837
8018, 19.0981299, -19.5059158, 1.53404025
8019, 36.6176842, -14.8685946, 8.78841561
8020, 15.5206227, -24.075112, -3.52711816
8021, 15.4845972, -23.6544152, 2.17762394
8022, 35.1301326, 4.54381769, -4.17003179
8023, 35.4162641, 3.43870236, -4.46753496
8024, 34.2797433, -3.29703284, 8.55818131
8025, 35.0216333, -3.10330617, 8.62735282
8026, 33.7365467, -24.451457, 2.02155151
8027, 33.9183844, -22.8352571, -0.0681891161
8028, 34.8817766, -17.0411033, 4.87688027
8029, 35.5679784, -17.1009488, 3.40007239
8030, 37.3447832, -18.0017278, 3.54655889
8031, 37.120254, -18.3177836, 3.54012537
8032, 34.6471497, -17.3560241, 4.87500102
8033, 16.2445816, -24.3194636, -0.517351204
8034, 16.7821892, -24.3188944, -0.630709609
8035, 35.043459, -2.24259593, 3.50717551
8036, 35.0343493, -3.41641229, 2.18457938
8037, 35.2680321, -3.50103119, 3.46548455
8038, 15.6992028, -17.2897394, 5.73479844
8039, 15.7053468, -18.7598312, 5.60222262
8040, 15.1053575, -18.0146319, 5.69285117
8041, 15.1393002, -17.2767741, 5.13406626
8042, 15.1496469, -18.7422166, 4.99132561
8043, 15.7354947, -18.0331753, 5.09149669
8044, 35.2873241, -8.22080031, 1.13550683
8045, 34.2840877, -9.2777221, 2.28624906
8046, 33.9754632, -24.3985658, 2.01962829
8047, 34.1566551, -22.7758218, -0.0685031455
8048, 16.6674248, -24.5413169, -3.37299649
8049, 35.4714539, -16.0819293, 8.26079763
8050, 33.9313538, -16.3291632, 8.27323993
8051, 34.1800763, -16.3432876, 8.27333118
8052, 34.1087371, -16.0671866, 8.27344397
8053, 14.7031905, -18.2454125, -2.48325879
8054, 15.5983665, -18.2451065, -3.86901539
8055, 21.7281636, -19.097185, -0.16525809
8056, 20.9675611, -18.485133, 0.11305294
8057, 19.4118578, -17.3197545, 7.27782697
8058, 35.0224281, 4.16133778, -2.67375592
8059, 19.9048098, -18.7567738, -5.04795229
8060, 15.9477257, -23.3692277, 3.2518534
8061, 36.8902076, 3.62598662, -5.57155812
8062, 21.2628175, -17.521641, 2.69024684
8063, 35.6879027, -15.419649, -0.703929772
8064, 35.6885096, -16.8391223, -0.978574285
8065, 21.6460309, -18.0128436, 1.8569987
8066, 22.1596394, -17.2948176, 1.52246397
8067, 21.0412078, -17.0638918, 1.42200847
8068, 15.4023834, -22.8149669, 2.26895508
8069, 14.6790154, -23.9103627, 2.6358275
8070, 30.4848545, -20.1863961, 7.18062325
8071, 30.8582337, -20.6978881, 7.29540327
8072, 37.8848125, 4.16837207, -0.132941556
8073, 37.8795224, 4.32418871, -0.668242183
8074, 38.2370137, 4.22072331, -0.477096189
8075, 11.8253021, -20.8181329, 5.36475307
8076, 11.9478034, -20.8154704, 4.82040019
8077, 11.137133, -20.1024045, 4.6620725
8078, 19.295297, -19.0136831, 2.98288403
8079, 34.6464489, -17.3556255, -4.87614137
8080, 34.8816835, -17.0405497, -4.87734828
8081, 35.5671692, -17.0768372, -3.3586389
8082, 37.3436401, -17.9791464, -3.50717686
8083, 37.120121, -18.2944019, -3.50142779
8084, 34.596761, -17.4917414, -8.95598622
8085, 34.8448785, -17.670549, -8.95592541
8086, 20.1161638, -23.0671892, 0.771698808
8087, 38.9966171, -4.13348876, 1.86482953
8088, 14.0313823, -23.830319, 1.57807858
8089, 34.5614164, -17.4615441, -2.50535137
8090, 36.7290498, -14.9179271, 5.52942691
8091, 36.7497969, -14.5277179, 6.76286203
8092, 36.7304764, -14.9180234, 6.83173398
8093, 13.4859429, -20.8876003, -8.08804612
8094, 13.0471253, -20.8911079, -7.81283452
8095, 13.0883656, -20.8041854, -6.89421705
8096, 12.6504093, -20.8053796, -6.61518724
8097, 12.8970604, -20.1922847, -7.30435967
8098, 36.0203741, -7.59216856, 5.95005237
8099, 35.9933488, -6.96415708, 4.97119983
8100, 37.2240425, -6.41014563, 4.62406822
8101, 35.7814966, -3.65211921, -6.73034225
8102, 37.7779529, -3.5700182, -7.44187332
8103, 36.980573, -3.35624486, -7.89084692
8104, 36.0060433, -4.81280707, -7.57085035
8105, 15.5058272, -24.2490533, 0.279734737
8106, 29.3932538, -21.9548939, -0.624919324
8107, 29.6622129, -21.8889242, -0.623368736
8108, 28.9826866, -20.4998227, 0.741667294
8109, 29.2542748, -20.43364, 0.742096855
8110, 9.46582372, -20.4051549, 2.6304233
8111, 9.05737912, -19.8719757, 2.2859899
8112, 9.4688964, -20.165381, 3.37392163
8113, 9.95550952, -19.7740252, 2.6561076
8114, 10.419378, -20.29783, 2.95605963
8115, 17.9840426, -19.5305893, 0.615311653
8116, 35.4378, -18.8670192, 8.64975923
8117, 35.4358349, -18.8742096, 6.41476892
8118, 35.6065328, -18.6811718, 6.40288815
8119, 33.4074113, -17.543176, -9.04192781
8120, 35.0443115, -3.00609203, 4.13853847
8121, 35.2652897, -4.25225419, 4.12768331
8122, 35.02664, -3.61620362, -6.1916709
8123, 35.0650909, -3.24617508, -5.11176488
8124, 35.1775123, -4.22689156, -4.52464939
8125, 36.2046872, -3.42650495, -4.86530076
8126, 35.1104372, -2.00587168, 2.13746113
8127, 9.25629126, -20.8876795, -3.50738219
8128, 9.79524915, -20.893884, -3.99115184
8129, 9.71796107, -19.8768238, -3.21157841
8130, 10.5243021, -20.495398, -3.00447627
8131, 9.98440013, -20.4958026, -2.55429388
8132, 12.7313251, -18.0464671, -1.60093236
8133, 37.2871649, -3.56847289, 6.54786178
8134, 36.262153, -4.58956207, 6.76828264
8135, 37.508032, -4.64882143, 5.43518473
8136, 36.2995454, -5.87438107, 6.8290657
8137, 39.4764236, -3.75457099, 2.69305187
8138, 39.4781317, -3.23512881, 2.01635204
8139, 36.1874095, -2.53351735, -0.495239118
8140, 36.8793371, -2.57288585, 0.588612345
8141, 36.1326588, -2.58451463, 1.15822786
8142, 34.2798931, 4.56553122, -3.05120294
8143, 35.2529462, 4.45621663, -1.97443099
8144, 35.4129377, 4.8111194, -3.49021223
8145, 15.9780574, -24.6299733, 3.45913257
8146, 16.0452335, -24.6344082, 3.85086148
8147, 15.6989128, -24.6423329, 3.66929117
8148, 36.855976, -16.7536276, -6.60045297
8149, 37.0254962, -16.3974653, -8.84947246
8150, 37.0241347, -16.3988987, -6.56045725
8151, 34.2873963, -3.33266101, -5.68752283
8152, 35.3016629, -2.50713, -6.02595581
8153, 10.0114339, -18.5438301, 1.32027111
8154, 9.95526778, -18.0068841, 1.21305298
8155, 10.1665912, -18.2297128, 1.59289937
8156, 19.6225136, -18.0137142, -4.53761452
8157, 36.143904, 3.58982284, -5.03059882
8158, 14.2487485, -17.5232754, 2.19726324
8159, 13.220463, -19.3038781, 2.86660266
8160, 13.1299071, -17.8311067, 3.3506786
8161, 14.0750067, -18.7831458, 2.99480355
8162, 39.9111744, 1.25547725, -5.18795663
8163, 35.7016942, -18.5761908, 8.65058285
8164, 40.0929189, -1.56259732, -4.82003729
8165, 39.4802177, -1.81630506, -3.63241451
8166, 39.1290571, -1.077487, -3.92032603
8167, 38.543811, -0.965194639, -3.86468403
8168, 39.5150509, -1.45817715, -4.75216063
8169, 37.0365419, -8.77487801, -0.799025032
8170, 36.2658126, -9.11975941, -0.315595237
8171, 35.2572743, -8.26365107, -1.07249221
8172, 35.0295603, -9.40277781, -2.00993182
8173, 34.28112, -9.70731262, -1.53244138
8174, 36.0093814, -10.2281008, -1.26714546
8175, 21.9096305, -21.9581306, 3.48587743
8176, 35.9719246, -14.9290868, 8.78852423
8177, 35.2439117, 0.403246539, 0.471377853
8178, 35.1407464, -19.1419639, 6.51758835
8179, 10.52212, -20.8942308, 5.46731018
8180, 10.1444749, -20.8943147, 4.97450894
8181, 9.99472572, -20.2716071, 5.75928374
8182, 11.1065026, -20.2138614, 5.94471475
8183, 10.7253726, -20.2191492, 5.45410495
8184, 11.2619662, -20.8236033, 5.15207216
8185, 37.9025748, -1.70251453, 5.34737216
8186, 37.8899804, -1.65635383, -6.72808385
8187, 10.6823218, -20.8906294, 5.97908501
8188, 11.4211338, -20.8220946, 5.663633
8189, 36.8577038, -16.7522978, -8.8492332
8190, 20.425344, -24.1437614, 0.356342322
8191, 16.2616693, -24.6298575, 3.49105251
8192, 15.6130633, -24.0177085, 3.42517677
8193, 35.3119041, -15.1362185, 7.04196213
8194, 35.8157393, -15.4203578, 7.42259823
8195, 35.1943515, -2.06004601, -8.98982082
8196, 36.2176009, 0.129159772, 1.81336619
8197, 35.1031934, 0.622923382, 1.67383606
8198, 36.3366493, 1.54511658, 0.774669133
8199, 22.4626882, -19.0982515, -1.54066048
8200, 37.9100599, 1.67517407, 5.36564702
8201, 37.9092991, 1.80681906, 5.89524797
8202, 14.515387, -17.9588558, 6.62768167
8203, 37.9100075, -0.51958156, 4.2852131
8204, 37.9221399, -1.03018263, 4.53846654
8205, 38.228455, -0.802494594, 4.36265984
8206, 13.2911009, -20.4064549, -4.88932229
8207, 13.7443211, -20.4032871, -4.832746
8208, 13.4285464, -20.405108, -4.39467004
8209, 15.6061132, -24.423605, -4.23384803
8210, 25.5208439, -18.6157814, -0.394403305
8211, 25.3093425, -19.0135146, -0.575169706
8212, 25.3598804, -19.0640021, -0.130896704
8213, 21.0111827, -18.9985111, 6.02923328
8214, 23.0323872, -19.025592, 4.53908339
8215, 21.0399434, -18.2239202, 5.5968779
8216, 35.700092, -16.8558209, 3.40466045
8217, 39.7206234, 2.82121226, 4.49765427
8218, 12.4400382, -20.802366, -5.87148342
8219, 12.6545087, -20.8044701, -5.41021342
8220, 12.049767, -20.8071058, -5.45841217
8221, 37.9230496, -15.2791789, 3.12056871
8222, 37.9807126, -14.8918696, 2.98575038
8223, 20.7328402, -17.5293268, 2.01425098
8224, 33.4721936, -18.8923423, 8.20549728
8225, 14.7083929, -22.3042994, -1.34615329
8226, 36.1839231, -5.23339541, -3.38634087
8227, 36.7203488, -6.00645149, -3.40094629
8228, 15.860748, -22.6409016, 3.26539036
8229, 9.18772988, -18.796837, 0.760139199
8230, 9.14772756, -18.7975297, 0.449765293
8231, 9.9410175, -19.0513506, 0.870112693
8232, 8.76539743, -19.2499782, 1.09060131
8233, 8.8426039, -19.2633477, 1.40421583
8234, 27.3642014, -20.2774397, -3.37116625
8235, 27.9396854, -20.2597561, -4.88082581
8236, 27.9619851, -20.2646902, -2.51651164
8237, 37.6073653, -20.3121711, -2.13158214
8238, 37.6057668, -19.3136896, -3.11803988
8239, 35.5373786, -20.6935297, -2.20131378
8240, 21.9781644, -17.0025227, 1.22161492
8241, 13.5728, -18.767348, -7.77143365
8242, 13.2992513, -18.7691971, -7.59466967
8243, 13.3087459, -18.7621084, 7.66091955
8244, 13.6003751, -18.7672624, 7.76732829
8245, 13.1386992, -20.7992175, -6.31730383
8246, 14.838929, -20.6070325, 0.518990749
8247, 13.5472612, -20.4046183, -3.93956336
8248, 14.3609657, -19.3706051, -4.4305196
8249, 14.6251092, -18.8746836, -3.5678771
8250, 38.2202136, 0.806274737, 4.36429273
8251, 37.9142204, 1.04121814, 4.53321627
8252, 37.9085731, 0.522819155, 4.30287242
8253, 35.0614123, -4.14959301, 2.85222185
8254, 39.2259854, 0.945180138, 3.86560411
8255, 38.5346999, 1.23833302, 3.38864432
8256, 38.9710162, 1.50423608, 4.77506602
8257, 38.2164586, 1.76381922, 4.21871862
8258, 39.259697, 1.88305048, 3.65230061
8259, 13.6901588, -17.5196894, -6.33282316
8260, 13.6249231, -24.6579025, -1.486223
8261, 15.8398251, -23.9229665, -3.33087804
8262, 34.2892777, 3.74580561, -2.55988088
8263, 15.7611033, -24.5707166, 4.00039282
8264, 34.5348366, -17.3517134, 8.37269966
8265, 31.1687198, -19.3741177, -6.94007611
8266, 31.188285, -20.7323403, -6.876559
8267, 31.2011365, -19.9347998, -7.55889353
8268, 31.7334291, -19.4486015, 8.54017805
8269, 37.3908655, -0.78884402, 0.848944662
8270, 37.3653749, 0.891906778, 1.02132513
8271, 37.5127901, 0.692270136, -0.230007322
8272, 36.251507, 1.52942231, -8.86303435
8273, 35.2641482, 0.584132771, -8.436947
8274, 37.0297069, 0.946311317, -8.90487142
8275, 36.9965961, 1.9037644, -8.4433505
8276, 35.2858113, 1.54705036, -7.97273211
8277, 13.7131425, -21.4408666, -1.75963765
8278, 10.0307226, -20.1789872, 4.47743534
8279, 35.335206, -16.7195978, 8.97313889
8280, 35.0014185, -16.8501356, 8.97301145
8281, 13.6413571, -22.3433492, -1.81392829
8282, 13.8216513, -22.7707106, -2.59384189
8283, 14.9307669, -22.7431634, -2.16236785
8284, 18.5871894, -16.9805268, 4.53623835
8285, 18.1055272, -16.9909405, 4.31009268
8286, 18.3711308, -17.3023495, 4.36033559
8287, 40.0859124, -1.51498836, -6.10357796
8288, 10.2162467, -18.9810753, -4.55070031
8289, 10.5099973, -18.9157631, -3.45192922
8290, 11.9200335, -18.9381244, -5.44263191
8291, 15.9648534, -17.0015132, -5.65131948
8292, 15.7372847, -16.996901, -5.17696952
8293, 16.0398575, -24.2740942, 0.753976396
8294, 37.2698928, -21.4484039, 2.01678465
8295, 37.3371203, -21.2119378, 2.01652367
8296, 35.8218493, -21.1103945, -0.0693554474
8297, 35.8817427, -20.8722861, -0.0700065668
8298, 35.1708936, -1.81319341, -0.296724374
8299, 35.075147, -2.81958395, 0.746194811
8300, 35.1172898, -1.80619424, 1.29893461
8301, 14.0288716, -18.491729, 0.117206236
8302, 13.2720014, -19.0913367, -0.155087132
8303, 21.7237081, -18.774967, -0.483306024
8304, 21.8181138, -19.0842687, -0.709719889
8305, 34.2697931, -15.4630905, -9.00880321
8306, 34.5358274, -15.5410961, -9.00886703
8307, 34.3647532, -15.6807235, -9.00880998
8308, 14.7545611, -24.1338182, 3.32512885
8309, 14.8977603, -24.3469198, 3.1480816
8310, 29.6067938, -23.5746142, 1.49359921
8311, 30.9253136, -23.5517026, 0.757565129
8312, 14.6315887, -24.245745, 3.11332446
8313, 19.8800722, -18.03117, 5.69594949
8314, 19.2974698, -18.7771674, 5.64089685
8315, 19.300515, -17.3079701, 5.78462415
8316, 19.8761951, -17.2757244, 5.17496986
8317, 19.3109367, -18.0280463, 5.16386495
8318, 15.794695, -24.2492212, -0.119425134
8319, 22.6953492, -24.106755, -4.54606726
8320, 22.6992213, -24.0873755, 4.55339976
8321, 34.4904836, -16.5236851, 8.97299218
8322, 34.6860154, -16.720378, 8.97298548
8323, 37.2410608, 0.000999052358, 3.17421419
8324, 36.1133486, 0.903137862, 2.7491981
8325, 37.3762708, 0.930375111, 2.48800932
8326, 37.3959365, -0.773891142, 2.32820482
8327, 36.1384381, -0.774688283, 2.60215856
8328, 32.5303491, -19.6142488, 8.54012069
8329, 32.2794608, -19.4735469, 8.54012539
8330, 32.2850774, -19.7621993, 8.54041369
8331, 33.9594176, -18.4260632, -9.02890555
8332, 28.3110794, -23.5361204, 0.991199429
8333, 36.2918044, -6.18514894, -6.71834956
8334, 36.2715183, -4.80868996, -6.69407008
8335, 37.4387433, -4.64003981, -5.38730522
8336, 33.483536, -20.605695, -5.0862941
8337, 33.4791496, -21.0050694, -5.11944359
8338, 34.4601985, -20.6247862, -2.6852219
8339, 34.4688651, -20.2277086, -2.68697296
8340, 9.02103894, -20.8922371, 2.25390612
8341, 9.28307919, -20.4050214, 2.0428451
8342, 8.36353849, -20.2698178, 2.44997943
8343, 8.87523793, -20.8846681, 1.65117694
8344, 37.7366921, 7.4961574, -3.707571
8345, 37.1081269, 6.36174368, -4.96457238
8346, 36.7802241, 7.39263112, -4.60058891
8347, 34.1405544, -15.7136789, -9.00873589
8348, 38.5137602, -1.24375225, 3.37572394
8349, 39.2357435, -0.93183212, 3.84847952
8350, 39.0005768, -1.42539156, 4.7258117
8351, 39.2774428, -1.81213608, 3.60712166
8352, 15.7120852, -16.9939437, 6.06127191
8353, 38.0301531, -0.00709393583, -1.86840786
8354, 37.4358167, -0.800286097, -0.775901024
8355, 40.0129908, -0.583425645, 4.29508137
8356, 39.7148553, -0.864983937, 4.35277098
8357, 40.0433344, -1.09107571, 4.55115169
8358, 12.6531556, -20.8119785, 5.45968596
8359, 12.2626374, -20.8161167, 5.711836
8360, 12.3204425, -20.813723, 5.15532787
8361, 12.8447394, -18.8497359, 5.33031366
8362, 11.3502381, -18.8177852, 3.38851582
8363, 35.2871839, -0.884528036, -3.66524247
8364, 34.9521742, 4.88163491, -6.48526015
8365, 34.9506162, 4.50880445, -6.94604485
8366, 34.9543261, 4.16229658, -6.28934684
8367, 34.2797971, 2.51435024, -0.932028845
8368, 35.0346511, 2.82231076, -1.4052352
8369, 35.252462, 3.73217784, -1.06694951
8370, 35.4988856, 2.3669327, -0.526675759
8371, 10.6754956, -19.0092948, 2.51481746
8372, 11.8491216, -18.0310434, 3.09627847
8373, 11.0290431, -17.5002465, 3.147162
8374, 12.6145139, -17.8568931, 3.92337594
8375, 26.4619304, -24.1563777, 1.2321289
8376, 26.9727363, -22.7285291, 1.73517323
8377, 40.0922934, -1.3438135, -5.29198194
8378, 26.6468751, -22.5106853, -3.29122059
8379, 14.8839308, -24.3798417, 2.86150592
8380, 37.1900296, -21.6797723, 2.01736177
8381, 35.7398423, -21.3414736, -0.0693796396
8382, 35.0401207, -2.91036131, -1.83926594
8383, 9.21104745, -20.8858486, 2.97498419
8384, 10.1455173, -20.9825151, 2.56312274
8385, 10.1681301, -20.769309, 3.30960223
8386, 15.8271045, -19.0882796, 5.36631871
8387, 15.6926558, -19.0667375, 5.91608488
8388, 16.3486206, -23.3593113, -2.99997079
8389, 15.6400212, -23.5206107, -3.43891471
8390, 15.8401433, -22.3727996, -2.91715662
8391, 35.2763773, -7.54328727, -1.97819735
8392, 35.0277461, -8.31702356, -2.74863385
8393, 34.2830448, -8.74780849, -2.34517052
8394, 23.6678354, -18.0390531, 2.24140918
8395, 23.1922356, -18.0469757, 2.24826153
8396, 37.8993802, -4.97679849, -1.50631965
8397, 35.2572353, 7.5505106, -1.96985867
8398, 34.2909833, 7.63730962, -2.57846862
8399, 35.0434611, 8.03850629, -2.18817454
8400, 35.7958964, 7.46069947, -2.80589128
8401, 34.7858241, 7.53301801, -3.31864694
8402, 35.0731705, 7.01889168, -3.15336922
8403, 37.4681475, -2.32932421, -1.14234164
8404, 12.8178403, -19.3842115, -3.28478515
8405, 14.3159049, -18.9721948, -2.53706161
8406, 12.9584736, -18.7381936, -2.12329617
8407, 13.2175228, -18.6372403, -3.24599727
8408, 20.4431604, -18.2865121, 6.2080608
8409, 36.9539672, -22.1097381, 2.01548626
8410, 37.0802493, -21.8992788, 2.01522543
8411, 35.6341223, -21.5629055, -0.0706406597
8412, 35.5087952, -21.7726538, -0.0690430983
8413, 9.72662894, -19.0756611, -0.122623273
8414, 8.54165231, -19.2560256, 0.0494689431
8415, 12.9637908, -20.4048071, -4.51609229
8416, 34.2818755, 1.40589425, -2.8566645
8417, 40.0477861, -4.78197752, -1.07329399
8418, 15.6648968, -17.7298255, -5.43146228
8419, 15.6801219, -18.0252096, -5.74342783
8420, 14.8105456, -17.2800697, -5.5572048
8421, 14.2170659, -24.5781402, -0.118700436
8422, 14.5272195, -24.5713896, 0.0158323928
8423, 39.4056507, 3.78293219, -4.27602442
8424, 8.91831245, -19.891768, 1.69545664
8425, 12.856399, -17.2795656, -2.7533192
8426, 39.5140778, 3.78729223, -6.42795094
8427, 17.5043843, -18.5165489, -3.9522306
8428, 17.0659674, -17.7740259, -4.07488752
8429, 17.5080756, -17.0620241, -3.92101667
8430, 15.1172901, -18.2388407, 3.18626821
8431, 14.0656682, -18.5457842, 4.31302949
8432, 14.2353654, -17.2820653, 3.51169921
8433, 34.2440725, -18.8428826, -8.38524069
8434, 19.5484355, -17.2864344, -5.99520031
8435, 19.8850819, -17.2852945, -5.62205346
8436, 31.5527554, -19.7999994, 2.49877575
8437, 31.3098981, -19.9371119, 2.49932538
8438, 32.2750862, -19.5667441, -0.0698689867
8439, 32.5172728, -19.4296001, -0.0697572416
8440, 35.9947716, -12.0794129, -6.54639739
8441, 35.9899561, -10.9293741, -6.96110883
8442, 34.8125446, -12.0797867, -6.90715131
8443, 34.2819633, 5.07287646, 3.33026887
8444, 35.2747982, 5.11911533, 2.34602638
8445, 39.0914122, 3.95481014, -0.640248991
8446, 38.7408793, 3.90443112, -0.544373606
8447, 39.3709184, 4.55512635, -1.19014437
8448, 39.0237543, 4.50024693, -1.1090612
8449, 35.0254825, -15.8444486, -8.84253465
8450, 16.1058969, -23.5694058, -0.277797482
8451, 38.6769501, 4.63950614, -1.26671292
8452, 36.3651096, -13.9839091, -8.48700883
8453, 36.0448189, -14.321898, -8.48656109
8454, 35.6111213, -13.9765, -8.48667385
8455, 39.0091415, -1.80688371, 7.3825842
8456, 37.7459352, 1.44707219, -8.75616954
8457, 38.0018338, 0.690445408, -3.2053934
8458, 35.9919889, -10.8740663, 5.65984294
8459, 35.9975268, -13.5308519, 2.00174223
8460, 35.9963162, -14.5105431, 0.833234437
8461, 35.9999583, -12.9057871, 0.923894451
8462, 16.6633209, -24.209211, -2.52584221
8463, 19.3243144, -17.53125, -3.63790764
8464, 18.46476, -18.2695769, -3.85790895
8465, 18.5098798, -20.0492876, 2.51893187
8466, 19.1104693, -22.0100882, 3.09959818
8467, 33.7887393, -18.7165628, -8.57974021
8468, 14.6434249, -19.2948115, 3.93712438
8469, 13.4871333, -20.3287031, 3.81318403
8470, 16.914638, -18.7406493, 8.69122644
8471, 39.862809, 4.99288238, -1.24165652
8472, 34.13684, -0.731226889, 8.95195154
8473, 35.3209822, -1.66204251, 8.94033051
8474, 34.1346972, -2.95614294, 8.87820597
8475, 37.4265513, -2.23884486, 0.495185094
8476, 8.76140737, -20.2736219, 3.6216688
8477, 9.45328402, -20.8913252, 3.53970304
8478, 9.72009078, -20.1668393, 3.93860118
8479, 34.2872211, 0.319945633, 2.43898302
8480, 35.2955359, 0.580122595, 3.55904557
8481, 35.0457292, -0.273382989, 2.43279454
8482, 35.3492957, 1.46688083, 2.80306733
8483, 16.5374169, -24.3184413, -0.127354299
8484, 39.7100255, -1.79408764, 5.72557152
8485, 39.9724839, -1.80686427, 6.07236072
8486, 9.45686781, -20.8908125, 4.039657
8487, 10.1862737, -20.7808943, 3.79380202
8488, 13.605464, -17.8375093, 4.25493684
8489, 14.7223785, -17.2765583, 4.41638864
8490, 37.0484273, -14.7932335, 7.48345591
8491, 35.9969028, -8.05680853, 4.53898895
8492, 39.4438925, -3.89264507, -4.3667746
8493, 37.9273994, -1.56179566, 6.95024522
8494, 38.0442516, -3.36125844, 7.11306403
8495, 40.0080003, 1.78856618, 6.06170032
8496, 9.76503549, -20.8928272, 4.57938006
8497, 35.6993781, -18.5794322, 6.4013486
8498, 17.0275133, -24.2079316, -2.79411647
8499, 39.4867822, 1.80821645, -3.6343326
8500, 14.2209747, -24.5778938, 0.447613392
8501, 14.9057529, -24.3468467, -3.15540821
8502, 14.7621805, -24.1336982, -3.33231165
8503, 31.2253045, -18.7140325, 8.42614097
8504, 31.3564952, -18.9375183, 8.42632573
8505, 14.6384905, -24.2465851, -3.12017245
8506, 38.4266854, 3.88251399, -0.206756009
8507, 39.4703133, -2.78050967, 3.05163671
8508, 39.7531238, -3.7167644, 4.02350232
8509, 39.7402018, -2.71428508, 4.39458065
8510, 37.2314624, 2.91245722, 1.24346416
8511, 37.9910571, 2.98411331, 0.77762965
8512, 32.8324713, -19.4677923, -8.24990935
8513, 36.1448071, -14.8793843, -7.83580985
8514, 33.1651554, -20.8192805, 5.35634689
8515, 33.17644, -20.8057084, -5.35838522
8516, 16.2594318, -24.545343, -3.71976384
8517, 37.7222602, 6.97275513, 3.88563831
8518, 35.9824994, 7.38438762, 4.8482839
8519, 13.8095359, -19.7725697, -6.3470667
8520, 12.96397, -20.7969837, -5.79045222
8521, 14.9070478, -22.6244701, 3.51353727
8522, 23.5313021, -21.2983741, -3.71082335
8523, 24.2319255, -20.4968267, -3.65464347
8524, 38.014343, 1.66778039, -3.55231997
8525, 38.346556, 1.09288865, -3.9019442
8526, 38.921524, 0.953364522, -3.85460745
8527, 37.7304203, -7.19418512, 3.61146494
8528, 19.0438919, -21.3778904, 3.08572527
8529, 35.8019583, -15.1543491, -3.08548738
8530, 35.8124373, -15.9557763, -4.38290657
8531, 37.2310756, -2.92865626, 1.25325576
8532, 37.957347, -3.02958681, 0.809660042
8533, 27.056541, -21.8082201, 1.64108759
8534, 36.8119615, -16.6794811, 8.66595048
8535, 36.6441337, -17.034051, 8.66558291
8536, 36.6423681, -17.0358151, 6.41586412
8537, 13.8595479, -20.3129914, 4.12223291
8538, 35.0555866, -9.39852522, 0.421472582
8539, 37.0285595, -8.98198036, 0.2780725
8540, 36.0155604, -9.94203212, 0.147964233
8541, 34.2855807, -9.49242331, -0.158363292
8542, 35.2581815, -8.50738577, -0.0113192505
8543, 34.0571484, -16.5710628, 8.2730964
8544, 35.104693, 1.7627493, 1.48228444
8545, 35.246209, 1.54460008, 0.262679027
8546, 36.2643702, 2.46934349, 0.0413726407
8547, 37.520805, 1.80495649, 0.655689775
8548, 37.5308074, -14.3650674, -8.19503731
8549, 37.0606598, -13.8197553, -8.19639641
8550, 36.7945919, -13.9101499, -7.18175648
8551, 33.7264293, -18.1592807, 8.27125679
8552, 38.960064, -5.71157059, -4.00138245
8553, 37.4827859, -5.45810726, -3.31355044
8554, 37.9003033, -6.03284056, -2.82595967
8555, 22.6014586, -17.4993686, 5.05717481
8556, 39.6313315, -1.90658856, 7.25157231
8557, 34.9926018, -10.5256596, 7.82890324
8558, 36.9914691, -11.0529953, 8.54173917
8559, 15.6111238, -24.2790678, 1.98603972
8560, 37.8840223, -6.53231062, -1.72349929
8561, 37.4807736, -6.57122846, -3.33770385
8562, 29.7880814, -19.3667553, -8.36003551
8563, 29.5174905, -19.4312184, -8.36001192
8564, 29.7880851, -19.3668145, -5.9833608
8565, 29.5164657, -19.4308745, -5.98274449
8566, 12.7333337, -20.8015972, -6.1713423
8567, 38.0146767, -5.43548864, -5.43485586
8568, 13.6058932, -18.2707393, -0.490465984
8569, 13.5669706, -18.5614946, -0.20477944
8570, 30.739619, -18.7323339, 8.42609276
8571, 12.7353964, -20.3999945, -3.71671455
8572, 12.6188869, -20.4022411, -4.19358393
8573, 13.0939015, -20.4029039, -4.04408723
8574, 33.6357231, -19.1584729, -8.40833452
8575, 33.5980371, -23.6252087, -4.51415021
8576, 33.9662216, -23.2006657, -4.52484677
8577, 32.5321862, -19.9059166, 8.54032266
8578, 16.9769897, -19.0977323, 4.26350169
8579, 16.7146261, -18.7905061, 4.37449338
8580, 16.4502882, -19.1213943, 4.51551409
8581, 38.2684966, -8.04914555, 3.62840323
8582, 38.0166204, -7.74769268, 1.95827246
8583, 38.2436637, -8.7114144, 1.34936665
8584, 19.2986993, -17.0076351, 6.09744246
8585, 35.30399, -18.1104187, -8.52508044
8586, 35.6518469, -17.9614809, -8.52529319
8587, 35.5295938, -18.3002523, -8.52495392
8588, 37.9164887, -4.32393732, -0.666862528
8589, 37.9046221, -4.16281313, -0.111597933
8590, 38.2202073, -4.20379164, -0.443362559
8591, 35.9897076, -11.1534536, -5.7614607
8592, 35.9910737, -10.175575, -4.57636298
8593, 35.9879996, -11.272949, -3.85162752
8594, 35.9942555, -11.2868882, -2.40441012
8595, 35.9936013, -12.1917957, -3.25382482
8596, 38.6645402, 1.68458411, 4.95400183
8597, 33.5919049, -23.6248419, 4.51340567
8598, 37.5614767, -14.7901391, -8.19479812
8599, 37.3101999, -15.2604095, -7.54428303
8600, 14.0577051, -19.3555376, -5.46133242
8601, 23.6548458, -21.8994835, 3.70544327
8602, 24.4437457, -22.4416592, 3.50346561
8603, 24.5367144, -21.5131382, 3.44238076
8604, 37.0129704, -8.03503949, 3.25022021
8605, 37.5668393, 2.15349685, -0.595532825
8606, 37.0329976, -7.15633456, -3.60967583
8607, 35.9946729, -7.27489777, -4.747016
8608, 36.0098882, -8.47866772, -4.36019816
8609, 36.4422542, -17.3706392, 8.66541881
8610, 36.614931, -17.082237, 6.41605014
8611, 40.0706029, 4.71512781, -0.973998292
8612, 34.2787775, -4.10742971, 5.28098673
8613, 36.7320481, 3.34053572, -6.73246205
8614, 36.0929253, 4.52414393, -5.72644005
8615, 35.9736608, 3.34091033, -6.16335468
8616, 34.2818899, -2.58517864, -1.36427877
8617, 35.2825777, -3.73391382, -1.07208105
8618, 35.4223303, -2.48696098, -1.06341072
8619, 38.0330412, -0.677180502, -3.25493852
8620, 12.4241811, -19.6526225, 4.87051383
8621, 15.6653947, -18.3222714, -5.41206121
8622, 36.0059974, -9.56935758, -3.65163181
8623, 34.7167881, -17.3462291, 8.97273558
8624, 34.7269816, -17.0395015, 8.97288451
8625, 37.9953045, 0.560023282, 3.36573611
8626, 21.400728, -18.2785529, -0.529579539
8627, 21.4269602, -18.5583759, -0.217393396
8628, 34.8295418, -15.0564144, 8.40812551
8629, 34.5770097, -15.1761677, 8.40782781
8630, 34.8634853, -15.3124429, 8.40803269
8631, 34.2813457, 3.00984093, -1.60673284
8632, 9.47992173, -19.8638927, -2.66753848
8633, 9.01074103, -20.8888573, -2.94603287
8634, 9.74337655, -20.4738185, -2.13566199
8635, 8.84202875, -20.8897936, -2.49660849
8636, 15.4523793, -19.2568504, -8.58720207
8637, 15.762472, -19.2781992, -8.66756637
8638, 38.4687376, 2.99613656, 6.55733118
8639, 37.9300352, 1.56557185, 6.92793178
8640, 37.9996478, 3.32803357, 7.07575488
8641, 38.045959, 3.53883092, 6.03976741
8642, 15.682962, -17.524539, -3.62229527
8643, 20.8990591, -17.8929245, -4.43333056
8644, 21.193517, -18.6256267, -4.9326254
8645, 40.0759269, -5.15706324, -1.32889033
8646, 40.0575374, -5.94754897, -1.63544529
8647, 16.5656861, -18.7497747, -8.68323544
8648, 16.8945308, -18.743292, -8.68841867
8649, 9.5790262, -19.5388472, 3.67174648
8650, 9.44854097, -19.5227151, 3.38238836
8651, 19.9372666, -17.5231568, -2.87786948
8652, 20.4753785, -17.0657599, -2.43865143
8653, 20.9286782, -18.3787259, -3.11912512
8654, 21.5261673, -17.8782764, -3.64334956
8655, 34.2806646, 3.38497469, 4.65186386
8656, 35.298236, 2.26916532, 4.93515589
8657, 35.4241744, 3.57904335, 5.15008776
8658, 34.6060644, -17.1834512, -8.95608082
8659, 14.9214606, -22.6284747, -3.5179387
8660, 15.4236128, -22.393121, -4.06001957
8661, 15.1417687, -21.4565564, -3.04835569
8662, 33.6252382, -16.5916403, -8.7913741
8663, 33.7585513, -16.8356715, -8.79133397
8664, 33.4782965, -16.8377691, -8.79130486
8665, 26.4595922, -22.4722221, 3.43336847
8666, 26.5399189, -21.5356189, 3.37201073
8667, 36.4411235, -17.372846, 6.41568521
8668, 35.3024011, -2.26969621, 4.93394123
8669, 35.1168582, -15.0939798, 8.40839288
8670, 21.3606422, -17.2830282, -2.49019389
8671, 20.7594575, -17.7549831, -1.96000208
8672, 33.3763555, -20.835569, -6.10374097
8673, 33.4139132, -19.4469242, -6.20613683
8674, 32.0851056, -19.8319133, -8.69915097
8675, 11.8277269, -20.4345871, -3.70230047
8676, 10.9404762, -20.4663335, -4.03352542
8677, 34.2930222, 9.04079953, -0.313964364
8678, 36.27438, 9.03651049, -0.600542474
8679, 36.996011, 8.93734837, -0.0421676829
8680, 35.2595778, 8.51991479, -0.0183141879
8681, 35.0823988, 8.96734137, 0.265397163
8682, 33.3740232, -18.1787365, -9.04184586
8683, 35.2932771, 2.24850102, -4.89704565
8684, 36.1056712, 2.69696309, 1.29111538
8685, 10.068207, -20.8935585, -5.12331162
8686, 10.1150596, -20.8911414, -4.52732406
8687, 10.4533152, -19.8737015, -4.77003293
8688, 14.8969187, -20.4885526, 4.79327223
8689, 35.1318361, 4.44084249, -5.13133548
8690, 29.0626734, -24.5213877, -3.31910072
8691, 34.1767662, -18.5621413, -7.56599785
8692, 34.328024, -18.1194608, -7.73933146
8693, 33.720315, -18.4342087, -7.76231618
8694, 15.0594432, -19.976675, -1.30211978
8695, 15.1862936, -19.3015905, -0.203603845
8696, 35.9893461, 8.1426195, 3.72281212
8697, 37.0090644, 8.08805022, 2.98758655
8698, 35.0338811, 8.23315484, 2.73107156
8699, 14.8928858, -24.3811086, -2.87033999
8700, 35.9885384, 3.92087319, 7.968254
8701, 36.9911622, 3.29301159, 7.53167009
8702, 35.9956, -13.5127493, -5.7521081
8703, 34.8126959, -13.5161275, -6.11272887
8704, 33.2890276, -19.5941403, -8.05566307
8705, 33.7724353, -16.5780292, 8.27300141
8706, 14.4548058, -19.2822799, -7.68468723
8707, 14.7073626, -19.2715503, -7.83379398
8708, 26.5043517, -19.0332768, -0.269624339
8709, 25.6696129, -18.9630778, -1.51568669
8710, 25.6592274, -18.9627571, 0.93184844
8711, 36.809278, -16.6806164, 6.3803817
8712, 36.0046218, -9.40853713, 3.84554128
8713, 35.9923523, -11.3029261, 1.07370046
8714, 15.6969004, -24.3533977, 4.15434279
8715, 36.9750916, 8.91527674, 0.586522929
8716, 35.100388, 8.91767126, 0.908626219
8717, 28.4370721, -20.5639617, 3.11761822
8718, 28.4337144, -20.5624529, 0.742707436
8719, 27.8488294, -20.5570026, 1.61853752
8720, 16.5673855, -17.7965296, 3.86066701
8721, 16.2608197, -18.5031686, 3.37656379
8722, 16.0403648, -18.0235921, 4.70868206
8723, 15.7953962, -18.7329959, 4.1814807
8724, 15.6540165, -17.7594112, 3.58157306
8725, 35.9955473, -13.5222666, 5.75825202
8726, 35.9948652, -12.5567392, 4.97310964
8727, 37.6831051, -7.12621338, -4.60185595
8728, 28.358198, -21.8187303, 3.25460577
8729, 34.2821564, -3.25236018, -1.8904519
8730, 14.0191742, -24.5348102, 1.96148806
8731, 14.1995627, -24.5343796, 2.31037303
8732, 13.8806939, -24.4664038, 2.25464675
8733, 33.3752675, -18.8693869, -7.4095164
8734, 14.3303009, -19.7686413, 6.10697516
8735, 13.6305963, -20.7787407, 6.45240867
8736, 13.5159121, -20.7750145, 6.01349463
8737, 11.9089913, -19.7613588, -5.18803168
8738, 36.0049812, -13.5332021, -1.99727018
8739, 35.9920099, -12.6157401, -1.14204928
8740, 35.9953579, -14.3549304, -0.699881212
8741, 34.2882914, -5.53212058, -3.58798342
8742, 35.2754853, -5.43273628, -2.44191238
8743, 35.4384776, -4.64180718, -3.33106262
8744, 34.2802787, -3.22598269, 2.11253344
8745, 35.2782255, -4.15670887, 1.6967252
8746, 34.2938183, -3.9380299, 2.78169764
8747, 39.4750473, 1.14994016, -3.51023405
8748, 39.8901742, 0.761951753, -4.58727614
8749, 34.8689545, -15.8404759, -8.35121925
8750, 38.2254129, 0.915211507, -9.44653602
8751, 38.226339, 0.914642724, 9.44662193
8752, 38.2447519, 3.9181939, 8.64733824
8753, 38.2328091, 3.92497225, -8.64126421
8754, 38.2306796, 5.51245042, -7.72574199
8755, 38.2359814, 7.71907923, 5.52353847
8756, 38.2460622, 5.52954595, 7.71708879
8757, 38.2320153, 7.72323668, -5.51483634
8758, 38.2304751, 9.44555958, 0.929058762
8759, 38.2286194, 9.44560768, -0.920248634
8760, 26.0175642, -20.2386038, 1.76139532
8761, 25.4643511, -20.2333999, 3.39427739
8762, 26.1208137, -19.274043, 1.63620928
8763, 25.6382906, -19.1789125, 3.2918038
8764, 34.133515, -19.1334038, -6.9551021
8765, 34.0543971, -19.8586889, -7.6073326
8766, 22.6773035, -22.557261, 3.77308425
8767, 34.2777591, 3.32390513, 2.24279857
8768, 34.2813395, 4.00377775, 2.80920221
8769, 35.2803849, 4.1560651, 1.6963631
8770, 38.256171, -8.04247677, -3.5631698
8771, 38.2339552, -8.73347453, -1.36099099
8772, 38.0228244, -7.9668198, -1.53427706
8773, 37.717286, -8.9229365, -0.293706477
8774, 37.7947229, -8.52080112, -2.69684652
8775, 35.6681553, -14.3589036, -8.48633115
8776, 35.4934555, -14.6836308, -7.82859873
8777, 23.8179416, -23.6831986, -3.76831616
8778, 24.7934671, -23.7612707, -3.32717213
8779, 35.9491791, -17.0018286, 8.6656087
8780, 36.0238911, -17.341114, 8.66538424
8781, 36.2522038, -17.0129186, 8.66563744
8782, 20.2874667, -17.5231001, 3.05441042
8783, 9.58326386, -19.2305948, -2.91344569
8784, 9.71158306, -19.2292129, -3.18491343
8785, 35.9910332, -13.5102068, 4.38414292
8786, 35.9786573, -13.9054264, 4.51287106
8787, 35.9805104, -13.9081095, -4.51156834
8788, 35.9988571, -13.5129689, -4.38026246
8789, 34.5289355, -22.2064052, -2.20061338
8790, 34.8095968, -23.0241094, -4.63921092
8791, 35.0116125, -21.808762, -2.20224607
8792, 35.3000517, -22.6285513, -4.63852296
8793, 35.6748, -23.2681404, -4.28191376
8794, 35.9828805, -16.3288188, 8.66607663
8795, 36.0463779, -16.6849445, 8.66581398
8796, 36.2573133, -16.4659389, 8.66594692
8797, 35.8078702, -15.3105459, 3.21921746
8798, 35.7970349, -15.3197721, 0.8355051
8799, 13.1308912, -20.7776276, 6.26454828
8800, 34.2814342, 2.74210924, 4.07649635
8801, 39.469224, -0.969938481, -3.45125289
8802, 40.0885502, -0.700506537, -4.57037413
8803, 34.2789251, -2.66272931, -3.73441556
8804, 35.2746801, -1.8464302, -4.30268533
8805, 35.4510897, -3.26504329, -4.29487361
8806, 12.7990975, -20.9961853, 2.56895684
8807, 13.1784481, -20.3289411, 3.44266495
8808, 23.0690421, -19.9921382, 5.81043095
8809, 35.0327436, 3.28884205, -5.56850474
8810, 34.2826927, 3.11470889, -5.00802004
8811, 15.6995191, -18.7513545, -6.55966656
8812, 15.6955988, -19.060422, -6.1723842
8813, 15.1072382, -18.7037447, -5.87055904
8814, 34.9512505, 5.00770851, -7.20378292
8815, 21.3895577, -17.3115643, -0.54249752
8816, 35.1411895, 5.47728459, -4.1031313
8817, 35.0642976, 6.07153276, -3.08575805
8818, 34.793758, 6.54012765, -3.76175158
8819, 39.8179302, -3.82483451, -2.47185455
8820, 35.7433338, -18.4103991, -6.27782755
8821, 32.7880087, -18.8037967, -8.53591759
8822, 19.5244239, -24.4278256, 3.22900334
8823, 20.8766594, -24.0141921, 2.01329877
8824, 20.9297882, -23.9030293, 3.73747283
8825, 38.2664103, -6.61255114, 5.78843849
8826, 34.2787858, 3.38219338, 5.65901915
8827, 35.2966848, 2.50737474, 5.97500119
8828, 35.0322876, 8.36287554, -2.61485233
8829, 34.781912, 7.83450287, -3.78403143
8830, 18.1164708, -21.0843912, 8.82711553
8831, 20.1889655, -21.0877912, 8.82523441
8832, 13.5112096, -17.2650112, -3.42531712
8833, 39.4023899, 4.47893243, -3.63278377
8834, 34.24455, -16.8894948, -8.95612774
8835, 34.367256, -17.1076911, -8.9560768
8836, 34.0791476, -17.1697966, -8.95603595
8837, 34.5652087, -16.8604641, -8.95616869
8838, 20.2626383, -17.2698647, 4.41662955
8839, 9.25045372, -19.8677586, -2.10265305
8840, 8.64836929, -19.8870543, -1.2043004
8841, 8.66103637, -20.880779, -1.88677276
8842, 9.06263182, -20.4902445, -1.27152488
8843, 35.0251297, 3.04488099, 7.66440914
8844, 25.7784473, -19.2151432, -2.08529662
8845, 25.1426818, -19.2397537, -3.57222783
8846, 25.5545623, -20.1405251, -3.28065414
8847, 17.4993018, -17.9686624, 3.90035554
8848, 18.080829, -17.5404023, 3.46938694
8849, 17.7683448, -18.2868574, 3.94311445
8850, 32.0053883, -19.6963173, 8.54049449
8851, 32.0398872, -19.3334556, 8.54003861
8852, 32.441049, -19.239352, -8.18302845
8853, 32.4055778, -18.6791304, -7.5628801
8854, 32.7975848, -18.9076792, -7.62976554
8855, 35.9912098, -12.5865494, -4.96667525
8856, 36.4325241, -16.7100844, 8.66586063
8857, 36.5353592, -16.3415042, 8.66600172
8858, 33.0444699, -21.2290701, -8.12413359
8859, 34.2872483, -4.9962044, 3.35540306
8860, 35.2749499, -5.11250977, 2.34229583
8861, 39.5073278, 6.47810438, -3.01793495
8862, 38.0292084, 6.2840817, -2.37639011
8863, 38.4351424, 5.76510128, -3.20878942
8864, 39.4550766, -4.58240221, -3.72864745
8865, 34.5377067, -15.8410524, -9.00882174
8866, 38.7289022, -3.90639635, -0.508024175
8867, 38.464573, -3.88734506, -0.190236279
8868, 31.7953245, -18.4363725, -8.07842195
8869, 31.552223, -18.5726651, -8.07851166
8870, 31.3233852, -18.6070237, -8.92706981
8871, 31.0802277, -18.7433676, -8.92712007
8872, 31.9422252, -18.9529395, -7.50583919
8873, 35.2684188, 5.43618708, -2.44286787
8874, 34.7771034, -15.674775, -9.00891272
8875, 18.5747463, -18.7128032, -3.90425939
8876, 38.6852831, -1.6125367, 4.91233157
8877, 38.7382179, -0.271492594, 3.96691853
8878, 39.040971, 0.00178801613, 3.90029338
8879, 39.4772405, -0.572878413, 3.42929768
8880, 35.9963518, -14.3470818, -3.0855931
8881, 14.1648374, -18.9828061, -0.588559726
8882, 14.855018, -19.8464789, -0.163519238
8883, 34.942553, -18.220003, -8.05314646
8884, 17.903808, -18.7050456, 7.49065037
8885, 34.4000228, -17.6874248, -4.87514676
8886, 34.5568473, -17.4571781, -4.87143348
8887, 17.0276345, -17.0433687, -3.66054997
8888, 16.3442616, -17.5261322, -3.501276
8889, 16.5903582, -17.2918737, -4.67347954
8890, 16.3953967, -18.2629395, -3.95970896
8891, 34.2796919, -3.31394566, 4.63321969
8892, 35.3390105, -17.7741776, -8.5253137
8893, 14.0269836, -24.5324197, -1.96403576
8894, 14.2080413, -24.5306276, -2.31219269
8895, 37.7421162, -3.30842279, 7.94755221
8896, 34.3129341, 5.45759863, -3.09141102
8897, 35.9914525, 5.67317964, 6.90313155
8898, 35.9942974, 5.90897351, 6.70355112
8899, 37.1497967, 5.41448174, 6.0369452
8900, 37.1557467, 5.17709772, 6.22924766
8901, 21.6857665, -23.9168637, 3.34547549
8902, 24.3712934, -24.5864676, -3.79554915
8903, 25.3892539, -24.479601, -3.84976844
8904, 27.2821993, -23.3185482, -3.69398065
8905, 36.2188786, -0.915135012, -9.0022649
8906, 35.1007551, -0.0133096914, -8.98767863
8907, 37.0053717, -0.0220932233, -8.96841562
8908, 21.003771, -17.5288777, 6.20343163
8909, 26.4216646, -20.0970198, 1.08015902
8910, 23.805964, -18.9808639, -2.39302698
8911, 24.8472262, -18.9895806, -2.23975405
8912, 23.2870898, -19.3833786, -3.34162905
8913, 23.626403, -18.889078, -3.48236826
8914, 33.1565789, -18.8948421, -0.0701034222
8915, 33.1573058, -18.8941588, -2.44415773
8916, 33.3346169, -18.6796834, -2.44395183
8917, 36.9782354, 8.94517685, 0.275819181
8918, 37.0074572, -11.0397597, -8.54084303
8919, 35.9900024, -9.37691456, -7.2237819
8920, 35.0064122, -9.18210376, -8.189621
8921, 35.0064802, -10.7516711, -7.92315476
8922, 31.0551099, -20.0419923, -4.87195322
8923, 30.7956456, -20.1429869, -2.50219639
8924, 30.792144, -20.1314404, -4.87170135
8925, 31.05694, -20.0513706, -2.50218133
8926, 22.0983629, -18.3348146, -1.40096271
8927, 36.9792513, 8.90122503, 0.90654353
8928, 35.6837225, -23.7583161, -2.1340555
8929, 36.1686296, -23.3573752, -2.13304357
8930, 36.0002107, -7.86347889, -5.81300541
8931, 35.2654559, -4.44996763, -1.96916127
8932, 34.2828805, -4.06034971, -2.7652163
8933, 35.9810194, 6.13120812, 6.49022348
8934, 37.1269133, 5.63381708, 5.82022289
8935, 21.0448232, -17.2702174, -1.34244381
8936, 16.5547519, -23.7593111, -2.89446624
8937, 35.0279558, -3.24099429, -8.51002508
8938, 20.8344931, -20.4649301, -6.80933053
8939, 20.9753258, -19.3428502, -5.43725258
8940, 21.8506842, -20.3715737, -5.63393774
8941, 32.6366005, -20.9110039, -8.7446566
8942, 33.5909859, -20.6410097, -8.87564261
8943, 33.2420496, -20.4310261, -8.07637914
8944, 32.2852724, -20.7004208, -7.94631094
8945, 11.9649679, -20.8867355, 7.03657976
8946, 11.7409283, -20.2704058, 7.50509517
8947, 12.4530497, -20.8866246, 7.41369844
8948, 12.2619813, -20.8175492, 6.28221805
8949, 12.0322964, -20.2022302, 6.75610339
8950, 11.5435738, -20.2073121, 6.38084797
8951, 39.7571475, 3.894439, -2.38161297
8952, 13.1650947, -19.107999, -0.700462582
8953, 13.281315, -18.7791668, -0.440941388
8954, 39.9521448, -1.25217872, 3.32661236
8955, 39.740701, -1.73370737, 4.19819887
8956, 8.78297214, -19.897279, 1.1024508
8957, 8.57392666, -20.4664493, 0.507665039
8958, 8.53389039, -19.8569316, 0.515840539
8959, 35.2742243, 3.49245689, -0.00867369445
8960, 33.742998, -17.8709153, -7.75313157
8961, 33.8121425, -18.1531093, -8.5706701
8962, 33.2031098, -18.4689814, -8.59309797
8963, 13.8863899, -24.4618052, -2.25549776
8964, 10.9078016, -19.6024465, 5.71999686
8965, 34.0065596, -18.5690578, 8.23122661
8966, 32.2106103, -20.2083284, -8.69971647
8967, 36.001011, -12.0305418, 3.46725112
8968, 35.9875478, -11.0799379, 4.05412253
8969, 11.8597947, -20.8089595, -5.93668067
8970, 11.4448727, -20.1981308, -6.18996186
8971, 38.7646725, -4.57535399, -1.36833146
8972, 40.0163989, 0.953176634, 4.61279558
8973, 39.7106806, 0.736721516, 4.42984822
8974, 39.2841712, 1.69557303, 4.96081148
8975, 39.7217844, 1.66946088, 4.31847554
8976, 15.9088434, -17.2867905, -4.85566582
8977, 38.7725255, -3.48142816, 5.55645182
8978, 39.494848, -5.08785459, 5.03423773
8979, 34.7838262, 7.21495294, -4.8472098
8980, 35.0022477, -6.82845744, 8.297652
8981, 34.9903201, -8.47537488, 7.82574335
8982, 40.0165115, 1.68878211, 5.51974433
8983, 31.3107783, -19.9320381, 4.86929948
8984, 31.5534732, -19.7952199, 4.87001973
8985, 39.4002151, -6.07108673, -1.6784579
8986, 39.8731083, -6.36013245, -1.59922215
8987, 38.3961094, -6.87588023, -1.81011127
8988, 38.8982086, -7.13071158, -1.727589
8989, 39.4875635, -6.90384529, -2.25946566
8990, 9.25400468, -19.2115017, -2.08924391
8991, 8.65287601, -19.249494, -1.19770396
8992, 15.3299953, -18.761523, -4.78538979
8993, 14.0657379, -18.6244673, -4.73057551
8994, 36.9872451, 8.84697547, 1.22429375
8995, 35.0424101, 8.79445408, 1.54257669
8996, 35.0179771, 8.41013841, 2.12983978
8997, 37.0172756, 8.50055753, 1.82918172
8998, 40.0523219, 3.94372861, -0.656980897
8999, 39.4990198, 5.06222351, 5.12396901
9000, 38.7818073, 3.5403851, 5.60354025
9001, 37.4297309, 4.65040447, 5.69029088
9002, 18.8781472, -20.3376197, 8.80372358
9003, 14.4524713, -24.531427, 2.61209484
9004, 14.2042115, -24.3928185, 2.86370944
9005, 14.1661455, -24.4947785, 2.59587478
9006, 34.2874034, -9.32046214, 1.03709675
9007, 38.0078462, -0.56601619, 3.36463021
9008, 35.4882999, -1.99286744, 8.62739384
9009, 36.2296725, -1.77483531, 8.64377837
9010, 29.9840302, -19.5691141, -8.3603333
9011, 30.3383772, -20.0204746, -8.36077858
9012, 29.4144618, -19.6895673, -8.36058213
9013, 38.7281064, 0.272724526, 3.97035724
9014, 19.5818492, -23.895912, 1.83587011
9015, 37.015002, 0.299540169, -8.95138062
9016, 37.782263, 0.291575793, 8.94596447
9017, 36.0078319, 0.0141618023, 8.50945753
9018, 36.2828951, 0.289239782, 9.04103763
9019, 36.9913169, 1.16436895, 8.70552619
9020, 35.297868, 0.87883811, 8.33224637
9021, 35.0317269, 2.37533072, -7.8268133
9022, 35.0394328, 2.8052352, -8.16640014
9023, 34.9594791, 3.48351212, -7.47768773
9024, 34.9512322, 3.94388672, -7.82371028
9025, 35.9742157, 3.09428967, -7.20801421
9026, 35.3666262, 2.85679734, 1.84469498
9027, 18.2798663, -18.7944456, 4.37141918
9028, 18.5464406, -19.1034089, 4.49832017
9029, 18.0227747, -19.1164847, 4.26093746
9030, 32.157661, -20.136692, -5.82361817
9031, 30.9171984, -20.7309526, -6.10785494
9032, 39.9504039, 1.1238341, 3.40006528
9033, 18.4389449, -17.7914437, 3.85672196
9034, 18.748179, -18.496258, 3.38138615
9035, 19.3703839, -17.7433391, 3.63713357
9036, 18.9896223, -18.0315961, 4.76261301
9037, 13.9898772, -18.2377029, -1.37082053
9038, 32.8854586, -17.7731569, 8.92480185
9039, 32.8566187, -17.5508258, 8.924724
9040, 32.6582599, -17.7675078, 8.92483016
9041, 35.9504075, -14.7778882, 3.21655809
9042, 35.9457195, -14.784855, 0.835595605
9043, 33.9534587, -13.7763769, 2.37564645
9044, 33.9534826, -13.7762566, 1.97957956e-05
9045, 33.2648901, -21.2084088, -6.39991119
9046, 33.103265, -17.6076141, 8.92473966
9047, 33.0972365, -17.8793766, 8.92479775
9048, 33.3538246, -17.7101457, 8.92469951
9049, 18.0652225, -18.9908816, 3.35841632
9050, 12.5249936, -19.0984583, -1.53201996
9051, 19.3066252, -20.7453613, -8.45897591
9052, 19.5876365, -19.7534428, -8.14962121
9053, 18.8060123, -19.7234868, -8.82483229
9054, 13.5025807, -22.1049313, 2.00078119
9055, 15.808724, -16.9860609, 5.51986487
9056, 34.2764846, 1.46058553, 2.30032189
9057, 37.716679, 7.28859822, 3.3612218
9058, 35.7975246, -15.1644281, -0.703358565
9059, 11.503307, -20.8882716, 6.70756976
9060, 11.8038181, -20.8197144, 5.95331195
9061, 18.7543727, -17.0609727, 3.3319816
9062, 19.2956812, -17.267857, 4.23482793
9063, 37.9832643, -5.5012761, 4.56013781
9064, 14.1727711, -18.9886277, 7.09350445
9065, 13.9597436, -18.9602351, 6.03815034
9066, 14.508648, -18.5161535, 6.57870048
9067, 15.9493731, -19.0392562, 6.96519622
9068, 35.0306952, 2.2048562, -8.36251348
9069, 34.276372, 1.80124978, -8.7652936
9070, 35.9942849, -11.0558482, -0.983552579
9071, 34.2785024, 3.21107472, 6.41962944
9072, 31.668644, -24.5757721, 3.33019121
9073, 32.9903827, -24.5719304, 4.46841608
9074, 33.2689187, -24.4935866, 4.0404323
9075, 33.2573906, -24.0240351, 4.53473602
9076, 31.8845635, -24.5096049, 2.80682585
9077, 35.9981302, -12.9010635, 3.29277918
9078, 14.3729124, -17.2769317, -4.91711451
9079, 24.698111, -20.2486838, -5.04041089
9080, 33.2707603, -24.4945256, -4.04175264
9081, 36.9868454, -9.88872559, -1.91861791
9082, 35.9832979, -8.29459615, -8.20071391
9083, 35.0470076, 0.641148959, -8.94787759
9084, 34.2962816, -2.94443285, 1.33639127
9085, 35.2850172, -3.74510645, 1.0967177
9086, 35.3947288, -2.72279999, 1.69474647
9087, 18.4749952, -17.5286273, -3.45070269
9088, 35.8898227, -15.0465624, 3.2162822
9089, 35.8833009, -15.0556732, 0.835861917
9090, 33.5008719, -24.4897161, -2.02041827
9091, 34.0939172, -18.1598373, 7.72783228
9092, 34.3757862, -18.5695078, 7.68631641
9093, 34.6269618, -17.8350119, 7.7570575
9094, 21.6770975, -17.9093254, -4.52925707
9095, 35.5716512, -18.6017185, -6.29200917
9096, 35.5715266, -18.5969716, -8.52430188
9097, 34.2831748, 8.61058147, 2.06299097
9098, 35.290833, 7.85215546, 1.68760484
9099, 35.2693444, 8.24643552, 1.11627454
9100, 39.5051315, -0.583820501, -4.51000473
9101, 20.8951605, -20.4901944, 6.21186795
9102, 19.9133154, -21.3558757, 3.79581106
9103, 32.9334828, -20.9485528, 6.0071531
9104, 33.0046637, -21.2031592, 5.62379753
9105, 16.5456946, -16.9826106, 4.61273465
9106, 17.052915, -16.9984403, 4.36952276
9107, 16.7676083, -17.2869064, 4.42301401
9108, 37.6040624, -20.315484, -4.16187175
9109, 37.6073315, -19.3362304, 3.16487086
9110, 37.6063829, -20.3129545, 4.16750823
9111, 37.6073129, -20.3123729, 2.13399857
9112, 19.1651433, -17.7082602, 4.94360337
9113, 33.9835211, -17.219907, 8.39726806
9114, 35.9998307, -9.45300294, -5.55430587
9115, 39.330996, -1.62286388, 4.90680455
9116, 10.1267075, -19.2718832, 3.11678941
9117, 22.3681187, -17.9068367, -3.90441979
9118, 22.87163, -20.3859648, -4.65536581
9119, 23.8331316, -19.1764232, -4.71469451
9120, 35.0570605, 2.64793016, 0.772345198
9121, 23.9776348, -17.5012514, -3.03468044
9122, 24.4020777, -18.5706075, -1.80516829
9123, 24.4001366, -17.5046563, -2.25215227
9124, 40.0125597, 0.447735359, 4.36960533
9125, 31.7193467, -19.1651565, -8.92726818
9126, 31.5780317, -19.4421318, -8.92744718
9127, 31.3879967, -19.1825293, -8.92734256
9128, 36.3497072, -23.1929307, -2.12972265
9129, 35.2940442, -0.581598288, 3.56083969
9130, 34.2839016, -0.847604118, 2.49212903
9131, 36.9341346, 3.4849408, 5.20169167
9132, 39.8188425, -4.30823764, -1.68578423
9133, 15.8284613, -19.0800092, -6.72163914
9134, 10.6309824, -18.5665776, -1.80947092
9135, 10.5983988, -17.5002423, -2.25293927
9136, 11.0033048, -17.5061835, -3.04726498
9137, 34.4754308, -16.4981987, -8.46480566
9138, 34.2101377, -24.3166067, -2.01946587
9139, 33.9773455, -24.3916014, -2.0205961
9140, 34.388227, -22.6951222, -0.0688200243
9141, 34.9939624, -7.14801803, -8.20182896
9142, 35.0002713, -5.78452032, -8.20218441
9143, 36.9860918, -5.75300983, -8.86287138
9144, 36.0365373, -6.17240479, -7.59469069
9145, 35.5773952, -17.6220138, -8.52550882
9146, 35.6750162, -17.3049429, -8.52571479
9147, 35.8803265, -17.6333477, -8.5255627
9148, 35.3630575, -21.9689747, -0.0683372319
9149, 36.5135339, -23.0110403, -2.12988945
9150, 33.0648173, -17.3357573, 8.92474117
9151, 38.9958778, -1.71081879, 5.11163781
9152, 14.5404707, -22.6238243, 3.20689214
9153, 14.53765, -23.8915603, 3.21149975
9154, 14.1077522, -22.7797161, 2.96412905
9155, 14.1041971, -24.0399665, 2.96210889
9156, 35.1600461, -14.3836923, -8.48603255
9157, 34.8939942, -14.3053293, -8.48587815
9158, 35.0492199, -14.0390987, -8.48621017
9159, 8.56515404, -19.8990816, 0.0279395207
9160, 15.6025432, -19.9004995, 8.42754693
9161, 16.1079824, -19.7852817, 8.80990646
9162, 16.1190064, -20.3967323, 8.78340019
9163, 38.4191476, 6.86995664, -1.79886678
9164, 39.4926633, 6.90142583, -2.24782564
9165, 33.7422423, -24.4484497, -2.01977046
9166, 32.6877699, -20.1865907, 8.54043496
9167, 32.9026792, -19.5990506, 7.87350302
9168, 34.2789523, -1.82097013, 3.09644465
9169, 35.2618376, -1.55109637, 4.0295798
9170, 35.383738, -1.34682243, 2.64140089
9171, 37.8166004, -17.8462575, 3.5206013
9172, 34.2867823, 2.54520812, 0.195414326
9173, 28.0252739, -19.4870664, -7.36690755
9174, 28.9645922, -19.4859278, -5.98581934
9175, 28.9654961, -19.4843563, -8.35923839
9176, 38.9656796, -5.01981435, -4.60394298
9177, 37.9479077, -4.96209277, -4.17088055
9178, 35.2896258, -2.25563833, -4.90582871
9179, 35.2935322, 1.54568977, 4.0272489
9180, 34.2820436, 1.92637194, 3.20859711
9181, 15.8483376, -18.3373856, 4.89235952
9182, 35.9996218, -4.64188682, 8.87226008
9183, 32.9526639, -20.9520934, 7.0452892
9184, 33.0075901, -21.2051423, 6.66993554
9185, 26.6635323, -24.2132156, 2.99004577
9186, 28.5932329, -23.5985988, 2.8074835
9187, 11.3939403, -18.0375031, -1.28082336
9188, 33.3358994, -18.3123012, -6.78774995
9189, 34.820389, -22.4616578, -0.0674210994
9190, 35.4885024, -23.9048436, -2.1310061
9191, 10.6406292, -19.2491458, -5.00805683
9192, 10.8263691, -19.2350356, -5.27496003
9193, 32.6224575, -19.1891855, 7.91247508
9194, 10.9885827, -20.453701, -3.32682098
9195, 20.0957748, -18.6955818, -6.16879749
9196, 34.6092686, -22.5864479, -0.0685570114
9197, 35.2765422, -24.0283248, -2.13299873
9198, 34.9216333, -18.2020531, 8.65064277
9199, 35.1696476, -18.3806425, 8.65048889
9200, 35.2046849, -18.044535, 8.65075801
9201, 28.8216319, -20.8843193, 8.25616336
9202, 34.4833075, -17.7800589, -8.48468723
9203, 39.4872461, -3.51894638, 6.16517055
9204, 34.9526653, 3.99433613, -7.20916048
9205, 34.9506419, 5.47123871, -6.79573347
9206, 34.2757007, -4.41632845, -3.5925392
9207, 15.3335621, -17.2856519, -5.32663855
9208, 18.2017558, -19.0258652, -3.231546
9209, 37.766397, -7.70958356, -3.42947553
9210, 37.9903961, 5.46548913, 4.54180965
9211, 37.0052348, 0.611809309, -8.93571719
9212, 12.4673379, -20.4734432, -2.66645521
9213, 12.8036344, -20.4905096, -2.99273791
9214, 17.2336703, -18.2799763, 3.9417889
9215, 19.2124969, -16.9759195, 5.5334489
9216, 32.0213688, -19.6805662, -0.0711044265
9217, 32.2755455, -19.5667632, -2.44344598
9218, 30.8037188, -19.8631679, -8.36078642
9219, 30.9283965, -20.2400164, -8.36121828
9220, 17.0593358, -17.5214513, 3.50495737
9221, 16.376591, -17.0696597, 3.39750441
9222, 15.8597284, -17.2779355, 4.24939502
9223, 12.4366565, -17.5105821, 5.12769319
9224, 39.4620231, 0.44968599, 3.53015685
9225, 35.9965723, -4.64586782, -8.87068688
9226, 13.3180397, -19.6010935, 5.42189031
9227, 9.43295708, -18.7681699, -5.00127972
9228, 10.4346355, -19.2487702, -4.77048227
9229, 37.3739323, -20.9686631, -2.01843699
9230, 37.3335191, -21.2098129, -2.02046037
9231, 35.9166016, -20.6284448, -0.0709230431
9232, 35.3101551, -21.1030954, -2.08827254
9233, 35.6993269, -23.7633701, -4.15991648
9234, 36.1698671, -23.3610792, -4.16329746
9235, 15.7461396, -20.8885033, 8.5584257
9236, 29.2420092, -19.4698514, -8.3592857
9237, 29.2411072, -19.4709016, -5.98332666
9238, 33.5931815, -17.1159751, -8.79124127
9239, 34.271026, 7.38847301, -3.04691959
9240, 34.7845161, 7.27497693, -3.83281532
9241, 35.9340264, -18.263555, 6.40133351
9242, 22.6031032, -24.0198064, 3.0076926
9243, 18.8732501, -24.5152318, 2.88278636
9244, 34.898103, -24.2233157, -4.17263895
9245, 34.6769778, -24.3084694, -2.13734672
9246, 34.6860345, -24.3284748, -4.15660662
9247, 34.6513403, -14.8770677, 8.40801806
9248, 35.2736264, -3.49404858, -0.0113356664
9249, 28.4536578, -19.2059555, 7.12612313
9250, 28.8472572, -20.2502671, 5.8777617
9251, 29.1234545, -20.2354344, 5.87619644
9252, 28.7321118, -19.193221, 7.12489526
9253, 34.9016992, -24.2230203, 4.17234993
9254, 34.6843909, -24.3251652, 4.15677239
9255, 34.6769209, -24.3147495, 2.13402737
9256, 15.8510232, -17.7225658, 4.89239185
9257, 30.6139234, -19.6035653, -8.36046925
9258, 14.2107245, -24.3885158, -2.86550016
9259, 14.4600551, -24.5278262, -2.61412226
9260, 14.1688843, -24.4909383, -2.59203597
9261, 36.8535477, -18.6022438, 3.55293975
9262, 37.0220746, -18.4171686, 3.5461254
9263, 36.4558273, -19.897855, 4.65372819
9264, 36.6149259, -19.6864145, 4.65183884
9265, 34.8143007, -13.5119716, -8.48650256
9266, 35.8249378, -12.1921117, -8.48868642
9267, 39.4923033, -3.96351724, 5.38455671
9268, 36.0041957, -9.19197901, 5.43735215
9269, 40.0457575, 6.20011628, -1.59514565
9270, 34.2856985, -3.04433388, -4.56270147
9271, 12.1969149, -19.3407624, -4.33476736
9272, 15.3016245, -23.892186, 3.72181333
9273, 15.2967423, -22.62167, 3.7093756
9274, 35.2784026, 3.74607009, 1.09678543
9275, 34.2904369, 2.78214183, 1.36784521
9276, 33.5651219, -18.549526, -4.9859898
9277, 33.7623704, -18.3515494, -4.98850342
9278, 32.9611154, -19.0921237, -2.44403017
9279, 34.3229332, -17.6515899, -8.95595787
9280, 34.321772, -17.3395791, -8.95602117
9281, 34.9916081, -14.5080403, 8.4085784
9282, 35.1921939, -14.8136082, 8.40868267
9283, 35.4676247, -14.6457482, 8.40908535
9284, 35.2803692, 2.50608078, -6.02474668
9285, 34.289429, 3.33920548, -6.14810577
9286, 35.2279014, 3.42397256, -6.72376602
9287, 38.2571088, -4.82878325, 7.37119655
9288, 17.7851626, -17.0471987, -3.59959626
9289, 17.7811109, -17.7897027, -3.96177528
9290, 14.5483515, -22.6275511, -3.216369
9291, 24.0660161, -19.1076864, -1.74257601
9292, 34.9368904, -14.8343987, 8.40836101
9293, 11.0667194, -20.8898772, 6.27031382
9294, 40.0444548, -1.68797222, 5.51546624
9295, 33.3862052, -19.3445257, 7.01575231
9296, 32.3178122, -19.8801632, 6.00673395
9297, 33.0238785, -20.1569383, 7.29106933
9298, 31.9763419, -20.6957626, 6.29123933
9299, 32.3937774, -19.0804371, 7.30032386
9300, 36.9898726, -7.62866875, -7.20981781
9301, 21.4975568, -18.5671192, -0.760008819
9302, 36.4708834, -16.1838216, -8.8495149
9303, 36.1969436, -16.0462978, -8.84963407
9304, 36.4318249, -15.9363964, -8.84963653
9305, 11.2223614, -20.8860495, -6.44468219
9306, 10.8104063, -20.270825, -6.68963089
9307, 11.8818104, -20.1938886, -6.6240259
9308, 36.6722464, -15.3057416, 5.65126224
9309, 31.8147, -18.5442708, -8.92702165
9310, 31.7843204, -18.7434163, -8.92709334
9311, 31.5829039, -18.7258615, -8.92711337
9312, 35.9872264, -9.6072634, 7.82873823
9313, 39.4975584, 6.48455697, 3.15009761
9314, 34.8394137, -18.9967325, 8.64984425
9315, 35.064242, -18.7476241, 8.65017585
9316, 34.6818991, -18.7025856, 8.65009155
9317, 14.9100568, -20.4938757, -4.89601201
9318, 16.4332482, -19.7954305, 8.85689559
9319, 28.2417817, -20.239753, -2.51434303
9320, 28.2198103, -20.234839, -4.87743473
9321, 28.4929617, -20.2012575, -4.87457703
9322, 37.8857519, 6.54119734, -1.74603707
9323, 38.0030049, 7.29996394, -2.26869279
9324, 13.990403, -24.2797494, 2.74044489
9325, 34.2778309, -2.45729641, -0.49131672
9326, 30.4755316, -18.8214584, 8.42611253
9327, 34.4982094, -19.1443063, 7.09494081
9328, 33.8649395, -18.0548333, 7.11711549
9329, 33.878085, -19.8609541, 7.58274023
9330, 33.2444488, -18.784137, 7.59407074
9331, 13.5018258, -23.3568054, 1.99995972
9332, 13.7989278, -24.0419904, 2.58750913
9333, 13.8080424, -22.7754835, 2.58563487
9334, 37.2688865, -21.4456813, -2.01775842
9335, 28.025741, -20.2537949, -7.21716151
9336, 28.6634142, -20.7908403, -8.20707501
9337, 26.7852513, -19.5457739, -8.51799338
9338, 28.6717465, -20.0268388, -8.36103384
9339, 29.9191786, -20.7337383, -7.06836894
9340, 35.8838452, -14.9002684, -0.703165289
9341, 35.8910639, -14.8914785, -3.08829718
9342, 15.5315677, -21.4578617, -3.22077028
9343, 38.4258408, 0.00168340289, 3.87679945
9344, 35.9847675, 6.79900486, -5.90936521
9345, 32.9631511, -18.3736268, 7.63324689
9346, 12.8149217, -19.7010505, -5.22687059
9347, 12.6553928, -17.8985631, -3.93846725
9348, 11.6287, -17.9295616, -3.99423648
9349, 11.9217837, -19.3990383, -3.28132979
9350, 15.157183, -20.4949189, 7.82049892
9351, 15.1857545, -20.8908627, 8.70159605
9352, 24.6048727, -23.6961643, 3.49867236
9353, 35.9939795, 5.0269862, 7.49241802
9354, 8.67737777, -20.8901624, -1.29440597
9355, 38.237427, -6.62015704, -5.83859134
9356, 22.7201123, -17.3044716, 1.46186874
9357, 26.8013099, -23.7668749, 3.52508088
9358, 38.2561984, -4.8200834, -7.36404836
9359, 17.0493182, -18.7867258, -4.35180047
9360, 17.4968487, -18.511916, -3.42558289
9361, 38.4374893, -4.01311556, -0.728128989
9362, 9.46067817, -19.2065868, -2.64936726
9363, 14.677087, -19.879011, 0.91463425
9364, 39.5203403, 5.07475436, -5.04652331
9365, 38.4666734, 4.27548252, -5.14978391
9366, 38.4045699, 4.00518629, -0.723870791
9367, 13.9071289, -24.3950487, 2.50784121
9368, 13.7051698, -24.2770614, 2.31455497
9369, 9.38293824, -19.2378365, -2.36679323
9370, 36.6126021, -21.0653865, 4.63802857
9371, 14.5452229, -23.8929126, -3.22029032
9372, 14.110552, -24.035238, -2.96459957
9373, 14.1215796, -22.7730138, -2.9649953
9374, 32.9601225, -19.0921297, -0.0700376822
9375, 37.9025745, 7.05400362, -1.45834504
9376, 37.7514985, 7.66729023, -3.45059759
9377, 36.7675027, 7.56383885, -4.3393576
9378, 33.9534822, -13.7762754, -2.37495127
9379, 35.9461261, -14.6294357, -0.702355895
9380, 13.4584848, -24.4749763, 1.79707784
9381, 35.0221721, 2.25507613, 8.00461868
9382, 35.0295925, 2.09630413, 8.48097504
9383, 35.0190168, 2.6637665, 8.2738987
9384, 39.7589651, 3.56345021, -1.23360259
9385, 39.7508629, 4.36425667, -1.56828674
9386, 13.9528361, -17.5248411, 6.24771645
9387, 23.9858592, -17.5011249, 3.03357624
9388, 24.3350861, -19.0147722, 2.46888547
9389, 37.9240036, -7.66447045, 0.866068848
9390, 27.3872156, -20.286334, 3.37414811
9391, 35.6189386, -15.4860053, 4.74056955
9392, 35.7174508, -15.2236832, 4.75734903
9393, 37.8300074, -15.6606452, 3.2366839
9394, 19.1650945, -18.3467646, 4.94303913
9395, 9.87788984, -19.5709488, 4.19525851
9396, 35.9490306, -14.62072, -3.0835913
9397, 33.9534366, -13.7764248, -4.74997059
9398, 20.8430898, -17.2850048, -5.20545867
9399, 11.0942241, -19.5768515, 5.95634757
9400, 32.8116869, -18.2404256, -8.5263227
9401, 13.615519, -23.6005246, -1.81683229
9402, 13.8118402, -24.0411978, -2.59500934
9403, 11.3817536, -20.4812434, -2.79522414
9404, 10.8201302, -19.426321, -3.27311007
9405, 35.0265892, -18.7788424, -9.02844977
9406, 35.5172081, -18.2316343, 8.65067169
9407, 38.0064949, 6.8199193, 2.53244432
9408, 35.9895882, 6.79001829, 5.8980954
9409, 37.1897784, -21.6772845, -2.01941312
9410, 37.9276624, 1.01602195, -7.45932162
9411, 25.183189, -19.1237504, 0.835000923
9412, 24.8138584, -24.5161219, 3.43820205
9413, 13.7917486, -17.524493, -1.02266627
9414, 37.9210233, -7.70833485, -0.626640459
9415, 39.9662665, -2.25940708, 3.49134539
9416, 33.2881728, -17.0689524, -8.79123429
9417, 12.3671146, -19.5481004, -7.00362818
9418, 12.6224434, -19.5577131, -7.16975702
9419, 12.3675789, -20.1911715, -6.99701809
9420, 22.0326459, -20.0004893, 6.74955914
9421, 31.055933, -20.0455404, 4.87158085
9422, 30.791853, -20.1343469, 4.86966916
9423, 29.2560105, -20.4340335, 3.11597131
9424, 29.5194872, -20.3473908, 3.11427297
9425, 20.6128798, -20.5013251, 7.27382392
9426, 36.9812784, 8.60769034, -1.7012193
9427, 35.0684955, 8.55800896, -2.01541971
9428, 35.0445126, 8.69923427, -1.40783765
9429, 13.9975411, -24.2773235, -2.74201175
9430, 37.9907678, 7.18896208, 3.66100671
9431, 37.7246853, 6.79333567, 4.12150876
9432, 38.2336588, 8.06949373, 4.99744562
9433, 20.5335436, -20.491312, 8.50322414
9434, 37.0811446, -21.8976492, -2.01689468
9435, 11.6168659, -20.8848807, -6.81488132
9436, 12.2488063, -20.8065714, -6.30397681
9437, 37.9807169, -14.7437337, -2.85017851
9438, 37.9230568, -15.1315927, -2.97924044
9439, 39.4999535, -6.47920835, 3.03386219
9440, 37.994149, -6.82944456, 2.46959461
9441, 31.5526302, -19.7955594, -4.87067438
9442, 31.3093195, -19.9292812, -4.87156298
9443, 32.5186029, -19.4296352, -2.4425608
9444, 8.0129589, -18.7675856, 0.301799149
9445, 9.04334003, -18.5616061, 0.135558809
9446, 39.1130715, -0.394696766, 7.47517243
9447, 35.2794324, 6.56629451, -2.44265708
9448, 24.0130646, -18.7219666, 5.92735092
9449, 13.3548035, -17.9093973, -4.58792388
9450, 33.3044683, -21.2293798, 8.25870556
9451, 36.646199, -16.4280708, -8.84939067
9452, 36.4658588, -16.7310167, -8.84929995
9453, 36.2604423, -16.4025848, -8.84941398
9454, 8.12193889, -20.2742505, 1.2365358
9455, 8.63627738, -20.4734376, 1.14171493
9456, 39.03801, 2.98276455, 6.62891584
9457, 39.4751179, 3.54273686, 6.24603109
9458, 17.2070864, -20.8779464, 8.93482217
9459, 17.7699509, -20.4812109, 8.84074858
9460, 17.2064494, -19.8959371, 8.93908602
9461, 37.5505918, -13.9734951, 8.12657704
9462, 13.4868367, -18.5718457, -0.740087359
9463, 12.9117329, -18.3410454, -1.41518156
9464, 24.9057128, -18.5535001, -1.51704233
9465, 25.0082849, -18.2147065, -1.30633651
9466, 34.2966344, 8.98215728, -0.906045826
9467, 33.3505809, -18.7289784, -4.98587999
9468, 32.7476459, -19.271166, -2.44393816
9469, 22.5668036, -17.5053362, -5.03953669
9470, 22.1313383, -18.9129264, -5.38860236
9471, 33.0415653, -20.9582523, -7.50270719
9472, 13.7103202, -24.2681508, -2.31904776
9473, 13.9144703, -24.3922027, -2.50939483
9474, 37.9812034, -7.23866797, 3.6633393
9475, 10.7104079, -21.0016416, 2.88037043
9476, 34.2757835, 2.45230968, 7.94215886
9477, 34.2787184, 2.30923057, 8.42089873
9478, 35.2978941, 1.86188053, 7.68256287
9479, 34.2929141, 7.97506956, 2.48208495
9480, 24.587213, -19.0969562, -1.43738913
9481, 23.5981194, -18.0165383, -1.28348916
9482, 36.9782601, 8.67382445, -1.40276823
9483, 23.5708359, -23.6621038, 3.21658446
9484, 22.0023937, -19.9959842, -6.75225814
9485, 21.0135, -18.9504025, -6.56991187
9486, 37.9404052, 7.67027663, -0.64214927
9487, 36.3491403, -23.1944426, -4.14052819
9488, 29.4424371, -24.5363408, 3.4520516
9489, 29.5182399, -20.3452018, 0.743155979
9490, 32.0247734, -18.2781522, -8.07827384
9491, 31.552844, -18.4487086, -8.92699503
9492, 37.7453264, -2.91694976, -8.37980921
9493, 37.1823978, -3.31478047, -8.84092877
9494, 38.0118576, -7.77675896, -0.130375346
9495, 39.4915708, 4.28179554, -5.66565673
9496, 36.3504798, -23.1945847, 4.13995452
9497, 36.1681681, -23.3593297, 4.13768428
9498, 17.8979712, -19.2379615, 7.73684382
9499, 18.7846636, -19.2162156, 7.25337427
9500, 34.3567203, -19.0070997, -6.32635171
9501, 11.1871726, -18.9560601, -2.39368749
9502, 17.500276, -18.5838534, 3.88772113
9503, 36.9721986, 8.5407773, -2.00980208
9504, 37.1840052, -3.30373004, 8.84311075
9505, 36.9853935, -1.91893801, 8.54248209
9506, 34.3005861, -2.68272132, 0.143026562
9507, 37.9544686, 7.78733028, -0.101439984
9508, 30.7378593, -18.7325329, 6.05148212
9509, 30.4738885, -18.8216706, 6.05168661
9510, 37.9145996, 1.665306, -6.73748651
9511, 37.9272039, -1.09159132, -7.56053973
9512, 35.0143864, -17.7242101, 8.12323141
9513, 19.7613232, -17.0478522, 3.49293043
9514, 12.1050471, -20.8836395, -7.19096151
9515, 12.5119766, -20.8839887, -7.50121321
9516, 37.9066639, -7.04713623, -1.45947926
9517, 23.5534797, -24.0944517, -3.2964482
9518, 13.0229194, -19.3865482, -7.49200906
9519, 12.7522554, -18.7530067, -7.35606826
9520, 13.0280345, -18.7609451, -7.4824729
9521, 34.9516275, 4.49558074, -7.5485437
9522, 36.9491162, 4.76061298, -7.38644879
9523, 23.8304855, -23.196325, 3.74602614
9524, 15.837643, -18.0283034, -5.10263138
9525, 36.9401925, 4.50124877, -7.54573397
9526, 24.0162624, -18.7186471, -5.90903536
9527, 9.70818695, -19.5294083, 3.94505574
9528, 39.928098, -0.294487889, -3.5794326
9529, 36.6712718, -22.8207693, -4.14794256
9530, 36.4670599, -22.1581641, -4.16226899
9531, 36.9633965, -22.1108222, -4.02857072
9532, 36.9551848, -22.4876284, -4.25232632
9533, 36.7460967, -21.8082054, -4.26877961
9534, 36.4606327, -22.5197566, -4.38594915
9535, 37.2737267, 3.58578512, 6.53501534
9536, 24.605913, -19.2940067, 3.74808982
9537, 24.7081471, -20.2627406, 5.04029906
9538, 39.7344684, -2.31848664, 5.14189493
9539, 37.9066832, -0.577572886, -7.73662214
9540, 38.0213224, 3.48199029, -6.5747543
9541, 37.7581163, -0.0275672467, 8.94414751
9542, 36.2783739, -0.0160660888, 9.04314045
9543, 36.9488818, -0.920307485, 9.00153575
9544, 35.488759, -0.933325606, 9.11447056
9545, 20.4822175, -24.1603589, 1.26279493
9546, 21.4436922, -17.4997138, 5.40409948
9547, 31.0031846, -20.732277, -7.60424186
9548, 35.4934813, -23.9064397, -4.15618491
9549, 36.9409596, 4.22677295, -7.69423578
9550, 13.4748395, -24.6023397, -1.77013674
9551, 35.4869846, -23.9034786, 2.13454185
9552, 35.7023915, -23.7678902, 4.16467218
9553, 35.4930692, -23.9076184, 4.15291527
9554, 34.7251253, -17.6723519, 8.89998333
9555, 37.7478013, 1.14550265, -8.79138086
9556, 37.8960037, 0.512954423, -7.69899958
9557, 33.5809804, -19.1994487, 6.38669784
9558, 32.7465386, -19.2711495, -0.0700498346
9559, 34.4861079, -18.9415277, 7.97978492
9560, 35.2886017, 2.27054565, -7.06286896
9561, 38.0145315, 3.5908681, 0.514525154
9562, 38.0240523, -3.60713541, 0.515547751
9563, 9.83059308, -19.0721661, -0.643520164
9564, 35.4597686, -1.4936387, -8.93562774
9565, 34.307542, -1.68536376, -8.42966738
9566, 34.2777971, -0.605907358, -8.98146609
9567, 34.9036142, -18.498985, 8.65038353
9568, 34.2772178, 2.86691615, 7.55161236
9569, 35.3018529, 2.24239804, 7.11417029
9570, 14.373374, -18.9836284, 0.746162865
9571, 8.97084862, -19.2524913, 1.97749417
9572, 9.04213958, -19.2456566, 2.2956307
9573, 14.0097157, -17.0255369, -1.63810363
9574, 34.2827535, -2.65842681, 3.93618095
9575, 36.9974709, 1.77656588, 8.5615706
9576, 35.0492537, 1.51649761, 8.64055229
9577, 39.4965196, 3.98258623, 5.47010683
9578, 31.982395, -20.6964674, 7.33320054
9579, 36.0080505, -16.0397323, -8.19207829
9580, 35.8652383, -16.1703059, 7.3004003
9581, 37.0963646, -15.5444031, 7.3609331
9582, 36.1831012, -16.0470961, 7.95383339
9583, 36.987091, -5.75607936, 8.862058
9584, 36.9870122, -7.63266398, 7.19634682
9585, 36.9296826, -3.46222801, -5.41882372
9586, 38.5018781, -4.36751181, -5.24375527
9587, 37.6003615, -20.5532731, 4.15457869
9588, 12.7132644, -20.0911568, 6.18504676
9589, 37.6020476, -20.5531777, -4.14977251
9590, 36.7488147, -16.0593506, -8.84952801
9591, 37.0459098, -19.380104, -4.51438476
9592, 36.6255475, -19.6815043, -4.6418946
9593, 35.5205096, -16.8339871, 8.13853796
9594, 37.5973318, -20.5551165, 2.13213886
9595, 25.9561921, -20.25719, -8.52216742
9596, 27.6391477, -20.7972152, -7.25344274
9597, 27.011664, -20.2611786, -6.26686879
9598, 37.5943728, -20.5563451, -2.13387731
9599, 16.662529, -19.8913011, -8.83342921
9600, 17.0890978, -20.8864678, -8.93692388
9601, 17.7332329, -19.9150748, -8.89917027
9602, 34.2677079, 3.1406093, -7.05244802
9603, 40.0087539, 1.34392665, 5.09949698
9604, 39.7205063, 2.05327625, 4.79562389
9605, 36.6618689, -22.8148647, 4.13816169
9606, 36.9625071, -22.1152779, 4.03035194
9607, 36.7462816, -21.8111109, 4.26521029
9608, 36.954295, -22.4890032, 4.25184266
9609, 36.4468931, -22.5166523, 4.37968561
9610, 36.5154921, -23.0123941, 4.13987599
9611, 36.5133666, -23.0125947, 2.13025928
9612, 16.107107, -18.7819684, -4.84882741
9613, 36.5147895, -23.0126006, -4.13982375
9614, 14.9080038, -23.8941748, 3.51664089
9615, 33.8759034, -19.8597274, 8.83274604
9616, 26.7136399, -20.2573059, 4.99891693
9617, 10.3023241, -19.2622188, -4.49112825
9618, 35.2804982, -18.8722399, -6.39211662
9619, 34.2839393, -0.0169668901, 9.04867266
9620, 32.3972861, -17.8412349, 5.88671508
9621, 32.5937788, -17.6431381, 5.88649261
9622, 31.6792147, -18.1456818, 6.05176831
9623, 31.8757402, -17.947204, 6.05155449
9624, 32.0162037, -18.5698692, 7.18626273
9625, 16.267656, -20.861532, -9.00621422
9626, 36.7815232, 7.71269519, -4.06354226
9627, 34.7912516, 7.5643239, -4.34041647
9628, 13.3035363, -24.2632962, 1.85745337
9629, 37.9763703, 7.52187753, 0.899185591
9630, 12.9891046, -20.8871348, 7.71139278
9631, 33.7093442, -17.7031974, 8.32433157
9632, 37.005647, 2.06297291, 8.47541718
9633, 34.0453385, -19.8510306, -8.85738711
9634, 37.8318187, 0.421113293, -4.28301653
9635, 38.4119005, 0.279383925, -4.24289055
9636, 40.0893661, -6.52784766, 1.50522986
9637, 19.5180772, -17.9945416, -6.03554961
9638, 33.9724694, -24.4032739, -4.06034365
9639, 26.5040352, -19.2724891, 0.592332938
9640, 26.7151628, -20.2540216, -5.00557542
9641, 34.2754077, 1.95667279, 8.18294007
9642, 34.2780125, 0.916343866, 8.76070535
9643, 35.0325137, 1.75379707, 8.24676811
9644, 35.2887673, -24.0395633, 4.16816696
9645, 35.2754203, -24.0279721, 2.13289816
9646, 36.975681, 8.43702078, -2.30875522
9647, 34.9675401, -15.797051, 7.88070537
9648, 40.1023497, -7.27304632, 1.62540272
9649, 20.3815912, -17.2962503, -5.88699475
9650, 35.2879022, -24.0414432, -4.16796527
9651, 31.5467764, -18.962579, -8.92719889
9652, 31.764484, -18.9179096, -8.92716929
9653, 39.958876, 2.30326196, 3.55459105
9654, 36.9781954, 1.48441141, 8.62620089
9655, 35.263312, -0.894234914, 8.3432163
9656, 36.9485496, 5.01271775, -7.21003465
9657, 37.040479, -19.3820544, 4.51501179
9658, 36.9835711, 2.49998709, -8.2530967
9659, 15.1972781, -17.0600065, 3.55233204
9660, 30.29852, -19.4936756, -8.36026963
9661, 35.0055817, -14.6792421, -7.99450074
9662, 34.2817449, 0.621297804, 9.06435812
9663, 16.4893222, -19.0649077, -7.45599703
9664, 36.9762065, 2.20633883, -8.35729018
9665, 31.7640686, -20.6964255, 8.88276033
9666, 32.1112969, -20.157983, 8.54079285
9667, 32.3297799, -20.6970423, 7.92642694
9668, 34.2753319, 1.19108388, -8.88476373
9669, 15.425956, -23.6473306, -4.05799735
9670, 14.92015, -23.892384, -3.52355886
9671, 21.8941819, -20.2606607, 8.89573418
9672, 36.9910722, -15.1778047, 8.78798559
9673, 19.1440386, -19.0855357, -6.70151252
9674, 37.0014455, 8.42510622, 2.12243331
9675, 21.7787033, -17.508562, -5.65685143
9676, 13.3241803, -24.378671, -1.83472272
9677, 12.9148642, -18.8730839, -5.42562035
9678, 12.3948747, -17.5195541, -5.0456948
9679, 36.9925793, 8.23082841, 2.70845152
9680, 39.9061178, 0.477406035, -3.65484938
9681, 17.200039, -17.2973741, -7.57743014
9682, 17.5007452, -16.9731555, -7.63798174
9683, 11.7691468, -19.5698339, 6.59822817
9684, 35.2727486, -0.582788165, -8.4377572
9685, 36.7728107, 7.84509736, -3.78505264
9686, 37.3917459, 4.78008641, -5.54665456
9687, 36.9998905, 2.36160011, 8.3880227
9688, 37.0148198, 8.33440276, 2.4169075
9689, 15.4971997, -21.0677819, -3.98099501
9690, 21.00039, -19.22, -7.46606334
9691, 20.8468853, -20.264404, -7.87249517
9692, 21.9538806, -20.253752, -7.66453973
9693, 36.9645316, 2.7874902, -8.14785633
9694, 20.859118, -19.0097104, 7.08468884
9695, 34.2731074, 1.96976144, -8.28512584
9696, 34.2901161, 2.70151438, -7.35079363
9697, 13.134339, -20.7811195, 6.83517228
9698, 19.3126383, -19.0604409, -6.12612211
9699, 18.8379868, -16.9942556, 5.10716196
9700, 19.5389425, -17.2755884, 4.77680973
9701, 36.9485172, 5.24297479, -7.00574775
9702, 27.0635688, -19.6384419, 8.51312889
9703, 25.9629712, -20.2582235, 8.52418626
9704, 27.0153285, -20.2601296, 6.2638286
9705, 27.9166271, -20.882183, 7.25124359
9706, 17.7930027, -17.2942097, -7.54112238
9707, 10.9451897, -17.5149589, 2.24280178
9708, 11.7386871, -18.0233904, 2.20372786
9709, 35.5882667, -18.2063463, 6.10788361
9710, 35.4953788, -18.3075158, 6.1098796
9711, 35.1043209, -18.2095294, 7.50683257
9712, 35.2599661, 8.27779946, -1.07947481
9713, 34.2953657, 8.5034576, -1.7719222
9714, 40.0365463, -1.34500369, 5.09973636
9715, 39.7373672, -1.98199064, 4.73967031
9716, 13.3898375, -24.0391493, 2.14613945
9717, 18.0470986, -19.089486, -7.73713596
9718, 18.5021463, -19.0591685, -7.47928603
9719, 34.2992799, 6.6947305, -3.03877296
9720, 34.6242272, -19.4831571, 7.39437054
9721, 31.4242074, -20.695935, 8.2868873
9722, 33.989549, -16.4440108, -8.29993954
9723, 15.8962428, -19.2647867, 8.534641
9724, 34.7183516, -14.6624313, 8.4081693
9725, 35.3904077, -14.2496626, -8.48628002
9726, 39.8117173, -5.09331153, -2.04960441
9727, 28.7049547, -23.0734317, 3.25289941
9728, 38.2265942, 3.9187602, -7.75329623
9729, 38.23605, 4.2121038, -7.61312539
9730, 38.2331299, 3.89580367, 7.76173205
9731, 38.2383417, 4.18837049, 7.65549044
9732, 38.2774787, 5.94489619, -6.41534292
9733, 38.277824, 6.12071445, -6.19356859
9734, 28.9858682, -20.497936, 3.11704377
9735, 23.8310077, -18.4970286, 1.75079914
9736, 23.9764449, -19.1231295, 1.66138019
9737, 10.4457078, -19.1116977, -1.46077842
9738, 35.0771301, -15.8087976, -7.07751735
9739, 34.0080678, -14.8738979, -5.94934975
9740, 34.9742318, -14.9929586, -5.87881088
9741, 35.8379999, -14.7233667, -7.23905941
9742, 34.7666059, -13.7912863, -6.11184634
9743, 34.869835, -14.6080174, -7.30988555
9744, 35.2859263, -1.56745422, -7.95633569
9745, 34.3602552, -23.7601991, 4.63807125
9746, 34.1484043, -23.986224, 4.65918515
9747, 34.3294228, -23.9305741, 4.66255394
9748, 13.230815, -20.3976473, -3.55836505
9749, 35.879504, -14.5703374, 4.64563977
9750, 35.9336775, -14.1819526, 4.5127624
9751, 34.7027678, -14.8033422, 5.76133067
9752, 17.905482, -19.2383042, -4.29732374
9753, 23.0682608, -19.9996427, -5.81479463
9754, 34.3287938, -23.9300764, -4.66236444
9755, 34.1470606, -23.9861225, -4.6589924
9756, 34.3600227, -23.7595389, -4.63834348
9757, 32.0155512, -18.1745598, -8.98450672
9758, 31.9335043, -18.8492921, -8.41178921
9759, 16.736368, -20.3968281, 8.86799801
9760, 37.5313831, -14.3649485, 8.19513777
9761, 19.1480774, -19.1048487, 5.3840032
9762, 10.9595894, -19.1015996, -1.75419035
9763, 10.2030642, -18.990368, -2.26272138
9764, 15.1407886, -20.4914373, -4.32755123
9765, 13.9146747, -20.4013685, -4.2369977
9766, 13.9619266, -17.2783355, -1.38994426
9767, 15.9205608, -19.1055775, -5.14857931
9768, 31.9523727, -18.1782246, 5.88577331
9769, 31.6092001, -18.9932085, 6.1625058
9770, 14.1466426, -20.7813425, 7.42177412
9771, 13.6628339, -20.7801333, 7.13760005
9772, 14.3085031, -20.7848571, 6.49214029
9773, 33.007801, -21.2081044, -5.61650045
9774, 16.1547142, -16.9922081, 5.09961666
9775, 15.4793868, -17.2791802, 4.7254522
9776, 38.4799037, 7.46208951, 1.30061725
9777, 38.9468887, 7.16910571, 1.72678526
9778, 38.9397219, 7.55960166, 1.19766297
9779, 16.9837278, -19.081886, -7.70093711
9780, 33.7442333, -24.4642324, -4.05143345
9781, 35.0020411, -5.56389877, 8.27164401
9782, 38.2672735, 5.27757371, -7.04346205
9783, 38.2736357, 5.52136023, -6.85486052
9784, 38.2699573, 5.51929349, 6.8543626
9785, 38.2649517, 5.27519038, 7.04401538
9786, 33.9710935, -24.4018611, 4.05827337
9787, 33.7434957, -24.4642119, 4.05077554
9788, 27.0177695, -20.0788614, 0.204904011
9789, 36.3526985, -16.0782269, -7.60249947
9790, 37.0037047, -15.1044365, -6.94896718
9791, 24.3865532, -17.0039724, -1.84188517
9792, 24.699938, -17.2819863, -1.76795167
9793, 24.9098285, -16.9914261, -1.52479178
9794, 34.7398322, -18.2077617, 8.04983905
9795, 34.2902796, 8.79506636, 1.50562827
9796, 13.8783219, -20.2709153, 8.73984507
9797, 14.5863093, -20.8897215, 8.54612789
9798, 14.0088661, -20.8891971, 8.30573754
9799, 33.4974347, -18.0517671, 7.65887743
9800, 34.7283637, -19.0080152, 6.47620447
9801, 34.8152785, -19.4127867, 6.76588167
9802, 39.5004855, -4.293442, -5.65656594
9803, 13.9776534, -18.2309006, 5.55185047
9804, 34.7662492, -15.4064425, -9.0089566
9805, 31.9772068, -19.5132661, -8.12607916
9806, 28.706151, -20.5414537, 0.742637615
9807, 32.8063886, -19.128713, -5.24518676
9808, 31.7924816, -18.4368702, -5.69921341
9809, 37.7490426, 8.61132376, 1.70091962
9810, 33.5064171, -24.4922766, -4.04290829
9811, 17.5019796, -16.9986308, 3.91392845
9812, 28.7121084, -20.5392618, 3.12138254
9813, 40.0119517, -0.000987104549, 3.91420684
9814, 33.505062, -24.493663, 4.04274919
9815, 37.3402015, -21.2150355, -4.05326296
9816, 13.1973041, -17.5032644, -5.64005417
9817, 34.0984279, -19.7265328, 8.8324627
9818, 37.7375766, 2.78650401, -7.84276401
9819, 37.739715, 2.03153166, -8.60337372
9820, 24.3451418, -24.2217454, 3.07557782
9821, 24.9702091, -19.0816612, 1.09863955
9822, 34.2676244, -19.7181576, -8.85657446
9823, 17.922047, -16.8322755, 7.48934334
9824, 24.8171583, -20.2317595, 6.30845564
9825, 23.0583831, -20.2322987, 7.9502405
9826, 22.2515406, -18.7502148, 7.39360165
9827, 23.1591505, -19.9518296, 7.06198214
9828, 34.9631977, -16.5016221, -8.29846431
9829, 35.328365, -18.5035201, 6.12133095
9830, 35.0287262, -17.5996663, -7.98085063
9831, 33.1749059, -18.0267106, 8.29694191
9832, 14.5671267, -19.7826995, 7.15831022
9833, 31.4880962, -18.600155, 8.4260358
9834, 40.1181707, -0.417608918, 7.47587587
9835, 34.4991004, -16.6879484, 7.74595258
9836, 37.9319845, 1.30256907, 7.21263705
9837, 8.58466482, -19.8888013, -0.588065211
9838, 8.04074006, -20.2760128, -0.00333359261
9839, 8.56254697, -20.4704366, -0.117092977
9840, 33.8982035, -17.5325079, -8.49771799
9841, 38.2507791, 0.933834106, -8.6836304
9842, 38.2578467, 0.605528367, -8.6887885
9843, 25.1202022, -20.2642132, -7.51662099
9844, 25.0811559, -20.2758379, 7.56989996
9845, 37.7730315, 7.8112705, -3.18613971
9846, 24.4806291, -17.5210978, 2.21723922
9847, 32.1824342, -18.0200128, 5.8859832
9848, 31.4654052, -18.3246966, 6.05085492
9849, 23.0986284, -20.232867, -7.90104373
9850, 24.8618403, -20.2325097, -6.25943683
9851, 23.1943976, -19.9515897, -7.01826142
9852, 22.2440445, -18.7509442, -7.39427848
9853, 37.2152499, 4.48853035, -6.67405374
9854, 11.6545732, -19.5720499, -6.42459408
9855, 38.4564671, -7.36397726, -1.5253506
9856, 38.7868952, -7.47641572, -1.32488326
9857, 20.7544324, -19.2591207, 7.95983586
9858, 21.9675474, -20.243092, 7.64787857
9859, 13.5070177, -17.5122005, 5.46254033
9860, 37.0871582, -21.9000506, -4.02956293
9861, 35.3953629, -18.5703767, 8.65034426
9862, 38.4263891, 6.3143351, 1.77161494
9863, 37.8296416, 6.42946336, 1.72779158
9864, 11.5356024, -19.573615, 6.39364621
9865, 38.0319025, -7.28234137, 1.26787705
9866, 13.6764444, -18.7329808, -1.33344362
9867, 32.809342, -19.1290952, 5.2467305
9868, 9.1810794, -19.3591336, 2.78481559
9869, 9.17806856, -18.7266206, 2.76150287
9870, 37.0866164, -21.9016343, 4.0267572
9871, 27.9418212, -20.2587406, 4.87916675
9872, 16.1142677, -18.6976891, 7.32165698
9873, 19.2720605, -19.719856, 8.52779547
9874, 18.2823145, -19.7603487, 8.99859504
9875, 12.9086449, -20.1663195, 7.31008185
9876, 8.5736415, -21.0579522, 0.827322888
9877, 39.4770616, -6.96963657, 2.22319145
9878, 16.879439, -19.2456322, 8.95014848
9879, 17.2052268, -19.2230718, 8.92691742
9880, 32.9890323, -24.5722131, -4.46119339
9881, 12.9085432, -19.5373147, 7.31601947
9882, 12.652495, -19.5364475, 7.14071111
9883, 38.9763252, 5.77147979, 2.199806
9884, 39.48285, 6.5744547, 2.22020977
9885, 35.8390705, -22.7868766, 4.62451231
9886, 36.1073464, -22.185479, 4.63388177
9887, 38.2523389, 0.930334043, 8.6922433
9888, 38.2598745, 0.593262623, 8.70235231
9889, 36.1069284, -22.1827301, -4.63831758
9890, 35.831894, -22.7703221, -4.62868052
9891, 34.5627155, -14.1127558, 8.4081902
9892, 8.61491963, -19.2568519, -0.883675611
9893, 37.1508552, -19.2886397, -4.50829068
9894, 16.4174224, -20.994003, 8.84875468
9895, 37.1070706, 5.97799592, -5.45042537
9896, 37.0956493, 6.17257484, -5.21387432
9897, 31.6628664, -18.8222903, 8.42621974
9898, 16.9652491, -19.2190435, -8.83241859
9899, 18.0655692, -19.2277991, -8.86081675
9900, 38.341269, 7.25179135, 1.67129073
9901, 21.0753901, -17.2620951, 5.61749752
9902, 37.9872925, -7.35124823, -2.32509823
9903, 37.9902011, -6.88731735, -3.49446993
9904, 37.2734186, -21.4467401, -4.03029341
9905, 37.3429593, -21.2106582, 4.04341575
9906, 37.273462, -21.4484611, 4.02871537
9907, 37.8156085, 7.34920469, 1.24016599
9908, 8.57031978, -19.2674016, -0.282473915
9909, 13.5241966, -20.8886965, 8.02346522
9910, 35.0413628, -18.770491, 6.22619531
9911, 37.1488331, -19.292701, 4.50737366
9912, 37.1351099, -20.4827361, 4.64717979
9913, 37.1367756, -20.2751316, 4.6420977
9914, 37.1913598, -21.6777172, -4.03049215
9915, 8.53589993, -21.0627637, 0.190778604
9916, 37.1348956, -20.4827459, -4.6376632
9917, 37.1364284, -20.2774757, -4.63299571
9918, 10.1654848, -17.2976007, 1.58820981
9919, 38.4673491, -7.51466994, 1.25126387
9920, 38.5652228, -7.155286, 1.71416992
9921, 38.9682565, -7.53713811, 1.26336472
9922, 29.8988193, -20.7335342, -8.36171145
9923, 37.1913059, -21.6795353, 4.02823752
9924, 23.0904851, -18.8050542, 1.74407238
9925, 15.3153775, -24.2001713, -4.15998084
9926, 38.4364277, -0.788025153, -7.77574953
9927, 38.4122552, -0.534147424, -7.46032866
9928, 38.0022759, -0.531145143, -8.12842694
9929, 31.3198769, -18.8856729, -8.927192
9930, 31.0721001, -19.072592, -8.92729852
9931, 33.6736282, -17.0387729, 7.69719228
9932, 31.6928433, -18.622341, 8.42601504
9933, 30.6962939, -19.5444997, -7.787345
9934, 16.6659711, -19.2315219, -8.80463546
9935, 34.18397, -16.7659486, -7.03607842
9936, 35.1520743, -16.8802423, -6.9656576
9937, 34.8075638, -16.8403901, -7.5542921
9938, 35.701304, -15.8831594, -7.59558994
9939, 34.7328906, -15.7693888, -7.66693765
9940, 38.575689, 0.0151047701, -3.42044627
9941, 24.6512303, -16.9926518, 1.72728023
9942, 37.7737715, 7.9327715, -2.90554081
9943, 33.9005925, -18.9806023, 6.11678121
9944, 19.859737, -18.7636215, 8.39540224
9945, 23.9069057, -16.9979387, 1.56097807
9946, 24.6956818, -18.0028153, 1.69181176
9947, 9.13210007, -18.7646778, 4.48001895
9948, 12.6473931, -19.2911628, -6.29917716
9949, 8.8760571, -19.2465373, 1.69933871
9950, 34.617727, -23.6015556, 4.64114501
9951, 34.5145474, -23.858311, 4.6465963
9952, 11.3050263, -19.5801908, 6.18518118
9953, 34.5140171, -23.8579611, -4.64704125
9954, 34.6169143, -23.6009234, -4.64088386
9955, 34.339503, -16.4270931, -7.78025423
9956, 34.2453436, -15.7654064, -7.83301145
9957, 18.0685479, -20.5094331, -8.87729428
9958, 11.8722803, -19.5532216, -6.63968269
9959, 13.1858451, -19.2726849, 6.62011224
9960, 9.7037731, -18.9935243, 2.03588245
9961, 34.4139452, -17.4985905, -7.66714778
9962, 39.1025975, -7.31444052, 1.63151567
9963, 33.9534267, -13.7764689, 4.7499671
9964, 33.4123609, -17.4783885, -8.33294012
9965, 21.2619514, -18.2141593, -6.12458187
9966, 38.0296365, 7.80904176, 2.02461505
9967, 37.7465678, 8.85252966, -1.20710884
9968, 37.7776479, 8.261548, -2.09343326
9969, 23.9514842, -18.9254215, -4.60724768
9970, 13.0246686, -18.7548488, 8.37207507
9971, 13.0327963, -18.7586443, 7.51063526
9972, 13.0200148, -18.7678932, -8.3679156
9973, 21.9080444, -20.2645533, -8.9045646
9974, 38.2617097, 7.92838828, -3.56747347
9975, 38.2288941, 7.75953847, -3.85208005
9976, 37.9935154, -0.271816353, -4.25266502
9977, 37.7526253, 8.73323253, 1.10336726
9978, 38.2378823, 8.34411009, 0.470505204
9979, 37.7491931, 8.95633339, 0.0525005724
9980, 37.9816587, 5.75175933, 1.76601129
9981, 37.0843658, -20.682866, 4.67139508
9982, 36.6317552, -21.0650332, -4.63096709
9983, 37.0887753, -20.6814101, -4.66193621
9984, 28.4978271, -20.2010693, 4.87429909
9985, 28.2219242, -20.2379567, 4.87561673
9986, 37.2914995, 7.69098368, 2.22270868
9987, 15.4051329, -24.1392246, 4.0712682
9988, 34.0561132, -16.9845658, 5.98266428
9989, 35.8222071, -17.8911905, 6.10812724
9990, 17.5087245, -18.7419471, 8.72542557
9991, 12.1126054, -19.5551657, -6.83302469
9992, 31.5511072, -18.573616, -5.70319736
9993, 31.2358142, -18.4828693, 6.05086324
9994, 35.4026289, -23.3601431, -4.65527631
9995, 35.6110326, -23.6358079, -4.50451629
9996, 35.4180402, -23.5781267, -4.60985699
9997, 35.8046415, -14.8420986, -4.63259436
9998, 35.8751814, -14.5734814, -4.64282283
9999, 36.9445269, -15.493259, -5.77273886
10000, 34.9131467, -15.2634554, -5.87834022
10001, 13.9252418, -18.2133754, -5.8694973
10002, 34.23042, -17.8790385, 4.88953079
10003, 33.940313, -18.139136, 4.99207495
10004, 33.9001381, -17.2148579, 5.98303167
10005, 37.2533688, -15.6476878, -8.84957078
10006, 35.7050593, -15.2284019, -4.76082147
10007, 36.8508067, -15.8736555, -5.88231108
10008, 35.4031663, -23.3626822, 4.65526817
10009, 35.4148034, -23.58249, 4.60791226
10010, 35.6106595, -23.6344088, 4.50143678
10011, 35.2256015, -16.46096, -4.87729812
10012, 35.195498, -16.5069073, -4.87558662
10013, 34.7149353, -15.7851703, -5.87858914
10014, 36.5217672, -16.6441781, -6.00394385
10015, 36.5479229, -16.5957769, -6.00639046
10016, 16.9775325, -18.9881463, -8.01467398
10017, 16.3632941, -19.2437388, -8.78105576
10018, 16.0471629, -19.2454669, -8.75185076
10019, 32.9464133, -17.9184552, 7.68485414
10020, 34.5548627, -17.4568109, 4.8720079
10021, 24.2908337, -20.2602231, -8.49671893
10022, 31.3652254, -19.1283174, 6.16195814
10023, 34.2933685, 8.91615742, -1.54377583
10024, 35.3529587, -23.1817607, 4.63322849
10025, 34.9925583, -23.4256051, 4.62754619
10026, 35.577197, -15.6025228, -4.83920353
10027, 35.4959586, -15.8567928, -4.83981636
10028, 34.8251359, -15.5287288, -5.87937651
10029, 36.7177758, -16.2424863, -5.96594868
10030, 39.8819484, -7.16774183, -1.73197538
10031, 40.0651761, -7.47751034, -1.39523228
10032, 34.9917801, -23.425695, -4.62953035
10033, 35.3486548, -23.1793285, -4.63273052
10034, 21.4118021, -20.2689075, -8.28538528
10035, 31.7287587, -18.4198285, 8.42582952
10036, 37.8017044, -1.00541632, 8.60419492
10037, 37.7385244, 8.94128481, -0.275611027
10038, 37.7441085, 8.91586431, -0.587795065
10039, 24.2414767, -20.2646688, 8.5440443
10040, 32.2384722, -18.0993184, -8.07808898
10041, 32.2292726, -17.9956686, -8.98442464
10042, 32.9668056, -20.98753, 8.882102
10043, 10.1069257, -19.5417721, 2.45194552
10044, 40.0969241, 7.0248894, -1.79949523
10045, 40.0635803, 7.43192655, -1.48959963
10046, 35.4535112, -17.8945713, -5.96227785
10047, 33.6887473, -16.9836917, -5.83665422
10048, 35.219917, -18.2103851, -5.96226537
10049, 35.7667309, -16.9804977, -7.27879249
10050, 34.8713648, -17.9419737, -7.23519465
10051, 35.4221964, -16.9419098, -7.86788763
10052, 36.3480417, -16.9347763, -6.00359076
10053, 37.1182476, 5.54144297, -5.88085528
10054, 9.13046122, -18.767755, -4.47686269
10055, 10.1317012, -19.2476468, -4.21652858
10056, 37.9193224, 0.424989313, 7.730938
10057, 35.1947433, -16.507525, 4.87345369
10058, 35.225378, -16.4617382, 4.8753341
10059, 34.4419539, -15.5957235, 5.761003
10060, 36.2734514, -16.4088731, 5.88804438
10061, 36.2470609, -16.4566612, 5.8873091
10062, 34.676752, -18.768007, -6.08205698
10063, 34.9597898, -18.5029725, -5.97607853
10064, 33.9464048, -15.1457135, -5.94937623
10065, 35.4870181, -15.8611372, 4.83933507
10066, 36.5763019, -15.6870845, 5.75938698
10067, 36.4410811, -16.0538938, 5.84792505
10068, 34.5521494, -15.337878, 5.76024008
10069, 21.2562498, -17.2684036, -6.13343899
10070, 35.1282263, -18.3121066, -5.96209481
10071, 34.8281568, -23.8519606, 4.30216813
10072, 34.4353207, -23.21223, 4.64378897
10073, 34.639404, -15.0738982, 5.7592697
10074, 30.9942955, -18.6190934, 8.42603329
10075, 34.0837783, -17.1054807, -8.24720437
10076, 34.4347193, -23.2120651, -4.64351986
10077, 34.8265974, -23.8522073, -4.30249142
10078, 38.2420959, 4.4656537, 7.50813425
10079, 38.2458863, 4.74526545, 7.35031559
10080, 37.72853, 1.73408954, -8.68588924
10081, 34.2317923, -17.8779787, -4.89144074
10082, 33.5322446, -17.2137864, -5.83648669
10083, 35.245689, -16.6888101, 6.99240915
10084, 35.9952937, -17.6007095, 6.10909678
10085, 35.6128048, -17.3168175, 7.52347943
10086, 33.2579997, -24.0237258, -4.5352287
10087, 34.3105195, 9.0682124, 0.331441869
10088, 33.6730077, -23.9893444, -4.53220661
10089, 33.7115742, -24.3269313, -4.3953656
10090, 33.5862883, -24.1845537, -4.49116851
10091, 9.41012058, -18.7331844, -3.32647121
10092, 37.4008847, -18.9833639, -4.51386324
10093, 33.6718837, -23.9885521, 4.5311823
10094, 33.5810636, -24.1852158, 4.49095076
10095, 33.7107385, -24.3265585, 4.39411557
10096, 38.2598559, 5.00423069, 7.18526905
10097, 37.1592414, 4.92267416, 6.39863005
10098, 34.054669, -14.5974572, -5.94930846
10099, 13.1653555, -19.5376496, 7.49116082
10100, 37.7754725, 0.541242296, -8.85224305
10101, 37.782803, -0.575934103, -8.88155632
10102, 9.30042926, -18.7207749, 3.03569657
10103, 33.0064354, -17.9178867, -7.36868565
10104, 33.9283257, -17.4443531, -7.50253884
10105, 32.8209282, -18.3446, -7.61977281
10106, 13.9824033, -18.9818066, -6.55501155
10107, 37.760563, 0.843268259, -8.81526805
10108, 37.7615465, 8.14046226, -2.36995773
10109, 37.765753, 8.04514461, -2.64413579
10110, 37.3997282, -18.9847611, 4.51331238
10111, 37.8078485, -1.0036778, 8.60405601
10112, 24.8402373, -18.5815519, 1.55747408
10113, 37.7460458, 8.52814258, 1.98494688
10114, 35.2417545, -23.4940459, 4.64413929
10115, 35.242239, -23.4930578, -4.64495614
10116, 34.5912014, -17.1715981, 7.1310158
10117, 33.4613265, -17.3869902, 7.03236646
10118, 34.2243417, -17.171521, 7.6724077
10119, 36.0735616, -17.1369551, -7.8748882
10120, 32.8405163, -17.4623936, -9.04196986
10121, 18.4444549, -19.0030565, 7.78938216
10122, 17.5285896, -19.0297589, 8.15504786
10123, 33.7890595, -16.0718771, 8.27333141
10124, 35.7249857, -17.6887288, 7.81609284
10125, 33.3027043, -20.9587539, 7.63542741
10126, 17.1861062, -18.766484, -9.48617054
10127, 17.1825629, -18.7687145, 9.48601628
10128, 12.4916913, -18.7650201, -8.06275134
10129, 12.4870548, -18.7537327, 8.06142035
10130, 8.01366917, -18.7691064, -0.318977959
10131, 33.8597098, -15.410456, -5.94914051
10132, 33.7490121, -15.6660909, -5.94916081
10133, 37.7403714, 8.66474527, 1.40983572
10134, 38.2362593, 8.31195393, 0.781962342
10135, 34.2793894, -24.1388275, 4.6217259
10136, 9.29415626, -18.7104245, -3.03354179
10137, 37.7593255, 8.46035453, 2.30024088
10138, 34.2840871, -24.1367579, -4.62018859
10139, 33.6546463, -16.31743, 5.89732157
10140, 33.4986632, -16.5481471, 5.8973539
10141, 38.4600448, 7.34661093, -1.5516872
10142, 38.0094157, 8.06225372, -1.52793594
10143, 8.5904624, -19.2488223, -0.584643685
10144, 37.787954, -0.576190072, -8.8805482
10145, 37.8086706, -15.0507446, 5.83129751
10146, 34.2782453, 0.589052205, -9.00342155
10147, 32.425453, -17.7977342, -8.98433548
10148, 9.41116903, -18.7389057, 3.34006833
10149, 26.0884319, -18.7148871, -2.17958566
10150, 34.6354976, -24.1889968, -4.50740766
10151, 34.4807578, -24.0663765, -4.60083027
10152, 38.7230633, 0.282464989, -7.54559976
10153, 38.4354785, 0.550773713, -7.4655832
10154, 38.4522601, 7.38889355e-05, -7.59753142
10155, 37.7620163, -0.0294300177, 8.9434363
10156, 37.5593071, -19.9958823, 4.49760866
10157, 37.5599684, -19.9978138, -4.49778445
10158, 24.9541626, -18.2784744, 1.42804342
10159, 17.5055456, -19.2460852, 8.94505861
10160, 34.8430704, -16.0254436, 6.90734596
10161, 35.1533817, -16.205533, 7.60725021
10162, 34.9021844, -17.3516668, 7.83050207
10163, 34.477535, -24.0682654, 4.60067878
10164, 34.6359762, -24.1901761, 4.50670094
10165, 33.8005957, -24.1526982, 4.51729471
10166, 33.8072615, -24.152339, -4.51989508
10167, 37.7403359, 8.89547313, -0.893354697
10168, 38.2791752, 5.74608043, -6.64195027
10169, 37.1057948, 5.76707549, -5.67325605
10170, 10.0922499, -17.0115189, -1.5146183
10171, 34.4186611, -24.266204, 4.50857525
10172, 34.0825135, -15.2166006, -9.00876528
10173, 34.7066455, -14.058821, -8.48584848
10174, 34.2034111, -24.3201588, 4.50662065
10175, 34.335666, -24.4147964, 4.35696364
10176, 34.8264594, -24.092821, 4.50572486
10177, 34.7877579, -24.2528431, 4.34730821
10178, 34.3366819, -24.4132567, -4.35778409
10179, 34.2015277, -24.3200994, -4.50667513
10180, 34.417733, -24.2654502, -4.50854018
10181, 34.7882142, -24.2516167, -4.34848121
10182, 34.8256028, -24.0922381, -4.50584784
10183, 34.6750239, -23.9936996, 4.6276751
10184, 17.504915, -18.552657, -7.6192288
10185, 17.2104007, -18.2650401, -7.56420495
10186, 16.9579323, -18.5323301, -7.40495904
10187, 8.9937039, -18.7178351, -2.19901316
10188, 9.4409036, -18.9875053, -1.52217153
10189, 34.6802901, -23.9911859, -4.62968438
10190, 38.2717317, 8.07713461, -3.32353635
10191, 33.4777229, -24.0087099, 4.53012883
10192, 33.4740448, -24.3536997, 4.39072718
10193, 30.0519819, -19.2773981, -8.35980584
10194, 18.0309591, -18.5501835, -7.42121453
10195, 17.775009, -18.2781557, -7.55473093
10196, 12.5037803, -18.7361842, -7.17805184
10197, 37.7389876, 1.88930097, 8.44365696
10198, 37.7401484, 1.60981034, 8.49637896
10199, 33.4744386, -24.3531839, -4.39182259
10200, 33.4785735, -24.0085545, -4.5307877
10201, 10.1586509, -18.5559794, -1.54425894
10202, 33.8538793, -16.3724289, -7.61520823
10203, 38.2751526, 5.76376681, 6.6698513
10204, 37.7192655, 2.17234627, 8.33488063
10205, 34.0442837, -14.5973473, -5.94928681
10206, 38.4751908, 8.45625159, 0.154177698
10207, 38.2337214, 9.4870996, 0.300717234
10208, 38.2345554, 8.05999851, -5.01349718
10209, 17.5049335, -19.2402472, 8.94572953
10210, 33.3619533, -24.2094358, 4.5072263
10211, 33.6551088, -16.3161049, 8.27316764
10212, 33.3639308, -24.2091101, -4.50769196
10213, 16.9458065, -18.9940827, 7.41377988
10214, 33.8913967, -23.7586879, 4.52221416
10215, 11.0220978, -18.7676259, 1.68557379
10216, 10.6233586, -19.001053, 1.89126902
10217, 33.8947859, -23.7592836, -4.5223474
10218, 36.3925353, -21.4808161, -4.52341832
10219, 36.3807496, -21.8603075, -4.75322614
10220, 10.5913486, -17.5274513, 1.84176176
10221, 36.6436677, -22.0173908, -4.75516392
10222, 36.9403268, -22.1932667, -4.60530363
10223, 36.7530932, -22.2015934, -4.72064738
10224, 15.6546619, -20.880503, -8.90756205
10225, 10.1674617, -19.0046084, 1.63521459
10226, 9.15790697, -18.7172515, -2.77692063
10227, 38.265504, -0.0295678643, 8.73487496
10228, 37.9960364, -0.955751624, 7.78175011
10229, 37.9738651, -0.0206108194, 8.18881355
10230, 33.6088808, -24.4385912, 4.23628769
10231, 38.0047247, 0.500344314, -8.01299285
10232, 11.9870988, -18.7236495, -6.83721929
10233, 11.7407488, -18.7214329, -6.65570059
10234, 33.3593648, -16.5888347, -8.79135407
10235, 33.9959349, -15.4814604, -9.00871505
10236, 33.6115511, -24.4382844, -4.23790425
10237, 36.3768189, -21.8480897, 4.74559181
10238, 33.6613784, -20.717153, 8.87530326
10239, 36.9412658, -22.1929041, 4.60401833
10240, 36.6451039, -22.016915, 4.75400482
10241, 36.7531065, -22.2036075, 4.7206441
10242, 36.1563128, -20.5357993, 4.72975579
10243, 36.9958297, -21.046699, 4.18969742
10244, 39.1047596, 7.01393912, -1.79457567
10245, 33.9708869, -24.0194076, 4.16977898
10246, 9.0597381, -18.7118921, -2.49405233
10247, 33.8851716, -15.7371689, -9.0086508
10248, 11.9721746, -18.7305534, 6.85539387
10249, 11.7253677, -18.7274362, 6.66992193
10250, 12.2832874, -19.3063919, 6.08637987
10251, 36.8260811, -22.3904617, 4.6040171
10252, 36.548268, -22.1859807, 4.75378365
10253, 33.971995, -24.0186381, -4.1709954
10254, 37.0969557, -22.150916, 4.44328771
10255, 37.0413547, -21.9852498, 4.60356694
10256, 35.0725789, -23.5920579, 4.65727489
10257, 34.9100383, -23.6850322, 4.65822049
10258, 37.0411827, -21.984634, -4.60452335
10259, 37.0975762, -22.1484778, -4.44479184
10260, 36.8518614, -22.0235755, 4.72880537
10261, 17.4921792, -17.9539689, -7.62924604
10262, 25.2681534, -18.9828154, 1.94370964
10263, 36.8530734, -22.0188106, -4.7296909
10264, 35.0724311, -23.5918812, -4.6581756
10265, 34.908108, -23.6843521, -4.65956771
10266, 17.2091312, -18.7531468, 8.71671028
10267, 34.3661936, -14.9306222, 6.03380303
10268, 36.8217427, -22.3949547, -4.60361987
10269, 36.5634722, -22.2128141, -4.76183864
10270, 34.3681142, -14.9250022, 8.40764139
10271, 12.7545285, -18.7522547, 7.36509704
10272, 13.4428206, -19.5425993, 7.63219113
10273, 35.1464538, -19.1303784, 8.64926158
10274, 38.0332115, 0.959399364, 7.75497263
10275, 36.8279816, -21.2834157, -4.5421878
10276, 37.1413283, -21.4008691, -4.38231311
10277, 36.9578072, -21.4480779, -4.49107758
10278, 38.2451286, 4.47520526, 8.37202346
10279, 38.2331778, 4.48326323, -8.3662273
10280, 38.2314618, 4.46841006, -7.48863194
10281, 33.7511529, -15.9814794, -9.00857787
10282, 36.8192525, -21.2925583, 4.5368761
10283, 36.9582867, -21.4525289, 4.5031274
10284, 37.1404632, -21.4026535, 4.38110378
10285, 36.1513077, -22.6835742, 4.63841756
10286, 36.1511057, -22.6824508, -4.63806897
10287, 36.9445827, -16.3100975, 8.66595866
10288, 36.02941, -22.8334266, 4.6472547
10289, 36.0204511, -22.8311826, -4.64128044
10290, 24.6618071, -18.2826359, -1.70135348
10291, 24.8713771, -17.9502346, -1.53064207
10292, 34.5816763, -19.4846722, -8.85573428
10293, 9.05974224, -18.7300317, 2.48452899
10294, 10.1340287, -17.9755939, -1.52143705
10295, 10.3361456, -18.25195, -1.71530982
10296, 10.2961954, -17.2754218, -1.76219743
10297, 29.3980651, -20.1965672, 5.87608192
10298, 36.0841781, -23.0421477, 4.60397713
10299, 35.8877535, -22.9713915, 4.65802501
10300, 35.8735544, -22.9649236, -4.63876171
10301, 36.0756995, -23.0396748, -4.61696242
10302, 38.0017116, -0.488490766, 7.41429116
10303, 37.0822412, -22.2760344, -4.2527604
10304, 37.1578052, -16.0281476, -8.84953619
10305, 38.256997, 4.74445567, -7.30848333
10306, 34.6569041, -15.6176651, 7.18175843
10307, 36.644721, -22.3802305, 4.73271581
10308, 37.0821424, -22.2769061, 4.25148555
10309, 12.2215753, -18.7339739, 7.03920353
10310, 12.491305, -18.7422717, 7.19797997
10311, 35.0681028, -23.8104279, 4.63326885
10312, 35.0717578, -23.8073687, -4.63337735
10313, 17.200688, -18.7476555, -8.72420802
10314, 36.7551439, -21.4760961, 4.5312404
10315, 37.0643844, -21.6222142, 4.38020705
10316, 37.0646241, -21.6205515, -4.38207675
10317, 36.7484408, -21.468475, -4.52460262
10318, 36.2520963, -23.090041, 4.48942801
10319, 36.219807, -22.8919715, 4.612377
10320, 37.0300036, -21.2474626, 4.52573103
10321, 18.065608, -19.2223049, -8.85997967
10322, 36.2508317, -23.256746, 4.3323821
10323, 36.0764499, -23.2445358, 4.48628155
10324, 36.5657823, -22.9022959, 4.32957133
10325, 36.5500368, -22.7307539, 4.49424041
10326, 36.408167, -22.9180345, 4.48956125
10327, 35.4266478, -23.7773357, -4.49516038
10328, 35.2516804, -23.699197, -4.60460986
10329, 37.0354001, -21.2378018, -4.52392236
10330, 33.2032989, -16.8196245, -8.79128647
10331, 36.2517074, -23.2550649, -4.3343996
10332, 36.0759117, -23.2436908, -4.48784692
10333, 36.2521744, -23.0891643, -4.49009641
10334, 36.5661136, -22.9007453, -4.32842405
10335, 36.4080732, -22.9167478, -4.48956402
10336, 36.5356276, -22.7349764, -4.48548281
10337, 36.8789001, -21.6482783, 4.49790116
10338, 36.6666039, -21.6504706, 4.52469874
10339, 36.3517504, -22.7290607, 4.61188523
10340, 36.6656583, -21.6484135, -4.52666025
10341, 36.8807466, -21.6424816, -4.50012668
10342, 38.280862, 8.50220783, -2.19969138
10343, 36.356358, -22.723932, -4.61658463
10344, 35.2478952, -23.701752, 4.60386964
10345, 35.4258521, -23.7760388, 4.49446378
10346, 36.2226386, -22.8875718, -4.61244987
10347, 32.9829008, -17.0798682, 8.92476017
10348, 34.2574825, -15.1810246, 8.40784792
10349, 20.0568386, -24.8842568, -3.56231924
10350, 38.2673152, 5.00409082, -7.17566367
10351, 35.232462, -23.9032494, 4.50844722
10352, 35.5761889, -23.8093288, 4.34310608
10353, 35.5787426, -23.8067768, -4.34262166
10354, 34.008455, -14.8729596, -8.32432272
10355, 33.9468152, -15.1448059, -8.32429697
10356, 34.7676206, -13.7877586, -8.48659185
10357, 35.2316634, -23.9036911, -4.50955134
10358, 37.2132822, -21.5561027, 4.22321184
10359, 37.2141243, -21.5525247, -4.22521772
10360, 12.2610491, -18.7165888, -6.99495215
10361, 38.2878853, 8.20371981, -3.03481269
10362, 17.784934, -17.2763276, 7.53777099
10363, 37.3786717, -20.977408, 4.51161028
10364, 37.5253878, -20.9012999, 4.35593845
10365, 37.4336469, -20.7600373, 4.51467616
10366, 37.3780205, -20.978451, -4.50850286
10367, 37.4319803, -20.7574825, -4.50936275
10368, 37.5261998, -20.9010489, -4.36070759
10369, 32.2452969, -18.678014, 7.79827613
10370, 37.2526259, -20.8284289, 4.63668099
10371, 37.2572822, -20.8186058, -4.6243086
10372, 37.4792595, -20.2973281, 4.50593818
10373, 37.475586, -20.3002456, -4.50138285
10374, 19.7493482, -24.8822934, 3.47685733
10375, 33.8544665, -24.4168004, 4.24442261
10376, 33.8574508, -24.4168719, -4.24632953
10377, 34.5597588, -24.3238127, 4.34534184
10378, 38.2352398, 8.36898011, -4.47823534
10379, 34.5608871, -24.3210366, -4.34602925
10380, 31.2374178, -18.4827172, 8.42594147
10381, 33.8602468, -15.4096829, -8.32421752
10382, 33.7494806, -15.665368, -8.32413852
10383, 37.04995, -20.860394, 4.6542768
10384, 37.0574392, -20.8584437, -4.64798598
10385, 37.2890032, -20.6167207, 4.61224707
10386, 37.2875991, -20.6109617, -4.60320747
10387, 38.2801658, 8.33998453, -2.77448811
10388, 38.2274526, 0.319869566, 9.48600257
10389, 38.233157, 0.315515519, -9.48624525
10390, 38.2367482, 5.00505086, -8.06480615
10391, 38.236637, 8.3717308, 4.47274724
10392, 38.2461963, 5.01287783, 8.06149735
10393, 38.2332326, 9.48643631, -0.317438552
10394, 32.2286703, -18.2226275, 7.85032012
10395, 37.3175212, -20.3969413, -4.61189233
10396, 38.2854724, 8.43960528, -2.49453768
10397, 36.9861705, -22.3571763, 4.44118174
10398, 36.9860375, -22.3557974, -4.44321561
10399, 37.3212499, -20.4002198, 4.61881717
10400, 37.4656848, -20.5244906, -4.50127052
10401, 37.4713711, -20.5244786, 4.506866
10402, 38.2869932, 8.18996626, 3.04253423
10403, 38.2604134, 8.07822351, 3.33806102
10404, 32.8060902, -17.2950881, 8.92473567
10405, 38.2514151, 0.305444736, -8.72049901
10406, 31.4668318, -18.3244003, 8.42579808
10407, 38.2556148, 0.269710971, 8.71579556
10408, 36.4159306, -23.0852721, 4.33073371
10409, 36.4166515, -23.0833515, -4.33128858
10410, 38.2727319, 8.44806264, 2.4822539
10411, 38.2787604, 8.32538162, 2.77754931
10412, 35.3810067, -23.9371215, 4.34497472
10413, 35.3818455, -23.9372268, -4.34559844
10414, 37.5872124, -20.4272553, 4.35120842
10415, 37.5847375, -20.4258381, -4.34809867
10416, 17.2175179, -19.0049493, 9.48302354
10417, 35.1801061, -24.0746692, 4.36349459
10418, 35.1807783, -24.0736673, -4.36356771
10419, 37.5524108, -20.6603038, 4.34813133
10420, 37.5500151, -20.6569962, -4.34475532
10421, 37.1220649, -21.7761168, 4.22196577
10422, 37.1231411, -21.7726818, -4.22448272
10423, 37.2806241, -21.327003, 4.22415209
10424, 36.8633987, -22.5575032, 4.44593408
10425, 36.8630956, -22.5564809, -4.44483557
10426, 37.307353, -21.3188801, -4.23840924
10427, 36.9964935, -21.0465427, -4.16793741
10428, 33.3709844, -24.4901812, 4.24040241
10429, 33.3710705, -24.48978, -4.24272984
10430, 34.45488, -24.4070111, 4.16606859
10431, 34.4543566, -24.4056505, -4.16774059
10432, 37.5799968, -20.7937455, 4.16687529
10433, 37.5797202, -20.7960262, -4.16964487
10434, 31.6805579, -18.1454473, 8.42576678
10435, 17.5053017, -18.7486357, -8.73208347
10436, 17.2046193, -19.0050525, -9.48277384
10437, 37.628041, -17.0286885, 4.50806399
10438, 37.6312846, -17.0235694, -4.508337
10439, 37.9950627, 0.274833565, 9.48329099
10440, 37.1856326, -22.0536925, 4.25099897
10441, 37.185528, -22.0528691, -4.25196812
10442, 38.2791807, -0.023964633, -8.7652789
10443, 37.9951167, 0.295981852, -9.48243584
10444, 38.7317062, 2.96237922, 6.7050551
10445, 14.83058, -18.2607076, -7.06424451
10446, 14.6363018, -18.5314395, -6.83108582
10447, 16.2780585, -18.7442808, -8.63872399
10448, 25.0757205, -16.8915328, -0.98043643
10449, 25.0384205, -17.9213292, -1.02942637
10450, 9.98228898, -18.5431624, -1.04111866
10451, 10.0093285, -18.2718562, -1.31089198
10452, 9.97276135, -18.0070594, -1.01927298
10453, 25.0706405, -17.9151513, 1.2003426
10454, 25.086319, -18.2068317, 1.05320007
10455, 38.244818, 1.26344974, 8.65161989
10456, 40.0395933, 7.58995762, -0.961662969
10457, 38.9531742, 7.52038127, -1.03439401
10458, 40.0310211, -7.56052821, -0.990553285
10459, 38.9777597, -7.51849384, -1.01607024
10460, 38.6962757, 7.54194568, 1.05387912
10461, 38.7231903, 7.47608868, -1.24876842
10462, 38.4801534, 7.55181523, -1.02016366
10463, 38.256409, 1.21752545, -8.63956187
10464, 38.7429591, 2.65108674, -7.01538627
10465, 38.5090153, 2.83869888, -6.79608059
10466, 38.0510157, -2.99880195, -7.58497418
10467, 38.0367792, -8.07354177, 0.980218983
10468, 32.0232558, -18.2796897, -5.70510669
10469, 32.2372983, -18.1001633, -5.70458103
10470, 32.4338972, -17.9018039, -5.70390842
10471, 32.4346515, -17.9015147, -8.07791631
10472, 32.6115939, -17.6863686, -8.07770925
10473, 32.6110363, -17.6865773, -5.7038745
10474, 31.2975163, -18.6859146, -8.07851908
10475, 33.6152, -15.9103728, -5.94910395
10476, 33.6155011, -15.9096508, -8.32404084
10477, 34.0446323, -14.5964777, -8.3243166
10478, 33.4991452, -16.5467952, 8.27297087
10479, 33.78842, -16.0732178, 5.89749757
10480, 30.9925676, -18.6192205, 6.05085472
10481, 39.9421581, 0.00158988159, -3.94685473
10482, 37.0411031, -8.1164105, -3.12172782
10483, 8.85999606, -18.7736669, 3.92622412
10484, 13.8903876, -18.7694848, 7.88263276
10485, 38.749104, 7.14539839, -1.7300766
10486, 39.0512085, 7.38192163, -1.46909004
10487, 8.85930153, -18.7737386, -3.92540545
10488, 34.7597808, -19.961755, 2.44341806
10489, 38.0305273, 2.5048567, 3.63723933
10490, 37.5426639, 3.32915155, 3.52682128
10491, 20.1498312, -17.2315936, -7.04335239
10492, 39.4834446, 1.89693595, -6.54903746
10493, 23.5784822, -18.0488121, 1.81921385
10494, 37.2467781, -3.19509128, -4.69771279
10495, 39.895877, -2.6639515, -7.04028853
10496, 15.9646941, -18.7568173, -8.57988015
10497, 21.8973281, -21.3551404, 3.85423145
10498, 38.759902, 2.97932061, 6.30509081
10499, 14.5452221, -18.2343376, -6.65446223
10500, 30.9209721, -23.0876612, 3.25923746
10501, 39.7343183, -5.77964916, -1.61474474
10502, 34.2315481, -17.8803246, 2.51822422
10503, 34.3889766, -17.6502783, 2.51928032
10504, 34.5608781, -17.4615055, 2.50472464
10505, 37.762052, 6.49598953, -3.83619873
10506, 29.386514, -21.9707862, -3.01692559
10507, 17.9095553, -18.2274181, -4.06942652
10508, 35.4403445, -1.85418124, -2.87355702
10509, 34.2795749, -1.94004276, -3.21599484
10510, 35.0192298, -22.3177481, 1.93482348
10511, 35.9788747, -13.9046253, -5.8218582
10512, 22.2437924, -18.036924, 1.78772458
10513, 35.9747056, 7.20384997, 5.09565182
10514, 37.1526811, 4.66942565, 6.57072339
10515, 35.0285864, 2.62791268, 7.41990236
10516, 34.1348473, -23.6042957, 4.5280812
10517, 34.136882, -23.6035059, -4.52825236
10518, 32.9604442, -19.0932449, 2.30478305
10519, 32.7472146, -19.2723047, 2.30425068
10520, 33.3509869, -18.7294218, 4.98729929
10521, 33.56539, -18.5506761, 4.9871672
10522, 34.1538462, -22.3852389, 2.06266576
10523, 34.1557364, -22.3866809, -2.20081455
10524, 35.5393789, -20.6925642, 2.05715183
10525, 37.5212723, -17.7066752, 3.51551018
10526, 35.0598757, -16.7526609, 4.878854
10527, 11.6516978, -19.1004421, 5.20605566
10528, 38.2254393, 3.60176708, 7.85965234
10529, 27.879008, -20.5518668, -0.155509935
10530, 38.9815976, -0.317171534, -3.90853815
10531, 15.6963463, -18.4740659, 5.94407677
10532, 18.4981658, -19.193337, 8.62006668
10533, 35.6945708, -16.2111076, 2.00500413
10534, 35.7065481, -16.2042562, 4.38705217
10535, 35.7011515, -16.4865993, 8.66591883
10536, 35.9829358, 8.00044772, 3.99986676
10537, 36.8285492, -16.8001274, -6.60007051
10538, 11.4562885, -18.0294804, 1.82626547
10539, 9.2110297, -18.7961696, 1.06681574
10540, 34.7615307, -19.965813, -2.58504444
10541, 29.9239931, -21.8024091, -0.62123217
10542, 33.7630142, -18.3579374, 2.61389384
10543, 33.7623524, -18.3529536, 4.98776269
10544, 14.5171248, -19.7140519, -2.08455945
10545, 32.5182939, -19.4309145, 2.30243159
10546, 33.1186436, -18.8858294, 4.99180773
10547, 13.7213467, -19.5471069, 7.77231076
10548, 20.7653039, -19.0809398, -1.86346067
10549, 20.3169339, -18.5228458, -6.79208308
10550, 20.3120741, -18.789928, -7.66886484
10551, 35.8211205, -15.9464141, 4.37250546
10552, 30.0523109, -19.2775531, -5.98383421
10553, 31.3018067, -24.5698401, -3.20952579
10554, 33.9412603, -18.1375774, -4.99316631
10555, 38.2435874, 1.53333451, -8.57997175
10556, 38.2267532, 8.63967766, 3.92699508
10557, 34.3880244, -17.649554, 4.88996705
10558, 33.9400504, -18.1435687, 2.61355198
10559, 37.5506252, -17.6590719, 3.54232029
10560, 10.9757615, -20.7672594, 3.07171546
10561, 34.4470704, -24.3933115, 2.13682311
10562, 38.228262, 8.63825834, -3.93069583
10563, 39.9630308, 2.75570642, 2.65083425
10564, 31.055807, -20.0514781, 2.50035045
10565, 39.0690523, 6.09628284, -1.2691179
10566, 35.9819741, -13.9226345, 2.14344234
10567, 27.9978364, -19.6375447, 7.12815377
10568, 35.0583751, -24.1396454, 2.13273437
10569, 38.9464784, -0.0113057458, -4.21944017
10570, 39.0008232, 5.14561389, 2.49690521
10571, 35.0596666, -24.1394264, -2.13252725
10572, 34.7897782, -18.6625868, -7.87995128
10573, 34.7600197, -19.21545, -7.27233949
10574, 34.8721233, -19.2211482, -8.85574863
10575, 38.2169118, -2.41087743, 8.37484672
10576, 36.9945771, 3.01729826, 7.67313599
10577, 35.8995576, -15.6901601, -4.3798206
10578, 34.0550251, -14.5965634, -8.3243432
10579, 8.91903898, -18.727179, -1.57711546
10580, 9.16173889, -18.8242786, -0.153369954
10581, 9.21492382, -18.8247846, -0.683708894
10582, 8.96719217, -18.7115209, -1.91208888
10583, 36.2082758, -17.6859533, 8.66524286
10584, 14.7441136, -17.0581613, 2.64903312
10585, 35.985902, 6.33238826, -6.1859563
10586, 35.9873424, 6.12815764, -6.41842284
10587, 38.2531502, 6.3314857, -5.9336467
10588, 29.1210398, -21.9993528, -0.629559928
10589, 35.9918451, 6.35022847, 6.26378436
10590, 37.1310776, 5.85415246, 5.59899572
10591, 35.9933898, 5.41489032, 7.0757346
10592, 35.9852197, 7.0035703, 5.34281278
10593, 36.6588958, -22.8142567, -2.12959371
10594, 13.4131393, -24.16552, -2.13130891
10595, 33.1214076, -18.8887191, -4.99081478
10596, 19.8757825, -18.7477534, -8.39674433
10597, 18.0001979, -18.7922147, -8.1427077
10598, 35.9879675, 5.89429181, -6.62116363
10599, 36.0380312, -5.84838413, 7.68673829
10600, 36.09446, 8.58248181, -0.614840231
10601, 36.268024, 9.02291255, -0.942005054
10602, 37.5588492, -20.7970396, 2.13627022
10603, 36.9665012, 3.0760549, -8.01714961
10604, 34.9572039, -19.1375519, -6.6417093
10605, 14.7447229, -19.9585263, -2.7938342
10606, 36.7909174, 7.96357049, -3.49004076
10607, 34.499477, -19.1010733, -8.85664053
10608, 33.9533803, -13.7766181, 7.12510883
10609, 20.4625053, -23.4378941, -4.5750359
10610, 34.9780032, -13.5212457, 7.1299948
10611, 29.2786752, -19.0903708, 7.12559131
10612, 29.0078156, -19.1544621, 7.12489085
10613, 29.6675637, -20.1332425, 5.87833663
10614, 37.7312563, 6.60473996, 4.37470838
10615, 36.7352318, -14.3040869, -6.00508193
10616, 35.9760048, 6.98936347, -5.66821602
10617, 38.2354316, 8.28615381, 1.08462859
10618, 32.6750005, -18.2232956, 8.87244379
10619, 32.6391002, -18.425929, 8.87254446
10620, 32.6091363, -18.6260104, 8.87264923
10621, 35.5129273, -21.776116, -2.07355754
10622, 24.3862435, -17.964765, -1.79950118
10623, 10.8890623, -16.9875498, -1.45111033
10624, 20.1849417, -24.4838922, -3.83245174
10625, 19.8683901, -24.4750811, 3.72703708
10626, 31.2974348, -19.9276955, 5.90917101
10627, 31.0454878, -20.0427703, 5.91036676
10628, 37.7559691, 1.30126762, 8.58459377
10629, 25.2205798, -18.9992522, -3.42375834
10630, 33.741199, -19.232913, -5.92636023
10631, 35.3789688, -16.8230741, -6.07512002
10632, 37.1571504, -16.0293606, -6.47801778
10633, 30.5220196, -20.1987696, 4.86939425
10634, 37.816359, -17.8270911, -3.47874217
10635, 38.2695784, 8.5805497, -1.57877922
10636, 38.2058936, 8.33990731, -0.137675101
10637, 38.1847574, 8.29225865, -0.685274111
10638, 38.2855798, 8.53462385, -1.91068033
10639, 37.7364275, 6.41306555, 4.5975306
10640, 30.5245526, -20.1982448, -4.86927435
10641, 29.5159702, -20.1993259, -5.82912723
10642, 30.784089, -20.13444, 5.91095053
10643, 35.5934805, -16.9382402, 6.02455148
10644, 36.2733024, -22.5303287, 4.6498422
10645, 36.2739994, -22.5321805, -4.63673579
10646, 37.5488853, -17.6376187, -3.50272545
10647, 37.5194135, -17.6846205, -3.47498796
10648, 33.2400682, -24.6637776, 4.65734949
10649, 33.0994621, -24.4531005, -4.7267498
10650, 33.2409342, -24.6643498, -4.65711045
10651, 16.9657122, -19.2135991, -8.8309395
10652, 37.7801419, 0.541132822, -8.84964782
10653, 12.7707066, -20.2529542, -7.67382853
10654, 11.8514426, -20.2536171, -7.02096575
10655, 9.120367, -20.251626, -3.24642974
10656, 20.6524372, -19.5385966, -8.88439329
10657, 20.3938931, -19.238642, -8.39249665
10658, 14.8806724, -20.265448, 8.64371025
10659, 8.73361127, -20.2639678, -2.23263835
10660, 18.0826268, -19.8503554, 8.84874993
10661, 13.2479487, -20.2599466, 7.88835765
10662, 37.5850813, -18.7259954, -4.53055792
10663, 11.0405726, -19.2328648, -5.49170313
10664, 13.7523158, -20.2595079, -8.21212757
10665, 15.3394406, -20.2665283, -8.86085443
10666, 9.93996032, -20.2720436, -4.27231894
10667, 10.2503134, -20.263388, -5.37851571
10668, 11.9843868, -18.7733702, -7.72342154
10669, 11.9704618, -18.7538737, 7.71685978
10670, 8.61070315, -20.5045274, -0.889353883
10671, 17.5163174, -18.8013762, -8.33625059
10672, 15.9710244, -20.2512094, -8.98648634
10673, 11.2696191, -20.2618753, 6.50695335
10674, 11.8799825, -19.1002683, 5.41579118
10675, 38.5369219, -2.69312406, 7.0511242
10676, 38.0594387, -1.22982588, 7.36491694
10677, 20.3785628, -19.003083, 6.75341922
10678, 20.4944813, -18.9960478, 6.21163746
10679, 34.8342501, -19.362591, 8.64293101
10680, 37.0399453, -15.9299592, 8.66615192
10681, 38.9595344, 6.0577159, 1.82966742
10682, 39.4643638, 6.91375864, 1.80022205
10683, 38.5162982, -7.52713892, -1.02128899
10684, 39.0965391, -7.44394338, -1.39712683
10685, 38.3571616, -1.43134415, -6.92014595
10686, 37.2529219, -15.6483148, -6.36959856
10687, 20.4326129, -17.2371425, -6.57830262
10688, 20.4574056, -18.2351204, -6.59388233
10689, 9.59653762, -20.2613562, 4.31803504
10690, 26.3424533, -18.9770707, 0.865310406
10691, 25.6431286, -18.9466373, 3.1065438
10692, 37.5842135, -18.7264419, 4.53030293
10693, 33.4590944, -16.1410889, -5.94897435
10694, 33.7579628, -20.238237, -8.25043312
10695, 33.661152, -20.4467806, 8.25029091
10696, 32.7708803, -17.428071, 5.88641101
10697, 10.7160466, -19.5980979, 5.45689101
10698, 39.4895759, -6.4817958, -3.04473213
10699, 34.2558576, -15.1858114, 6.03368447
10700, 33.0173763, -17.2471314, -9.04196275
10701, 14.0154819, -19.5504932, 7.87831397
10702, 14.0133033, -20.1772107, 7.86661905
10703, 33.0007082, -19.9808839, -8.6985172
10704, 36.6559706, -17.0892321, -8.8493724
10705, 34.3950957, -16.2033523, 8.27351509
10706, 30.0997396, -19.1439971, 8.42626993
10707, 35.0603554, -16.7517574, -4.87627478
10708, 34.5819149, -16.0290018, -5.8785626
10709, 35.5125878, -21.7740478, 1.93555454
10710, 36.2267899, -20.2969929, -4.53786493
10711, 38.2198706, -2.41966932, -8.41875459
10712, 33.1563777, -18.8954368, 2.30540172
10713, 32.9824847, -17.0807488, 6.54959229
10714, 37.0046824, 2.7289139, 7.7804719
10715, 36.397557, -20.1028705, -4.5271965
10716, 35.2802778, -18.8609192, -8.52324837
10717, 36.5433528, -14.5134307, 5.79932729
10718, 35.9820601, 7.1761968, -5.41100126
10719, 35.2155443, -16.864867, -8.95627692
10720, 28.8971039, -20.7359483, -6.10964749
10721, 37.266681, 3.34238298, -7.04309526
10722, 34.9646351, -19.0952087, -8.52218791
10723, 33.4593755, -16.1405682, -8.3238502
10724, 33.2625058, -17.239119, -6.90115881
10725, 30.3070537, -19.1641227, -5.98458365
10726, 32.5939656, -17.642759, 8.26023869
10727, 39.4662729, -5.09666647, -5.04552444
10728, 14.3106286, -19.5519139, 7.98762364
10729, 9.91610542, -16.9536259, -0.967812948
10730, 38.2391522, 8.22873107, 1.36765116
10731, 14.5681105, -18.9897859, -7.44306495
10732, 39.6989692, -4.99044949, -1.27115628
10733, 10.613572, -17.957753, -1.80744978
10734, 10.6029658, -16.9893761, -1.85364789
10735, 30.8255041, -18.8565618, -8.92715998
10736, 37.0050257, 2.4346433, 7.89192683
10737, 9.27188838, -18.7914197, 1.35124027
10738, 35.7791631, -14.9487684, 4.75641031
10739, 38.0245813, 2.92827063, -7.43850268
10740, 35.3915277, -16.1054953, 4.84393983
10741, 35.3920712, -16.1034412, -4.8375896
10742, 35.9206754, -14.2949288, -4.64508797
10743, 38.9664385, 0.51376729, -3.96374033
10744, 9.15481005, -18.8079419, 0.151141479
10745, 38.0327164, 4.92501302, -4.39090787
10746, 24.7016221, -19.0312978, 3.6634633
10747, 28.1083418, -23.4063799, -4.49756041
10748, 34.9306285, -13.7960876, 7.12968829
10749, 35.9491314, -13.7973768, 5.75523942
10750, 32.609929, -17.4930108, 8.92470464
10751, 32.3979978, -17.8404977, 8.26033405
10752, 30.8488015, -19.3329519, 6.16433458
10753, 31.1117432, -19.2427, 6.16375392
10754, 38.2302767, 8.34662552, 0.171177297
10755, 33.1033574, -24.4540834, 4.72476501
10756, 20.4374882, -20.7563301, -8.28875978
10757, 14.0946586, -20.8899243, 8.26465538
10758, 13.5259042, -20.2615552, 8.02703821
10759, 13.8042695, -20.2629464, 8.16588332
10760, 13.2125544, -19.9929029, -7.07826494
10761, 9.79660103, -20.2612064, -3.99845127
10762, 8.56341435, -21.0669403, -0.444954355
10763, 19.4368711, -18.270523, -6.27491694
10764, 15.6590079, -20.2310921, -8.92824447
10765, 18.7835487, -18.7451444, 5.81999366
10766, 25.0271413, -18.587635, 1.25326859
10767, 36.9464297, -16.3107599, 6.2921894
10768, 36.6972902, -16.0459924, 8.66617401
10769, 39.4324625, 7.41907857, 1.51178268
10770, 19.5800273, -17.2586315, -6.26025417
10771, 18.7668245, -17.315161, -6.25703983
10772, 20.1698489, -18.2880973, -7.0719211
10773, 33.7577055, -20.5087341, -8.87533325
*ELEMENT, TYPE=C3D10, ELSET=EALL
4965, 3713, 3683, 3650, 6842, 3891, 3890, 3805, 6905, 6907, 6906
4966, 2857, 3286, 3277, 3293, 6908, 3346, 6909, 6910, 3348, 3347
4967, 1800, 1952, 5364, 6903, 6911, 5379, 6912, 6913, 6915, 6914
4968, 3292, 3291, 3279, 3282, 3358, 3355, 3356, 3341, 3352, 6916
4969, 3291, 3285, 2859, 3278, 3354, 6917, 6918, 3353, 3351, 6919
4970, 5789, 5592, 5795, 5617, 6920, 6921, 5844, 6922, 5685, 6923
4971, 5593, 5965, 5969, 5618, 6924, 6038, 6925, 5663, 6927, 6926
4972, 5355, 5357, 5356, 6887, 5385, 5415, 5425, 6928, 6930, 6929
4973, 6455, 6454, 6452, 6885, 6769, 6768, 6770, 6931, 6933, 6932
4974, 3202, 3195, 3362, 1056, 3223, 6934, 6935, 6936, 6938, 6937
4975, 6043, 5798, 5791, 5797, 6939, 5845, 6940, 6941, 5864, 5849
4976, 5362, 5359, 4541, 6851, 5419, 6942, 6943, 6944, 6946, 6945
4977, 3364, 3500, 3494, 3496, 6947, 3538, 6948, 6949, 3568, 3567
4978, 94, 801, 3415, 3404, 811, 6950, 6951, 6952, 6953, 3432
4979, 4681, 6884, 6865, 6896, 6954, 6955, 6956, 6957, 6959, 6958
4980, 1190, 1405, 1222, 138, 6960, 4241, 4027, 4026, 1406, 1223
4981, 135, 1300, 160, 1285, 6961, 1302, 4017, 4016, 4220, 1287
4982, 1305, 1195, 158, 1282, 6962, 4071, 1306, 4221, 4072, 1283
4983, 140, 1400, 1225, 1191, 1402, 4240, 1227, 4031, 6963, 4030
4984, 1270, 1325, 154, 1194, 4225, 1326, 1271, 4063, 6964, 4062
4985, 144, 1380, 1237, 1192, 1382, 4236, 1239, 4040, 6965, 4039
4986, 1193, 1345, 1258, 150, 6966, 4229, 4054, 4053, 1346, 1259
4987, 1360, 1193, 1249, 148, 6967, 4048, 4232, 1362, 4049, 1251
4988, 3286, 1028, 2857, 3277, 6968, 6969, 6908, 3346, 6970, 6909
4989, 5797, 6043, 5798, 5787, 6941, 6939, 5864, 5863, 6971, 5862
4990, 4674, 4661, 4694, 6884, 4799, 4741, 4800, 6972, 6974, 6973
4991, 335, 1952, 5364, 1800, 1959, 5379, 5375, 6975, 6911, 6912
4992, 4543, 5367, 1577, 6846, 6976, 6977, 4550, 6978, 6980, 6979
4993, 1834, 5546, 6821, 6849, 6981, 6982, 6983, 6984, 6986, 6985
4994, 3197, 2836, 3198, 2861, 6987, 6988, 3256, 6989, 2929, 6990
4995, 4690, 4659, 4691, 6833, 4732, 4792, 4791, 6991, 6993, 6992
4996, 1412, 5876, 5879, 4265, 6994, 5900, 6995, 4269, 6997, 6996
4997, 6481, 6480, 6442, 6854, 6726, 6727, 6511, 6998, 7000, 6999
4998, 1834, 6821, 5021, 6849, 6983, 7001, 5041, 6984, 6985, 7002
4999, 5546, 1834, 347, 6849, 6981, 7003, 5552, 6986, 6984, 7004
5000, 6456, 6442, 6491, 6133, 6508, 6725, 6724, 7005, 7007, 7006
5001, 309, 5021, 1834, 6821, 5042, 5041, 1838, 7008, 7001, 6983
5002, 264, 265, 4660, 4538, 1691, 4719, 4718, 7009, 7011, 7010
5003, 5433, 5598, 5440, 5429, 7012, 7013, 5476, 5495, 7014, 5457
5004, 2276, 2264, 97, 3110, 2355, 7015, 7016, 7017, 7019, 7018
5005, 1950, 5969, 5965, 5618, 7020, 6038, 7021, 7022, 6926, 6927
5006, 3279, 2859, 979, 978, 7023, 2953, 3317, 3318, 2920, 985
5007, 5610, 6043, 1752, 5797, 7024, 7025, 7026, 7027, 6941, 7028
5008, 6470, 6455, 6452, 6862, 6771, 6770, 6761, 7029, 7031, 7030
5009, 3155, 2270, 3156, 877, 7032, 7033, 3167, 7034, 7036, 7035
5010, 6111, 6096, 6102, 6820, 6249, 6334, 6336, 7037, 7039, 7038
5011, 6102, 6130, 6111, 1803, 6350, 6291, 6336, 7040, 7042, 7041
5012, 3199, 3195, 3362, 3208, 3266, 6934, 7043, 3259, 3269, 7044
5013, 4958, 4963, 6865, 6884, 5014, 7045, 7046, 7047, 7048, 6955
5014, 5437, 5615, 1965, 1964, 7049, 5701, 5483, 5484, 5676, 1971
5015, 5792, 5795, 5786, 5596, 5857, 5856, 5835, 7050, 7052, 7051
5016, 6425, 6429, 6431, 6819, 6652, 6655, 6654, 7053, 7055, 7054
5017, 3497, 1045, 3506, 2862, 7056, 7057, 3574, 7058, 7060, 7059
5018, 2857, 3290, 976, 977, 7061, 3310, 2951, 2910, 3309, 983
5019, 4958, 4961, 4963, 6884, 5013, 5015, 5014, 7047, 7062, 7048
5020, 2850, 117, 3493, 110, 7063, 3510, 7064, 7065, 3591, 7066
5021, 2850, 117, 108, 3493, 7063, 1152, 2885, 7064, 3510, 3509
5022, 4543, 5359, 5367, 6846, 7067, 5423, 6976, 6978, 7068, 6980
5023, 3115, 1056, 3153, 6886, 3122, 7069, 7070, 7071, 7073, 7072
5024, 6810, 6865, 6859, 6884, 7074, 7075, 7076, 7077, 6955, 7078
5025, 1962, 5438, 1963, 5613, 5478, 5477, 1969, 5699, 7079, 5666
5026, 5960, 5964, 5970, 6045, 6032, 6027, 6033, 7080, 7082, 7081
5027, 5356, 5361, 5355, 6887, 5403, 5426, 5425, 6929, 7083, 6928
5028, 2850, 117, 3494, 108, 7063, 3511, 7084, 2885, 1152, 3512
5029, 335, 1952, 1800, 6836, 1959, 6911, 6975, 7085, 7087, 7086
5030, 2857, 3286, 3293, 1029, 6908, 3348, 6910, 7088, 7090, 7089
5031, 6429, 6434, 6432, 6827, 6676, 6675, 6674, 7091, 7093, 7092
5032, 5596, 5792, 5798, 5787, 7050, 5861, 7094, 7095, 5832, 5862
5033, 6847, 6859, 4967, 6904, 7096, 7097, 7098, 7099, 7101, 7100
5034, 2264, 111, 97, 3110, 7102, 7103, 7015, 7019, 3117, 7018
5035, 6463, 6498, 6473, 6862, 6766, 6743, 6638, 7104, 7106, 7105
5036, 4958, 6865, 4662, 6884, 7046, 7107, 7108, 7047, 6955, 7109
5037, 2843, 2859, 3285, 3278, 3026, 6917, 7110, 7111, 6919, 3351
5038, 6810, 6865, 6884, 6896, 7074, 6955, 7077, 7112, 6958, 6959
5039, 6449, 6486, 6469, 6862, 6753, 6665, 6756, 7113, 7115, 7114
5040, 6117, 6101, 6092, 4891, 6318, 6317, 6243, 7116, 7118, 7117
5041, 5437, 1437, 1436, 1417, 7119, 1446, 7120, 7121, 4284, 4281
5042, 1056, 3195, 3362, 3199, 6938, 6934, 6937, 7122, 3266, 7043
5043, 6357, 1042, 3073, 3074, 7123, 3100, 7124, 7125, 3081, 3085
5044, 6443, 6482, 6431, 6819, 6688, 6656, 6686, 7126, 7127, 7054
5045, 1056, 3202, 3195, 3193, 6936, 3223, 6938, 7128, 3216, 3265
5046, 2283, 3150, 2263, 2280, 7129, 7130, 2367, 2514, 7131, 2495
5047, 1045, 3071, 1046, 6901, 3106, 3105, 1052, 7132, 7134, 7133
5048, 1058, 3197, 3198, 2861, 7135, 3256, 7136, 7137, 6989, 6990
5049, 2047, 5792, 5786, 5596, 5830, 5835, 5834, 5712, 7050, 7051
5050, 2280, 2283, 3150, 6857, 2514, 7129, 7131, 7138, 7140, 7139
5051, 1950, 5358, 5367, 6890, 5404, 5409, 5408, 7141, 7143, 7142
5052, 3286, 2857, 1028, 1029, 6908, 6969, 6968, 7090, 7088, 1035
5053, 4960, 6859, 6847, 6865, 7144, 7096, 7145, 7146, 7075, 7147
5054, 4681, 6865, 4682, 6896, 6956, 7148, 4810, 6957, 6958, 7149
5055, 2284, 2285, 2264, 6857, 2517, 2400, 2358, 7150, 7152, 7151
5056, 6361, 1627, 6365, 6849, 6411, 6381, 6412, 7153, 7155, 7154
5057, 3288, 3278, 1033, 3281, 3339, 7156, 7157, 3305, 3350, 7158
5058, 5963, 1433, 2085, 2084, 7159, 5654, 6000, 6001, 5655, 2091
5059, 5359, 5367, 5358, 4293, 5423, 5409, 5417, 7160, 7162, 7161
5060, 4967, 6859, 1802, 6904, 7097, 7163, 5007, 7100, 7101, 7164
5061, 3503, 1047, 3494, 3496, 7165, 7166, 3520, 3554, 7167, 3567
5062, 3278, 3285, 2843, 3281, 3351, 7110, 7111, 3350, 3323, 7168
5063, 4682, 4688, 4669, 6896, 4841, 4831, 4840, 7149, 7170, 7169
5064, 2854, 3202, 3362, 1056, 7171, 6935, 7172, 7173, 6936, 6937
5065, 3717, 3663, 3698, 6874, 3899, 3938, 3943, 7174, 7176, 7175
5066, 6443, 6471, 6482, 6819, 6666, 6643, 6688, 7126, 7177, 7127
5067, 3071, 6867, 1046, 6901, 7178, 7179, 3105, 7134, 7180, 7133
5068, 898, 3200, 966, 967, 7181, 3236, 2925, 2871, 3235, 973
5069, 3707, 3650, 3683, 6842, 3888, 3890, 3889, 7182, 6906, 6907
5070, 3112, 1058, 1057, 6894, 3142, 1064, 3143, 7183, 7185, 7184
5071, 5357, 4685, 5356, 6887, 7186, 7187, 5415, 6930, 7188, 6929
5072, 5021, 6869, 6849, 6871, 7189, 7190, 7002, 7191, 7193, 7192
5073, 2046, 5792, 5596, 5787, 5831, 7050, 5711, 5827, 5832, 7095
5074, 6433, 6444, 6443, 6839, 6695, 6694, 6687, 7194, 7196, 7195
5075, 1439, 5788, 2049, 2050, 7197, 5840, 5681, 5632, 5839, 2056
5076, 4662, 6865, 4681, 6884, 7107, 6956, 4809, 7109, 6955, 6954
5077, 3364, 3500, 3496, 3507, 6947, 3568, 6949, 7198, 3560, 3571
5078, 1045, 1046, 6860, 6901, 1052, 7199, 7200, 7132, 7133, 7201
5079, 1056, 6830, 111, 6857, 7202, 7203, 1062, 7204, 7206, 7205
5080, 6846, 6883, 6810, 6904, 7207, 7208, 7209, 7210, 7212, 7211
5081, 1800, 6836, 1952, 6903, 7086, 7087, 6911, 6913, 7213, 6915
5082, 6498, 6446, 6473, 6839, 6742, 6734, 6743, 7214, 7216, 7215
5083, 5966, 5969, 5959, 5597, 6030, 6029, 6011, 7217, 7219, 7218
5084, 5791, 1752, 6043, 5797, 7220, 7025, 6940, 5849, 7028, 6941
5085, 3150, 2263, 89, 2283, 7130, 7221, 7222, 7129, 2367, 7223
5086, 1964, 1437, 5437, 5615, 5671, 7119, 5484, 5676, 5675, 7049
5087, 3115, 3153, 1056, 6857, 7070, 7069, 3122, 7224, 7225, 7204
5088, 1834, 5021, 6823, 6849, 5041, 7226, 7227, 6984, 7002, 7228
5089, 3706, 3693, 3667, 6842, 3864, 3885, 3907, 7229, 7231, 7230
5090, 2288, 2257, 2287, 6855, 2510, 2332, 2512, 7232, 7234, 7233
5091, 4967, 6847, 4964, 6859, 7098, 7235, 5010, 7097, 7096, 7236
5092, 99, 899, 3415, 94, 909, 7237, 7238, 890, 2752, 6951
5093, 2838, 3195, 3205, 3208, 7239, 3226, 7240, 7241, 3269, 3270
5094, 5610, 1752, 289, 5784, 7026, 1758, 7242, 7243, 7245, 7244
5095, 6426, 6429, 6425, 6819, 6653, 6652, 6644, 7246, 7055, 7053
5096, 6455, 6489, 6476, 6885, 6777, 6722, 6775, 6931, 7248, 7247
5097, 3279, 896, 895, 798, 7249, 905, 7250, 7251, 2769, 2767
5098, 796, 895, 797, 3284, 2766, 2765, 806, 7252, 7254, 7253
5099, 3495, 892, 1015, 1014, 7255, 2898, 3521, 3522, 2899, 1021
5100, 1032, 2859, 1033, 3278, 7256, 7257, 1039, 7258, 6919, 7156
5101, 6847, 6859, 6810, 6865, 7096, 7076, 7259, 7147, 7075, 7074
5102, 3492, 3500, 2839, 3507, 3537, 7260, 7261, 3561, 3560, 7262
5103, 4663, 4691, 4677, 6816, 4816, 4815, 4813, 7263, 7265, 7264
5104, 4659, 4692, 4691, 6834, 4794, 4793, 4792, 7266, 7268, 7267
5105, 3674, 3676, 3675, 6891, 3979, 3978, 3972, 7269, 7271, 7270
5106, 3657, 3654, 3688, 6895, 3911, 3908, 3912, 7272, 7274, 7273
5107, 2109, 6883, 6846, 6904, 7275, 7207, 7276, 7277, 7212, 7210
5108, 3648, 3645, 3647, 6817, 3865, 3860, 3866, 7278, 7280, 7279
5109, 3285, 2859, 2843, 2864, 6917, 3026, 7110, 7281, 2956, 2959
5110, 6434, 6435, 6432, 6827, 6692, 6691, 6675, 7093, 7282, 7092
5111, 5359, 5362, 4541, 4293, 5419, 6943, 6942, 7160, 7284, 7283
5112, 3707, 3683, 3671, 6842, 3889, 3968, 3954, 7182, 6907, 7285
5113, 3072, 1047, 3154, 6863, 3082, 7286, 7287, 7288, 7290, 7289
5114, 6429, 6432, 6431, 6827, 6674, 6673, 6655, 7091, 7092, 7291
5115, 4674, 4694, 6838, 6884, 4800, 7292, 7293, 6972, 6973, 7294
5116, 6108, 6101, 6095, 6868, 6328, 6330, 6329, 7295, 7297, 7296
5117, 4960, 4963, 6859, 6865, 5002, 7298, 7144, 7146, 7045, 7075
5118, 4964, 4967, 4960, 6847, 5010, 5009, 5017, 7235, 7098, 7145
5119, 2264, 97, 111, 6857, 7015, 7103, 7102, 7151, 7299, 7205
5120, 6361, 6365, 452, 6849, 6412, 7300, 7301, 7153, 7154, 7302
5121, 2854, 1056, 1117, 6830, 7173, 7303, 7304, 7305, 7202, 7306
5122, 3290, 796, 2857, 1029, 7307, 7308, 7061, 7309, 7310, 7088
5123, 1440, 5884, 187, 1420, 7311, 7312, 1450, 4270, 7313, 4266
5124, 1420, 5884, 187, 186, 7313, 7312, 4266, 1430, 7314, 1431
5125, 5436, 5439, 1577, 5429, 5460, 7315, 7316, 5497, 5453, 7317
5126, 5959, 2087, 5966, 5597, 6010, 6006, 6011, 7218, 5760, 7217
5127, 3033, 3071, 6889, 6901, 7318, 7319, 7320, 7321, 7134, 7322
5128, 1577, 5367, 2108, 6846, 6977, 7323, 7324, 6979, 6980, 7325
5129, 2260, 110, 96, 6863, 7326, 7327, 7328, 7329, 7331, 7330
5130, 2256, 2298, 2271, 6889, 2505, 2417, 2507, 7332, 7334, 7333
5131, 4688, 6865, 6851, 6896, 7335, 7336, 7337, 7170, 6958, 7338
5132, 498, 32, 30, 6843, 502, 503, 2236, 7339, 7341, 7340
5133, 6435, 6492, 6466, 6827, 6707, 6706, 6693, 7282, 7343, 7342
5134, 4688, 4682, 6865, 6896, 4841, 7148, 7335, 7170, 7149, 6958
5135, 1754, 5789, 5795, 5617, 7344, 5844, 7345, 7346, 6922, 6923
5136, 489, 498, 30, 6843, 2237, 2236, 493, 7347, 7339, 7340
5137, 5964, 5959, 5970, 5595, 6014, 6028, 6027, 7348, 7350, 7349
5138, 5355, 4685, 5357, 6887, 7351, 7186, 5385, 6928, 7188, 6930
5139, 801, 899, 94, 3415, 2756, 2752, 811, 6950, 7237, 6951
5140, 6821, 5021, 6849, 6871, 7001, 7002, 6985, 7352, 7191, 7192
5141, 1117, 3153, 1056, 6886, 7353, 7069, 7303, 7354, 7072, 7073
5142, 5362, 4541, 4678, 6851, 6943, 7355, 7356, 6944, 6945, 7357
5143, 896, 3279, 978, 2859, 7249, 3318, 2916, 2919, 7023, 2920
5144, 3154, 1047, 3072, 6888, 7286, 3082, 7287, 7358, 7360, 7359
5145, 2260, 96, 110, 3074, 7328, 7327, 7326, 7361, 7362, 3077
5146, 6454, 6496, 6485, 6885, 6776, 6683, 6773, 6933, 7364, 7363
5147, 1440, 5884, 5872, 2076, 7311, 5929, 7365, 5625, 5896, 5926
5148, 3290, 894, 977, 2857, 7366, 2908, 3309, 7061, 2911, 2910
5149, 6454, 6455, 6476, 6885, 6769, 6775, 6774, 6933, 6931, 7247
5150, 1058, 6866, 1057, 6894, 7367, 7368, 1064, 7185, 7369, 7184
5151, 1435, 1963, 5438, 5613, 5665, 5477, 7370, 5667, 5666, 7079
5152, 2282, 2262, 2270, 6863, 2522, 2484, 2422, 7371, 7373, 7372
5153, 851, 2256, 3069, 2261, 7374, 7375, 7376, 7377, 2450, 7378
5154, 4538, 264, 265, 4855, 7009, 1691, 7011, 7379, 4859, 4863
5155, 3199, 1056, 3195, 3193, 7122, 6938, 3266, 3241, 7128, 3265
5156, 1028, 3286, 3280, 3277, 6968, 3326, 7380, 6970, 3346, 3345
5157, 3279, 3285, 2859, 3291, 3322, 6917, 7023, 3355, 3354, 6918
5158, 1056, 2854, 3202, 3193, 7173, 7171, 6936, 7128, 7381, 3216
5159, 3674, 3673, 3711, 6848, 3970, 3975, 3974, 7382, 7384, 7383
5160, 4541, 4543, 1574, 6851, 4552, 4563, 4582, 6945, 7386, 7385
5161, 6446, 6445, 6473, 6839, 6730, 6735, 6734, 7216, 7387, 7215
5162, 4889, 6810, 4893, 6834, 7388, 7389, 4953, 7390, 7392, 7391
5163, 6485, 6496, 6430, 6885, 6683, 6680, 6681, 7363, 7364, 7393
5164, 6444, 6483, 6443, 6839, 6728, 6669, 6694, 7196, 7394, 7195
5165, 2131, 134, 1208, 6468, 2133, 1209, 6794, 6558, 6557, 7395
5166, 4661, 6838, 4694, 6884, 7396, 7292, 4741, 6974, 7294, 6973
5167, 2859, 2843, 1033, 3278, 3026, 7397, 7257, 6919, 7111, 7156
5168, 1440, 5884, 2076, 187, 7311, 5896, 5625, 1450, 7312, 5623
5169, 3112, 1057, 1115, 6894, 3143, 7398, 7399, 7183, 7184, 7400
5170, 4544, 6846, 238, 6883, 7401, 7402, 4565, 7403, 7207, 7404
5171, 2751, 3411, 3408, 3420, 7405, 3479, 7406, 7407, 3467, 3489
5172, 1047, 3364, 3494, 3496, 7408, 6948, 7166, 7167, 6949, 3567
5173, 4544, 1574, 6846, 6883, 4564, 7409, 7401, 7403, 7410, 7207
5174, 6481, 6442, 6828, 6854, 6511, 7411, 7412, 6998, 6999, 7413
5175, 1028, 2842, 2857, 3277, 7414, 3025, 6969, 6970, 7415, 6909
5176, 6431, 6433, 6443, 6827, 6684, 6687, 6686, 7291, 7417, 7416
5177, 6445, 6444, 6433, 6839, 6696, 6695, 6697, 7387, 7196, 7194
5178, 4676, 4661, 4697, 6884, 4803, 4801, 4805, 7418, 6974, 7419
5179, 4967, 362, 6847, 6904, 7420, 7421, 7098, 7100, 7422, 7099
5180, 3657, 3659, 3656, 6845, 3919, 3918, 3910, 7423, 7425, 7424
5181, 5443, 5615, 5432, 5437, 7426, 7427, 5509, 5510, 7049, 5488
5182, 4689, 4542, 4660, 4696, 7428, 7429, 4720, 4798, 7430, 4796
5183, 4662, 4682, 4681, 6865, 4811, 4810, 4809, 7107, 7148, 6956
5184, 5594, 5797, 5794, 5787, 7431, 5850, 7432, 7433, 5863, 5829
5185, 4960, 4963, 4961, 6859, 5002, 5015, 5016, 7144, 7298, 7434
5186, 2264, 2285, 97, 6857, 2400, 7435, 7015, 7151, 7152, 7299
5187, 6482, 6425, 6431, 6819, 6642, 6654, 6656, 7127, 7053, 7054
5188, 2280, 2258, 2283, 6857, 2513, 2364, 2514, 7138, 7436, 7140
5189, 1834, 6849, 6823, 6887, 6984, 7228, 7227, 7437, 7439, 7438
5190, 335, 5607, 1952, 6836, 7440, 7441, 1959, 7085, 7442, 7087
5191, 338, 358, 186, 5869, 2098, 7443, 7444, 5887, 5886, 7445
5192, 6473, 6421, 6463, 6853, 6635, 6636, 6638, 7446, 7448, 7447
5193, 4964, 1802, 4967, 6859, 4984, 5007, 5010, 7236, 7163, 7097
5194, 1072, 1071, 3154, 6863, 1078, 3184, 3183, 7449, 7450, 7289
5195, 4664, 4961, 4958, 6884, 7451, 5013, 7452, 7453, 7062, 7047
5196, 3362, 2838, 3195, 3202, 7454, 7239, 6934, 6935, 7455, 3223
5197, 3028, 6855, 3112, 6894, 7456, 7457, 7458, 7459, 7460, 7183
5198, 3153, 1117, 1073, 6886, 7353, 7461, 3188, 7072, 7354, 7462
5199, 2256, 2298, 6889, 6902, 2505, 7334, 7332, 7463, 7465, 7464
5200, 238, 6846, 2109, 6883, 7402, 7276, 7466, 7404, 7207, 7275
5201, 1800, 5364, 335, 1832, 6912, 5375, 6975, 7467, 7469, 7468
5202, 5367, 6852, 1950, 6890, 7470, 7471, 5408, 7142, 7472, 7141
5203, 3205, 3362, 2838, 3208, 7473, 7454, 7240, 3270, 7044, 7241
5204, 4543, 6846, 1574, 6851, 6978, 7409, 4563, 7386, 7474, 7385
5205, 3112, 3028, 1115, 6893, 7458, 7475, 7399, 7476, 7478, 7477
5206, 1194, 6820, 1330, 6868, 7479, 7480, 7481, 7482, 7484, 7483
5207, 899, 99, 3415, 1006, 909, 7238, 7237, 2869, 2867, 3427
5208, 5610, 5586, 5794, 5784, 5767, 7485, 7486, 7243, 7487, 5810
5209, 6847, 6851, 6846, 6865, 7488, 7474, 7489, 7147, 7336, 7490
5210, 5964, 5960, 5971, 6045, 6032, 5999, 6015, 7082, 7080, 7491
5211, 6361, 6365, 6356, 470, 6412, 6413, 6416, 7492, 7494, 7493
5212, 3706, 3667, 3653, 6895, 3907, 3906, 3876, 7495, 7497, 7496
5213, 4671, 4698, 4664, 6815, 4789, 4753, 4806, 7498, 7500, 7499
5214, 6423, 6426, 6425, 6819, 6645, 6644, 6640, 7501, 7246, 7053
5215, 4669, 4681, 4682, 6896, 4838, 4810, 4840, 7169, 6957, 7149
5216, 2106, 1952, 6836, 6903, 7502, 7087, 7503, 7504, 6915, 7213
5217, 1047, 3494, 110, 3503, 7166, 7505, 1054, 7165, 3520, 7506
5218, 6422, 6482, 6471, 6819, 6641, 6643, 6602, 7507, 7127, 7177
5219, 6361, 6362, 1627, 6849, 6410, 6373, 6411, 7153, 7508, 7155
5220, 1072, 6837, 1071, 6863, 7509, 7510, 1078, 7449, 7511, 7450
5221, 1951, 5354, 1952, 6847, 5411, 5410, 1958, 7512, 7514, 7513
5222, 2088, 5959, 5964, 5595, 6009, 6014, 6013, 5763, 7350, 7348
5223, 3494, 3500, 3364, 2860, 3538, 6947, 6948, 7515, 7517, 7516
5224, 5873, 5876, 5881, 4265, 5936, 5932, 5951, 7518, 6997, 7519
5225, 5354, 6846, 6851, 6865, 7520, 7474, 7521, 7522, 7490, 7336
5226, 452, 6362, 6361, 6849, 7523, 6410, 7301, 7302, 7508, 7153
5227, 6436, 6426, 6423, 6819, 6646, 6645, 6584, 7524, 7246, 7501
5228, 2295, 2267, 3153, 3115, 2467, 7525, 7526, 7527, 7528, 7070
5229, 4964, 6847, 4960, 6859, 7235, 7145, 5017, 7236, 7096, 7144
5230, 6116, 3665, 130, 1170, 7529, 3818, 6141, 6142, 3817, 1173
5231, 793, 3411, 3420, 1071, 7530, 3467, 7531, 7532, 7534, 7533
5232, 5357, 5355, 4675, 4685, 5385, 7535, 7536, 7186, 7351, 4852
5233, 2857, 2842, 2863, 3277, 3025, 2950, 2952, 6909, 7415, 7537
5234, 5970, 5597, 5959, 6852, 7538, 7218, 6028, 7539, 7541, 7540
5235, 4687, 4696, 4660, 6816, 4797, 4796, 4723, 7542, 7544, 7543
5236, 3197, 3198, 3191, 1058, 3256, 3255, 3247, 7135, 7136, 7545
5237, 111, 6830, 2855, 6857, 7203, 7546, 7547, 7205, 7206, 7548
5238, 3644, 3693, 3706, 6817, 3811, 3864, 3863, 7549, 7551, 7550
5239, 3112, 2279, 3028, 6893, 7552, 7553, 7458, 7476, 7554, 7478
5240, 1927, 5271, 5272, 6815, 5279, 5282, 5275, 7555, 7557, 7556
5241, 96, 2260, 2704, 3074, 7328, 7558, 2706, 7362, 7361, 7559
5242, 6810, 6847, 6846, 6904, 7259, 7489, 7209, 7211, 7099, 7210
5243, 295, 4890, 1752, 6859, 7560, 4928, 7561, 7562, 7564, 7563
5244, 1802, 362, 4967, 6904, 7565, 7420, 5007, 7164, 7422, 7100
5245, 5440, 5598, 5604, 5429, 7013, 5696, 7566, 5457, 7014, 7567
5246, 2269, 2303, 6867, 6888, 2502, 7568, 7569, 7570, 7572, 7571
5247, 4673, 4668, 4677, 6856, 4836, 4823, 4837, 7573, 7575, 7574
5248, 4667, 4665, 4666, 6856, 4817, 4709, 4818, 7576, 7578, 7577
5249, 6362, 469, 6355, 1491, 7579, 7580, 6409, 6371, 7581, 6375
5250, 4893, 6834, 6810, 6859, 7391, 7392, 7389, 7582, 7583, 7076
5251, 1577, 4543, 191, 5367, 4550, 4549, 4548, 6977, 6976, 7584
5252, 1112, 3154, 1047, 6863, 7585, 7286, 7586, 7587, 7289, 7290
5253, 1582, 2109, 283, 6883, 7588, 7589, 7590, 7591, 7275, 7592
5254, 5588, 6042, 6844, 6897, 7593, 7594, 7595, 7596, 7598, 7597
5255, 3364, 2839, 3500, 3507, 7599, 7260, 6947, 7198, 7262, 3560
5256, 4265, 5879, 5869, 5876, 6996, 5893, 7600, 6997, 5900, 5937
5257, 5795, 5592, 5786, 5596, 6921, 7601, 5856, 7052, 5715, 7051
5258, 3415, 899, 1006, 3407, 7237, 2869, 3427, 3448, 7602, 3445
5259, 6097, 6102, 6096, 6820, 6335, 6334, 6314, 7603, 7038, 7039
5260, 1028, 1114, 6867, 6901, 7604, 7605, 7606, 7607, 7608, 7180
5261, 4676, 6834, 4661, 6884, 7609, 7610, 4803, 7418, 7611, 6974
5262, 4669, 4688, 4667, 6896, 4831, 4830, 4828, 7169, 7170, 7612
5263, 4961, 4964, 4960, 6859, 4986, 5017, 5016, 7434, 7236, 7144
5264, 5969, 5966, 5593, 5597, 6030, 7613, 6925, 7219, 7217, 5762
5265, 3677, 3676, 3674, 6874, 3980, 3979, 3981, 7614, 7616, 7615
5266, 1951, 6846, 5354, 6847, 7617, 7520, 5411, 7512, 7489, 7514
5267, 3659, 3657, 3719, 6845, 3919, 3924, 3923, 7425, 7423, 7618
5268, 1113, 6860, 1046, 6901, 7619, 7199, 7620, 7621, 7201, 7133
5269, 1114, 1046, 6867, 6901, 7622, 7179, 7605, 7608, 7133, 7180
5270, 1454, 5356, 4685, 6887, 7623, 7187, 7624, 7625, 6929, 7188
5271, 5354, 6847, 6846, 6865, 7514, 7489, 7520, 7522, 7147, 7490
5272, 6422, 6423, 6425, 6819, 6582, 6640, 6639, 7507, 7501, 7053
5273, 2844, 3416, 1074, 6830, 7626, 7627, 7628, 7629, 7631, 7630
5274, 3112, 1115, 1057, 6893, 7399, 7398, 3143, 7476, 7477, 7632
5275, 4885, 4659, 4690, 6833, 7633, 4732, 7634, 7635, 6993, 6991
5276, 2288, 6855, 2287, 6898, 7232, 7233, 2512, 7636, 7638, 7637
5277, 3645, 3644, 3647, 6817, 3815, 3861, 3860, 7280, 7549, 7279
5278, 6432, 6435, 6466, 6827, 6691, 6693, 6690, 7092, 7282, 7342
5279, 6045, 5964, 5970, 5595, 7082, 6027, 7081, 7639, 7348, 7349
5280, 3153, 3115, 2267, 6857, 7070, 7528, 7525, 7225, 7224, 7640
5281, 4662, 4671, 4664, 6884, 4807, 4806, 4756, 7109, 7641, 7453
5282, 4889, 6810, 6834, 6883, 7388, 7392, 7390, 7642, 7208, 7643
5283, 4539, 4678, 4541, 6851, 7644, 7355, 4555, 7645, 7357, 6945
5284, 1581, 6100, 6114, 6104, 7646, 6347, 7647, 7648, 6308, 6277
5285, 6810, 6846, 1574, 6883, 7209, 7409, 7649, 7208, 7207, 7410
5286, 4662, 4664, 4958, 6884, 4756, 7452, 7108, 7109, 7453, 7047
5287, 5433, 5429, 5436, 6899, 5495, 5497, 5496, 7650, 7652, 7651
5288, 6103, 6099, 6122, 6840, 6341, 6346, 6345, 7653, 7655, 7654
5289, 85, 111, 2264, 3110, 7656, 7102, 7657, 7658, 3117, 7019
5290, 1964, 1437, 1436, 5437, 5671, 1446, 5672, 5484, 7119, 7120
5291, 4202, 6118, 6125, 1580, 7659, 6212, 7660, 7661, 7663, 7662
5292, 3279, 3289, 3292, 895, 3319, 3357, 3356, 7250, 7665, 7664
5293, 5367, 1577, 2108, 6890, 6977, 7324, 7323, 7142, 7667, 7666
5294, 3278, 2843, 1033, 3281, 7111, 7397, 7156, 3350, 7168, 7158
5295, 2299, 95, 3028, 6893, 7668, 7669, 7670, 7671, 7672, 7478
5296, 3660, 3656, 3659, 6825, 3920, 3918, 3921, 7673, 7675, 7674
5297, 1072, 3154, 1112, 6863, 3183, 7585, 7676, 7449, 7289, 7587
5298, 2260, 96, 2262, 6863, 7328, 7677, 2392, 7329, 7330, 7373
5299, 1112, 1047, 3154, 6888, 7586, 7286, 7585, 7678, 7360, 7358
5300, 4667, 6851, 4665, 6856, 7679, 7680, 4817, 7576, 7681, 7578
5301, 2107, 5367, 1951, 6846, 7682, 5407, 7683, 7684, 6980, 7617
5302, 3693, 3650, 3667, 6842, 3808, 3886, 3885, 7231, 6906, 7230
5303, 6498, 6448, 6446, 6839, 6741, 6740, 6742, 7214, 7685, 7216
5304, 4886, 4892, 4893, 6884, 4948, 4951, 4950, 7686, 7688, 7687
5305, 1804, 186, 159, 1300, 7689, 7690, 7691, 7692, 7693, 1301
5306, 4691, 4677, 6816, 6856, 4815, 7264, 7265, 7694, 7574, 7695
5307, 1059, 1058, 3111, 6855, 1065, 3145, 3144, 7696, 7698, 7697
5308, 3656, 3654, 3657, 6895, 3895, 3911, 3910, 7699, 7274, 7272
5309, 5358, 5367, 191, 4293, 5409, 7584, 7700, 7161, 7162, 4310
5310, 6112, 6101, 4891, 6868, 6332, 7118, 7701, 7702, 7297, 7703
5311, 1582, 4544, 2109, 6883, 4566, 7704, 7588, 7591, 7403, 7275
5312, 4686, 4674, 4694, 6838, 4790, 4800, 4744, 7705, 7293, 7292
5313, 3698, 3678, 3717, 6874, 3997, 3998, 3943, 7175, 7706, 7174
5314, 4691, 6816, 6833, 6834, 7265, 7707, 6992, 7267, 7709, 7708
5315, 1059, 6855, 3111, 6898, 7696, 7697, 3144, 7710, 7638, 7711
5316, 4659, 4884, 4692, 6834, 7712, 7713, 4794, 7266, 7714, 7268
5317, 6422, 6425, 6482, 6819, 6639, 6642, 6641, 7507, 7053, 7127
5318, 2260, 849, 2704, 3074, 7715, 2710, 7558, 7361, 7716, 7559
5319, 3153, 2295, 3115, 6886, 7526, 7527, 7070, 7072, 7717, 7071
5320, 4892, 6834, 4893, 6884, 7718, 7391, 4951, 7688, 7611, 7687
5321, 3703, 3658, 3648, 6825, 3879, 3867, 3877, 7719, 7721, 7720
5322, 2047, 5786, 5592, 5596, 5834, 7601, 5714, 5712, 7051, 5715
5323, 3706, 3647, 3644, 6817, 3862, 3861, 3863, 7550, 7279, 7549
5324, 1574, 6851, 6810, 6856, 7385, 7722, 7649, 7723, 7681, 7724
5325, 2296, 3071, 3033, 6867, 7725, 7318, 7726, 7727, 7178, 7728
5326, 4674, 4686, 4658, 6815, 4790, 4747, 4787, 7729, 7731, 7730
5327, 646, 647, 6357, 1042, 652, 6397, 6396, 7732, 7733, 7123
5328, 4855, 4854, 1723, 6816, 4862, 4865, 4864, 7734, 7736, 7735
5329, 3641, 3689, 3712, 6845, 3745, 3848, 3847, 7737, 7739, 7738
5330, 6131, 6093, 4178, 6840, 6197, 7740, 7741, 7742, 7744, 7743
5331, 4697, 4661, 4674, 6884, 4801, 4799, 4802, 7419, 6974, 6972
5332, 3195, 2838, 3362, 3208, 7239, 7454, 6934, 3269, 7241, 7044
5333, 1033, 2859, 1032, 6894, 7257, 7256, 1039, 7745, 7747, 7746
5334, 1574, 6846, 6810, 6851, 7409, 7209, 7649, 7385, 7474, 7722
5335, 5367, 5358, 191, 6890, 5409, 7700, 7584, 7142, 7143, 7748
5336, 1194, 154, 1330, 6820, 4062, 1332, 7481, 7479, 7749, 7480
5337, 1194, 289, 6820, 6868, 7750, 7751, 7479, 7482, 7752, 7484
5338, 5969, 5618, 1950, 6852, 6926, 7022, 7020, 7753, 7754, 7471
5339, 5367, 2107, 1951, 6852, 7682, 7683, 5407, 7470, 7756, 7755
5340, 109, 95, 6867, 6893, 7757, 7758, 7759, 7760, 7672, 7761
5341, 4202, 6113, 6118, 1581, 7762, 6209, 7659, 7763, 7765, 7764
5342, 1058, 3112, 6855, 6894, 3142, 7457, 7698, 7185, 7183, 7460
5343, 109, 3028, 95, 6893, 3035, 7669, 7757, 7760, 7478, 7672
5344, 2269, 6867, 95, 6893, 7569, 7758, 7766, 7767, 7761, 7672
5345, 117, 2850, 3494, 110, 7063, 7084, 3511, 3591, 7065, 7505
5346, 6834, 6856, 6816, 6883, 7768, 7695, 7709, 7643, 7770, 7769
5347, 2265, 3029, 836, 2271, 7771, 7772, 7773, 2416, 7775, 7774
5348, 3492, 2839, 3500, 1018, 7261, 7260, 3537, 3532, 3007, 3536
5349, 6092, 4891, 6101, 6820, 7117, 7118, 6317, 7776, 7778, 7777
5350, 95, 2268, 2687, 6867, 7779, 7780, 2689, 7758, 7782, 7781
5351, 4543, 1577, 2108, 6846, 4550, 7324, 7783, 6978, 6979, 7325
5352, 2270, 878, 3155, 6863, 7784, 7785, 7032, 7372, 7787, 7786
5353, 1045, 6889, 3071, 6901, 7788, 7319, 3106, 7132, 7322, 7134
5354, 6096, 6092, 6097, 6820, 6246, 6315, 6314, 7039, 7776, 7603
5355, 6043, 5797, 5594, 5787, 6941, 7431, 7789, 6971, 5863, 7433
5356, 3698, 3699, 3679, 6874, 3940, 4001, 3996, 7175, 7791, 7790
5357, 5359, 191, 4543, 5367, 7792, 4549, 7067, 5423, 7584, 6976
5358, 3279, 896, 978, 895, 7249, 2916, 3318, 7250, 905, 2915
5359, 3671, 3668, 3707, 6842, 3953, 3949, 3954, 7285, 7793, 7182
5360, 4691, 4887, 4659, 6834, 7794, 7795, 4792, 7267, 7796, 7266
5361, 4691, 4659, 4887, 6833, 4792, 7795, 7794, 6992, 6993, 7797
5362, 6082, 2109, 6846, 6904, 6088, 7276, 7798, 7799, 7277, 7210
5363, 4291, 190, 1453, 6849, 4307, 1456, 4308, 7800, 7802, 7801
5364, 2857, 1028, 1029, 6901, 6969, 1035, 7088, 7803, 7607, 7804
5365, 4677, 4696, 4687, 6856, 4825, 4797, 4814, 7574, 7806, 7805
5366, 4962, 5023, 5366, 6903, 7807, 7808, 7809, 7810, 7812, 7811
5367, 4691, 4663, 4690, 6833, 4816, 4729, 4791, 6992, 7813, 6991
5368, 6043, 2062, 5798, 5787, 6076, 7814, 6939, 6971, 7815, 5862
5369, 3663, 3696, 3646, 6875, 3871, 3787, 3869, 7816, 7818, 7817
5370, 3363, 1116, 6866, 6894, 3399, 7819, 7820, 7821, 7822, 7369
5371, 6092, 6101, 6097, 6820, 6317, 6316, 6315, 7776, 7777, 7603
5372, 4672, 6851, 4688, 6865, 7823, 7337, 4847, 7824, 7336, 7335
5373, 4672, 4679, 4688, 6851, 4782, 4832, 4847, 7823, 7825, 7337
5374, 4893, 6810, 4889, 6904, 7389, 7388, 4953, 7826, 7211, 7827
5375, 4541, 1574, 4539, 6851, 4582, 4560, 4555, 6945, 7385, 7645
5376, 4962, 5366, 6865, 6903, 7809, 7828, 7829, 7810, 7811, 7830
5377, 1435, 1436, 5438, 1963, 1445, 7831, 7370, 5665, 5664, 5477
5378, 6846, 6847, 6810, 6851, 7489, 7259, 7209, 7474, 7488, 7722
5379, 3668, 3670, 3669, 6892, 3951, 3950, 3916, 7832, 7834, 7833
5380, 6131, 6122, 6093, 6840, 6323, 6322, 6197, 7742, 7654, 7744
5381, 3290, 2857, 3277, 3293, 7061, 6909, 3311, 3349, 6910, 3347
5382, 2269, 2255, 2303, 6888, 2500, 2503, 2502, 7570, 7835, 7572
5383, 6439, 2022, 2273, 6363, 7836, 7837, 7838, 7839, 6391, 7840
5384, 4541, 5362, 4678, 4293, 6943, 7356, 7355, 7283, 7284, 7841
5385, 4691, 6816, 6834, 6856, 7265, 7709, 7267, 7694, 7695, 7768
5386, 4694, 271, 4888, 4661, 4739, 7842, 7843, 4741, 4737, 7844
5387, 1574, 4665, 6851, 6856, 7845, 7680, 7385, 7723, 7578, 7681
5388, 6111, 6102, 1803, 6820, 6336, 7040, 7041, 7037, 7038, 7846
5389, 4694, 4661, 4888, 6838, 4741, 7844, 7843, 7292, 7396, 7847
5390, 2851, 3494, 2860, 2831, 7848, 7515, 3014, 3013, 7849, 3010
5391, 2022, 6439, 6843, 6885, 7836, 7850, 7851, 7852, 7854, 7853
5392, 3071, 2296, 3033, 6889, 7725, 7726, 7318, 7319, 7855, 7320
5393, 6445, 6433, 6466, 6827, 6697, 6689, 6698, 7856, 7417, 7342
5394, 4691, 6816, 4663, 6833, 7265, 7263, 4816, 6992, 7707, 7813
5395, 110, 2851, 1047, 6863, 7857, 7858, 1054, 7331, 7859, 7290
5396, 4663, 4677, 4687, 6816, 4813, 4814, 4726, 7263, 7264, 7542
5397, 3653, 3667, 3655, 6895, 3906, 3905, 3904, 7496, 7497, 7860
5398, 3366, 2842, 2833, 6901, 7861, 2974, 7862, 7863, 7865, 7864
5399, 5593, 5966, 2087, 5597, 7613, 6006, 5759, 5762, 7217, 5760
5400, 1072, 1112, 6837, 6863, 7676, 7866, 7509, 7449, 7587, 7511
5401, 6361, 6365, 461, 452, 6412, 7867, 7868, 7301, 7300, 2210
5402, 3506, 2862, 1045, 6860, 7059, 7060, 7057, 7869, 7870, 7200
5403, 6362, 452, 189, 6849, 7523, 7871, 7872, 7508, 7302, 7873
5404, 6810, 6851, 6847, 6865, 7722, 7488, 7259, 7074, 7336, 7147
5405, 1948, 1212, 5361, 5356, 7874, 7875, 5398, 5402, 7876, 5403
5406, 1057, 6866, 1116, 6894, 7368, 7819, 7877, 7184, 7369, 7822
5407, 299, 1802, 4964, 6859, 7878, 4984, 7879, 7880, 7163, 7236
5408, 3651, 3703, 3648, 6895, 3878, 3877, 3872, 7881, 7883, 7882
5409, 5354, 6846, 5359, 6851, 7520, 7068, 5420, 7521, 7474, 6946
5410, 5354, 1952, 6847, 6903, 5410, 7513, 7514, 7884, 6915, 7885
5411, 1072, 1112, 3154, 6888, 7676, 7585, 3183, 7886, 7678, 7358
5412, 4685, 6824, 1453, 6849, 7887, 7888, 7889, 7890, 7891, 7801
5413, 2258, 2285, 2284, 6857, 2515, 2517, 2361, 7436, 7152, 7150
5414, 5792, 5596, 5798, 6844, 7050, 7094, 5861, 7892, 7894, 7893
5415, 188, 211, 125, 6831, 1484, 4340, 1485, 7895, 7897, 7896
5416, 6491, 6442, 6480, 6133, 6725, 6727, 6617, 7006, 7007, 7898
5417, 2861, 3198, 1058, 6866, 6990, 7136, 7137, 7899, 7900, 7367
5418, 274, 1927, 5272, 6815, 1928, 5275, 5274, 7901, 7555, 7556
5419, 3647, 3706, 3653, 6895, 3862, 3876, 3875, 7902, 7495, 7496
5420, 1574, 6856, 6810, 6883, 7723, 7724, 7649, 7410, 7770, 7208
5421, 5367, 5359, 191, 4293, 5423, 7792, 7584, 7162, 7160, 4310
5422, 5440, 5619, 5598, 5433, 7903, 5698, 7013, 5476, 7904, 7012
5423, 6851, 6865, 6810, 6896, 7336, 7074, 7722, 7338, 6958, 7112
5424, 211, 124, 125, 6831, 1488, 1164, 4340, 7897, 7905, 7896
5425, 2851, 3494, 2831, 2850, 7848, 7849, 3013, 2901, 7084, 2889
5426, 3366, 6860, 1114, 6901, 7906, 7907, 3388, 7863, 7201, 7608
5427, 1658, 1654, 6849, 6871, 4635, 7908, 7909, 7910, 7911, 7192
5428, 3028, 1033, 6855, 6894, 3041, 7912, 7456, 7459, 7745, 7460
5429, 4539, 1574, 4665, 6851, 4560, 7845, 7913, 7645, 7385, 7680
5430, 3641, 3710, 3681, 6892, 3846, 3845, 3748, 7914, 7916, 7915
5431, 1752, 2111, 297, 6859, 7917, 7918, 7919, 7563, 7921, 7920
5432, 452, 461, 6361, 6362, 2210, 7868, 7301, 7523, 7922, 6410
5433, 1952, 5971, 5960, 6045, 7923, 5999, 7924, 7925, 7491, 7080
5434, 4893, 6859, 6810, 6904, 7582, 7076, 7389, 7826, 7101, 7211
5435, 2843, 3363, 2832, 6894, 7926, 7927, 2979, 7928, 7821, 7929
5436, 211, 210, 124, 6831, 1483, 4341, 1488, 7897, 7930, 7905
5437, 3685, 3686, 3709, 6891, 3857, 3984, 3853, 7931, 7933, 7932
5438, 4688, 6851, 4667, 6896, 7337, 7679, 4830, 7170, 7338, 7612
5439, 2854, 2830, 3202, 3193, 3011, 7934, 7171, 7381, 7935, 3216
5440, 1801, 6836, 1800, 6903, 7936, 7086, 1807, 7937, 7213, 6913
5441, 4544, 1574, 238, 6846, 4564, 1576, 4565, 7401, 7409, 7402
5442, 2269, 6888, 6867, 6893, 7570, 7571, 7569, 7767, 7938, 7761
5443, 4691, 4692, 4673, 6834, 4793, 4850, 4851, 7267, 7268, 7939
5444, 2111, 1802, 297, 6859, 7940, 7941, 7918, 7921, 7163, 7920
5445, 2121, 6479, 348, 6138, 6578, 6577, 2125, 6261, 7942, 6255
5446, 6834, 6859, 4893, 6884, 7583, 7582, 7391, 7611, 7078, 7687
5447, 4665, 4678, 4539, 6851, 4706, 7644, 7913, 7680, 7357, 7645
5448, 3112, 3028, 2279, 6855, 7458, 7553, 7552, 7457, 7456, 7943
5449, 1753, 285, 1754, 6883, 7944, 7945, 1760, 7946, 7948, 7947
5450, 2843, 2859, 1033, 6894, 3026, 7257, 7397, 7928, 7747, 7745
5451, 6364, 3661, 1618, 6900, 7949, 7950, 6370, 7951, 7953, 7952
5452, 3362, 2838, 3202, 2854, 7454, 7455, 6935, 7172, 2985, 7171
5453, 4543, 4541, 191, 5359, 4552, 4546, 4549, 7067, 6942, 7792
5454, 5357, 4675, 4695, 4685, 7536, 4778, 7954, 7186, 4852, 4769
5455, 2071, 5602, 1432, 4265, 5649, 5648, 5624, 7955, 7956, 4271
5456, 2846, 1001, 2751, 891, 2893, 7957, 7958, 2892, 2868, 2757
5457, 5433, 5598, 5429, 6899, 7012, 7014, 5495, 7650, 7959, 7652
5458, 2288, 2287, 2259, 6898, 2512, 2335, 2518, 7636, 7637, 7960
5459, 191, 1577, 5367, 6890, 4548, 6977, 7584, 7748, 7667, 7142
5460, 4886, 4893, 6859, 6884, 4950, 7582, 7961, 7686, 7687, 7078
5461, 3667, 3650, 3707, 6842, 3886, 3888, 3887, 7230, 6906, 7182
5462, 295, 1752, 297, 6859, 7561, 7919, 1791, 7562, 7563, 7920
5463, 297, 1802, 299, 6859, 7941, 7878, 1794, 7920, 7163, 7880
5464, 840, 2300, 2279, 3028, 7962, 2439, 7963, 7964, 7965, 7553
5465, 5357, 1455, 5353, 5356, 7966, 7967, 5388, 5415, 7968, 5414
5466, 5594, 5596, 5787, 2046, 5713, 7095, 7433, 5709, 5711, 5827
5467, 1712, 5362, 5353, 4293, 5389, 5391, 5387, 7969, 7284, 7970
5468, 1686, 6823, 1682, 6849, 7971, 7972, 4656, 7973, 7228, 7974
5469, 6139, 6812, 245, 6825, 7975, 7976, 7977, 7978, 7980, 7979
5470, 5599, 6042, 5588, 6897, 7981, 7593, 5735, 7982, 7598, 7596
5471, 3073, 2272, 6357, 3074, 7983, 7984, 7124, 3085, 7985, 7125
5472, 4661, 6834, 4892, 6884, 7610, 7718, 7986, 6974, 7611, 7688
5473, 4855, 1723, 265, 6816, 4864, 1724, 4863, 7734, 7735, 7987
5474, 3155, 2270, 645, 3156, 7032, 7988, 7989, 3167, 7033, 7990
5475, 4667, 6851, 6856, 6896, 7679, 7681, 7576, 7612, 7338, 7991
5476, 3700, 3029, 1029, 1030, 7992, 3061, 7993, 7994, 3060, 1036
5477, 4889, 4893, 4887, 6834, 4953, 4952, 4916, 7390, 7391, 7796
5478, 1028, 2857, 2842, 6901, 6969, 3025, 7414, 7607, 7803, 7865
5479, 1951, 2107, 6846, 6847, 7683, 7684, 7617, 7512, 7995, 7489
5480, 2111, 1802, 6859, 6904, 7940, 7163, 7921, 7996, 7164, 7101
5481, 6447, 6446, 6448, 6839, 6732, 6740, 6739, 7997, 7216, 7685
5482, 6430, 6441, 6474, 6885, 6678, 6651, 6597, 7393, 7999, 7998
5483, 6496, 6454, 6476, 6885, 6776, 6774, 6723, 7364, 6933, 7247
5484, 3507, 989, 3492, 6860, 8000, 8001, 3561, 8002, 8004, 8003
5485, 3688, 3712, 3657, 6892, 3926, 3925, 3912, 8005, 8007, 8006
5486, 4679, 5360, 5362, 6851, 8008, 5394, 8009, 7825, 8010, 6944
5487, 6430, 6496, 6441, 6885, 6680, 6679, 6678, 7393, 7364, 7999
5488, 4685, 1686, 6824, 6849, 4701, 8011, 7887, 7890, 7973, 7891
5489, 4886, 6859, 6838, 6884, 7961, 8012, 8013, 7686, 7078, 7294
5490, 107, 116, 3405, 94, 1138, 3422, 3421, 8014, 8016, 8015
5491, 1951, 1952, 2106, 6847, 1958, 7502, 8017, 7512, 7513, 8018
5492, 6474, 6441, 6424, 6885, 6651, 6650, 6594, 7998, 7999, 8019
5493, 3688, 3654, 3655, 6895, 3908, 3903, 3909, 7273, 7274, 7860
5494, 4538, 265, 4660, 6816, 7011, 4719, 7010, 8020, 7987, 7543
5495, 4671, 6815, 4664, 6884, 7498, 7499, 4806, 7641, 8021, 7453
5496, 3028, 840, 2300, 6855, 7964, 7962, 7965, 7456, 8023, 8022
5497, 2270, 3156, 877, 552, 7033, 7035, 7036, 2421, 8025, 8024
5498, 1682, 6823, 1678, 6849, 7972, 8026, 4653, 7974, 7228, 8027
5499, 328, 462, 6365, 307, 8028, 8029, 8030, 1862, 8032, 8031
5500, 4673, 4668, 6856, 6896, 4836, 7575, 7573, 8033, 8034, 7991
5501, 3154, 2297, 3072, 6863, 8035, 8036, 7287, 7289, 8037, 7288
5502, 5600, 5883, 1803, 6829, 8038, 8039, 8040, 8041, 8043, 8042
5503, 3073, 849, 2272, 3074, 8044, 8045, 7983, 3085, 7716, 7985
5504, 1678, 6823, 1674, 6849, 8026, 8046, 4650, 8027, 7228, 8047
5505, 4542, 4689, 4680, 4696, 7428, 4714, 8048, 7430, 4798, 4827
5506, 2299, 3028, 2279, 6893, 7670, 7553, 2387, 7671, 7478, 7554
5507, 6455, 6452, 6862, 6885, 6770, 7030, 7031, 6931, 6932, 8049
5508, 6462, 6420, 6488, 6818, 6535, 6630, 6629, 8050, 8052, 8051
5509, 6432, 6433, 6431, 6827, 6685, 6684, 6673, 7092, 7417, 7291
5510, 1710, 5355, 4675, 5357, 5381, 7535, 4776, 5383, 5385, 7536
5511, 2109, 6844, 6042, 6897, 8053, 7594, 6073, 8054, 7597, 7598
5512, 1952, 5960, 1951, 6045, 7924, 8055, 1958, 7925, 7080, 8056
5513, 5869, 5873, 5880, 4265, 5935, 5916, 5897, 7600, 7518, 8057
5514, 3112, 2279, 2300, 6855, 7552, 2439, 8058, 7457, 7943, 8022
5515, 1577, 5436, 5429, 6899, 7316, 5497, 7317, 8059, 7651, 7652
5516, 6445, 6446, 6444, 6839, 6730, 6729, 6696, 7387, 7216, 7196
5517, 4664, 6815, 4961, 6884, 7499, 8060, 7451, 7453, 8021, 7062
5518, 1033, 1032, 6855, 6894, 1039, 8061, 7912, 7745, 7746, 7460
5519, 1952, 5607, 2106, 6836, 7441, 8062, 7502, 7087, 7442, 7503
5520, 6355, 6361, 470, 6362, 6417, 7492, 8063, 6409, 6410, 8064
5521, 1952, 5616, 5971, 6045, 8065, 8066, 7923, 7925, 8067, 7491
5522, 6838, 6859, 6815, 6884, 8012, 8068, 8069, 7294, 7078, 8021
5523, 6133, 6828, 6442, 6854, 8070, 7411, 7007, 8071, 7413, 6999
5524, 3191, 3199, 1057, 3208, 3244, 8072, 8073, 3257, 3259, 8074
5525, 6108, 6841, 6101, 6868, 8075, 8076, 6328, 7295, 8077, 7297
5526, 1801, 2106, 6836, 6903, 8078, 7503, 7936, 7937, 7504, 7213
5527, 460, 188, 211, 6362, 8079, 1484, 8080, 8081, 8083, 8082
5528, 6444, 6447, 6483, 6839, 6731, 6733, 6728, 7196, 7997, 7394
5529, 5360, 5354, 5359, 6851, 5421, 5420, 5422, 8010, 7521, 6946
5530, 4667, 4666, 4668, 6856, 4818, 4822, 4821, 7576, 7577, 7575
5531, 3671, 3683, 3673, 6848, 3968, 3967, 3966, 8084, 8085, 7384
5532, 5360, 5354, 6851, 6865, 5421, 7521, 8010, 8086, 7522, 7336
5533, 3364, 3494, 2860, 1047, 6948, 7515, 7516, 7408, 7166, 8087
5534, 4892, 6838, 4661, 6884, 8088, 7396, 7986, 7688, 7294, 6974
5535, 189, 461, 452, 6362, 8089, 2210, 7871, 7872, 7922, 7523
5536, 329, 2018, 2022, 6809, 2019, 5565, 5564, 8090, 8092, 8091
5537, 6095, 6101, 6112, 6868, 6330, 6332, 6331, 7296, 7297, 7702
5538, 6113, 4196, 6094, 6850, 8093, 8094, 6206, 8095, 8097, 8096
5539, 2282, 646, 2262, 6863, 8098, 8099, 2522, 7371, 8100, 7373
5540, 1029, 2271, 3029, 649, 8101, 7775, 3061, 8102, 8104, 8103
5541, 4676, 4697, 6834, 6884, 4805, 8105, 7609, 7418, 7419, 7611
5542, 380, 4685, 389, 6887, 8106, 8107, 2155, 8108, 7188, 8109
5543, 4130, 4894, 1757, 6868, 8110, 4924, 8111, 8112, 8114, 8113
5544, 6101, 6117, 6112, 4891, 6318, 6239, 6332, 7118, 7116, 7701
5545, 6846, 6847, 6082, 6904, 7489, 8115, 7798, 7210, 7099, 7799
5546, 3719, 3657, 3689, 6845, 3924, 3927, 3928, 7618, 7423, 7739
5547, 6365, 6361, 461, 470, 6412, 7868, 7867, 7494, 7492, 2219
5548, 340, 308, 339, 6861, 5542, 2000, 2001, 8116, 8118, 8117
5549, 3695, 3669, 3670, 6892, 3955, 3950, 3956, 8119, 7833, 7834
5550, 5969, 5959, 5597, 6852, 6029, 7218, 7219, 7753, 7540, 7541
5551, 3154, 2278, 2297, 6863, 8120, 2463, 8035, 7289, 8121, 8037
5552, 2271, 3032, 2277, 6889, 8122, 8123, 2431, 7333, 8125, 8124
5553, 2297, 3154, 3072, 6888, 8035, 7287, 8036, 8126, 7358, 7359
5554, 4166, 6127, 6110, 1755, 8127, 6191, 8128, 8129, 8131, 8130
5555, 5792, 5795, 5596, 6844, 5857, 7052, 7050, 7892, 8132, 7894
5556, 3651, 3648, 3647, 6895, 3872, 3866, 3873, 7881, 7882, 7902
5557, 2270, 3155, 793, 6863, 7032, 8133, 8134, 7372, 7786, 8135
5558, 5876, 5873, 5869, 4265, 5936, 5935, 5937, 6997, 7518, 7600
5559, 2282, 2270, 793, 6863, 2422, 8134, 8136, 7371, 7372, 8135
5560, 2851, 1112, 2860, 1047, 8137, 8138, 3014, 7858, 7586, 8087
5561, 1046, 6867, 3068, 6888, 7179, 8139, 3108, 8140, 7571, 8141
5562, 1113, 1046, 1114, 6901, 7620, 7622, 1120, 7621, 7133, 7608
5563, 4671, 4658, 4698, 6815, 4786, 4750, 4789, 7498, 7730, 7500
5564, 2860, 3494, 2851, 1047, 7515, 7848, 3014, 8087, 7166, 7858
5565, 3112, 2300, 865, 6855, 8058, 8142, 8143, 7457, 8022, 8144
5566, 4698, 274, 275, 4959, 4748, 1701, 4749, 8145, 8147, 8146
5567, 213, 216, 122, 6875, 1497, 1614, 4602, 8148, 8150, 8149
5568, 3032, 2277, 836, 2271, 8123, 8151, 8152, 8122, 2431, 7774
5569, 3676, 3677, 3678, 6874, 3980, 3990, 3989, 7616, 7614, 7706
5570, 1419, 5790, 5788, 5800, 8153, 5865, 8154, 8155, 5826, 5842
5571, 1116, 1115, 1057, 6894, 1122, 7398, 7877, 7822, 7400, 7184
5572, 1577, 5429, 5598, 6899, 7317, 7014, 8156, 8059, 7652, 7959
5573, 6355, 470, 469, 6362, 8063, 473, 7580, 6409, 8064, 7579
5574, 1033, 1032, 3027, 6855, 1039, 3067, 3066, 7912, 8061, 8157
5575, 1752, 2111, 5610, 6820, 7917, 8158, 7026, 8159, 8161, 8160
5576, 3285, 2864, 3281, 980, 7281, 8162, 3323, 3320, 2955, 3300
5577, 341, 308, 340, 6861, 5541, 5542, 2002, 8163, 8118, 8116
5578, 3287, 2842, 1114, 3280, 8164, 8165, 8166, 3301, 8168, 8167
5579, 3070, 647, 850, 2286, 8169, 8170, 8171, 8172, 8174, 8173
5580, 5366, 5023, 5364, 6903, 7808, 8175, 5397, 7811, 7812, 6914
5581, 6489, 6440, 6476, 6885, 6721, 6718, 6722, 7248, 8176, 7247
5582, 5362, 5359, 5353, 4293, 5419, 5418, 5391, 7284, 7160, 7970
5583, 4667, 6856, 4668, 6896, 7576, 7575, 4821, 7612, 7991, 8034
5584, 1965, 5432, 5615, 5437, 5487, 7427, 5701, 5483, 5488, 7049
5585, 2269, 2255, 6888, 6893, 2500, 7835, 7570, 7767, 8177, 7938
5586, 347, 340, 339, 6861, 5953, 2001, 2014, 8178, 8116, 8117
5587, 4112, 6095, 4118, 6841, 8179, 8180, 8181, 8182, 8184, 8183
5588, 3402, 3420, 3411, 1071, 3468, 3467, 3454, 8185, 7533, 7534
5589, 3703, 3651, 3656, 6895, 3878, 3894, 3896, 7883, 7881, 7699
5590, 3283, 3293, 3286, 1029, 3359, 3348, 3329, 8186, 7089, 7090
5591, 4679, 4678, 4665, 6851, 4784, 4706, 4819, 7825, 7357, 7680
5592, 4112, 6121, 6095, 6841, 8187, 6170, 8179, 8182, 8188, 8184
5593, 213, 122, 123, 6875, 4602, 1162, 1490, 8148, 8149, 8189
5594, 4672, 5360, 4679, 6851, 8190, 8008, 4782, 7823, 8010, 7825
5595, 3675, 3709, 3686, 6891, 3985, 3984, 3986, 7270, 7932, 7933
5596, 4959, 4664, 4698, 6815, 8191, 4753, 8145, 8192, 7499, 7500
5597, 2022, 6843, 6809, 6885, 7851, 8193, 8091, 7852, 7853, 8194
5598, 3681, 3710, 3695, 6892, 3845, 3959, 3856, 7915, 7916, 8119
5599, 2265, 524, 37, 3700, 2313, 527, 2314, 8195, 3775, 3774
5600, 6886, 6888, 2255, 6893, 8196, 7835, 8197, 8198, 7938, 8177
5601, 5965, 5967, 5969, 1950, 5995, 6039, 6038, 7021, 8199, 7020
5602, 3403, 1074, 3409, 3416, 8200, 8201, 3463, 3470, 7627, 3471
5603, 6810, 6859, 6847, 6904, 7076, 7096, 7259, 7211, 7101, 7099
5604, 5884, 1440, 5872, 1420, 7311, 7365, 5929, 7313, 4270, 8202
5605, 3410, 3419, 3402, 1072, 3466, 3465, 3457, 8203, 8205, 8204
5606, 6100, 6090, 6104, 6826, 6307, 6226, 6308, 8206, 8208, 8207
5607, 2279, 3028, 2300, 6855, 7553, 7965, 2439, 7943, 7456, 8022
5608, 4538, 4854, 4855, 6816, 8209, 4862, 7379, 8020, 7736, 7734
5609, 5973, 5962, 5956, 1948, 6016, 5989, 6017, 8210, 8212, 8211
5610, 335, 1800, 1412, 6836, 6975, 8213, 8214, 7085, 7086, 8215
5611, 462, 471, 6365, 461, 2215, 8216, 8029, 465, 2218, 7867
5612, 2855, 2854, 2845, 6830, 3012, 2989, 2937, 7546, 7305, 8217
5613, 5362, 1712, 4678, 4293, 5389, 4768, 7356, 7284, 7969, 7841
5614, 6107, 6122, 6099, 6850, 6321, 6346, 6343, 8218, 8220, 8219
5615, 329, 331, 6356, 1875, 1867, 8221, 8222, 5082, 5083, 6384
5616, 2106, 1952, 5616, 5607, 7502, 8065, 8223, 8062, 7441, 5770
5617, 6429, 6431, 6819, 6827, 6655, 7054, 7055, 7091, 7291, 8224
5618, 4889, 6834, 4887, 6883, 7390, 7796, 4916, 7642, 7643, 8225
5619, 470, 6361, 461, 6362, 7492, 7868, 2219, 8064, 6410, 7922
5620, 4889, 6810, 6883, 6904, 7388, 7208, 7642, 7827, 7211, 7212
5621, 461, 471, 6365, 470, 2218, 8216, 7867, 2219, 474, 7494
5622, 3069, 2256, 6889, 6902, 7375, 7332, 8226, 8227, 7463, 7464
5623, 4961, 6815, 4964, 6859, 8060, 8228, 4986, 7434, 8068, 7236
5624, 5790, 150, 1350, 1757, 8229, 1352, 8230, 8231, 8233, 8232
5625, 1212, 1454, 371, 372, 8234, 8235, 6800, 6803, 8236, 375
5626, 2107, 2108, 5367, 6846, 2114, 7323, 7682, 7684, 7325, 6980
5627, 1627, 6849, 6362, 6878, 7155, 7508, 6373, 8237, 8239, 8238
5628, 4892, 4886, 6838, 6884, 4948, 8013, 8088, 7688, 7686, 7294
5629, 5616, 5964, 5971, 6045, 8240, 6015, 8066, 8067, 7082, 7491
5630, 5359, 4541, 191, 4293, 6942, 4546, 7792, 7160, 7283, 4310
5631, 1417, 1400, 140, 1191, 8241, 1402, 8242, 4258, 6963, 4031
5632, 1195, 1305, 158, 1420, 6962, 1306, 4071, 4247, 8244, 8243
5633, 5367, 1951, 1950, 6852, 5407, 1957, 5408, 7470, 7755, 7471
5634, 6113, 6094, 6114, 6850, 6206, 6324, 6279, 8095, 8096, 8245
5635, 2263, 57, 89, 2283, 2365, 821, 7221, 2367, 2363, 7223
5636, 4890, 6859, 4893, 6904, 7564, 7582, 4949, 8246, 7101, 7826
5637, 6108, 6095, 6841, 6868, 6329, 8184, 8075, 7295, 7296, 8077
5638, 5597, 5959, 2088, 5595, 7218, 6009, 5761, 5727, 7350, 5763
5639, 6441, 6440, 6424, 6885, 6649, 6648, 6650, 7999, 8176, 8019
5640, 3698, 3679, 3678, 6874, 3996, 3992, 3997, 7175, 7790, 7706
5641, 979, 3285, 2859, 3279, 3321, 6917, 2953, 3317, 3322, 7023
5642, 283, 2109, 1582, 6826, 7589, 7588, 7590, 8247, 8249, 8248
5643, 3418, 3410, 3403, 1073, 3472, 3460, 3473, 8250, 8252, 8251
5644, 2297, 2278, 3072, 6863, 2463, 8253, 8036, 8037, 8121, 7288
5645, 4855, 265, 4538, 6816, 4863, 7011, 7379, 7734, 7987, 8020
5646, 3418, 3361, 1073, 6830, 8254, 8255, 8250, 8256, 8258, 8257
5647, 5437, 1437, 1417, 5615, 7119, 4284, 7121, 7049, 5675, 8259
5648, 4885, 268, 4690, 4659, 8260, 4728, 7634, 7633, 4730, 4732
5649, 4660, 4696, 4542, 6816, 4796, 7430, 7429, 7543, 7544, 8261
5650, 2279, 865, 3112, 2300, 8262, 8143, 7552, 2439, 8142, 8058
5651, 2269, 95, 2299, 6893, 7766, 7668, 2385, 7767, 7672, 7671
5652, 5272, 275, 274, 4959, 5273, 1701, 5274, 8263, 8146, 8147
5653, 6498, 6839, 6473, 6862, 7214, 7215, 6743, 7106, 8264, 7105
5654, 6812, 6825, 6139, 6858, 7980, 7978, 7975, 8265, 8267, 8266
5655, 4890, 4893, 4889, 6904, 4949, 4953, 4937, 8246, 7826, 7827
5656, 6480, 6481, 6484, 6854, 6726, 6621, 6716, 7000, 6998, 8268
5657, 461, 469, 6362, 460, 2217, 7579, 7922, 464, 2216, 8081
5658, 469, 461, 6362, 470, 2217, 7922, 7579, 473, 2219, 8064
5659, 4672, 4688, 4682, 6865, 4847, 4841, 4848, 7824, 7335, 7148
5660, 3632, 6888, 6886, 6893, 8269, 8196, 8270, 8271, 7938, 8198
5661, 614, 838, 3031, 3030, 8272, 8273, 8274, 8275, 8276, 3053
5662, 6466, 6433, 6432, 6827, 6689, 6685, 6690, 7342, 7417, 7092
5663, 5359, 5362, 5360, 6851, 5419, 5394, 5422, 6946, 6944, 8010
5664, 4889, 285, 1753, 6883, 8277, 7944, 4914, 7642, 7948, 7946
5665, 4118, 6841, 6095, 6868, 8183, 8184, 8180, 8278, 8077, 7296
5666, 6453, 6486, 6450, 6862, 6663, 6754, 6759, 8279, 7115, 8280
5667, 285, 4887, 6833, 6883, 8281, 7797, 8282, 7948, 8225, 8283
5668, 4672, 5360, 6851, 6865, 8190, 8010, 7823, 7824, 8086, 7336
5669, 5608, 5878, 5871, 5885, 8284, 5922, 8285, 8286, 5946, 5945
5670, 6431, 6443, 6819, 6827, 6686, 7126, 7054, 7291, 7416, 8224
5671, 2863, 2857, 3277, 3290, 2952, 6909, 7537, 8287, 7061, 3311
5672, 1192, 1417, 1418, 6840, 4259, 1427, 4261, 8288, 8290, 8289
5673, 4681, 4671, 4662, 6884, 4808, 4807, 4809, 6954, 7641, 7109
5674, 1966, 5599, 5620, 5432, 5706, 5707, 5703, 5486, 8292, 8291
5675, 4697, 4681, 4670, 6884, 4845, 4839, 4844, 7419, 6954, 8293
5676, 1634, 6821, 1630, 6849, 8294, 8295, 4617, 8296, 6985, 8297
5677, 3068, 6867, 2274, 6888, 8139, 8298, 8299, 8141, 7571, 8300
5678, 1753, 1752, 6043, 5791, 1759, 7025, 8301, 8302, 7220, 6940
5679, 5967, 5970, 1951, 5960, 6034, 8303, 8304, 5998, 6033, 8055
5680, 1113, 1114, 6860, 6901, 1120, 7907, 7619, 7621, 7608, 7201
5681, 3684, 3720, 3701, 6891, 3850, 4005, 4004, 8305, 8307, 8306
5682, 1927, 5284, 5283, 6815, 5288, 5293, 5292, 7555, 8309, 8308
5683, 4684, 1686, 4685, 6887, 4716, 4701, 4770, 8310, 8311, 7188
5684, 1686, 6849, 4685, 6887, 7973, 7890, 4701, 8311, 7439, 7188
5685, 5284, 1930, 5283, 6815, 5287, 5291, 5293, 8309, 8312, 8308
5686, 5602, 1800, 5881, 6836, 8313, 8314, 8315, 8316, 7086, 8317
5687, 4697, 4670, 6834, 6884, 4844, 8318, 8105, 7419, 8293, 7611
5688, 1461, 192, 1566, 4293, 1463, 4531, 4532, 4313, 4311, 8319
5689, 1839, 1704, 305, 5023, 5268, 5267, 1841, 5027, 8320, 5024
5690, 6488, 6470, 6451, 6862, 6631, 6762, 6763, 8321, 7029, 8322
5691, 2274, 6867, 2303, 6888, 8298, 7568, 2460, 8300, 7571, 7572
5692, 115, 3152, 6886, 6888, 8323, 8324, 8325, 8326, 8327, 8196
5693, 793, 3411, 2751, 3420, 7530, 7405, 2755, 7531, 3467, 7407
5694, 6429, 6478, 6434, 6854, 6657, 6677, 6676, 8328, 8330, 8329
5695, 3655, 3667, 3668, 6842, 3905, 3914, 3913, 8331, 7230, 7793
5696, 4675, 4685, 5355, 6887, 4852, 7351, 7535, 8332, 7188, 6928
5697, 5362, 4678, 4679, 6851, 7356, 4784, 8009, 6944, 7357, 7825
5698, 2298, 796, 2271, 6889, 8333, 8334, 2417, 7334, 8335, 7333
5699, 4588, 243, 1453, 6849, 4594, 8336, 8337, 8338, 8339, 7801
5700, 4894, 1781, 4130, 4136, 4922, 8340, 8110, 8341, 8343, 8342
5701, 1059, 775, 6855, 6898, 8344, 8345, 7696, 7710, 8346, 7638
5702, 3642, 3720, 3684, 6891, 3851, 3850, 3760, 8347, 8307, 8305
5703, 1072, 3365, 3419, 6837, 8348, 8349, 8205, 7509, 8351, 8350
5704, 2076, 1440, 5600, 5872, 5625, 5690, 5689, 5926, 7365, 8352
5705, 1113, 1114, 3366, 6860, 1120, 3388, 3384, 7619, 7907, 7906
5706, 3632, 109, 6867, 6893, 8353, 7759, 8354, 8271, 7760, 7761
5707, 3406, 3414, 3419, 2852, 3441, 3483, 3482, 8355, 8357, 8356
5708, 5359, 5358, 5353, 4293, 5417, 5416, 5418, 7160, 7161, 7970
5709, 6102, 6097, 6129, 6841, 6335, 6339, 6338, 8358, 8360, 8359
5710, 4667, 4679, 4665, 6851, 4820, 4819, 4817, 7679, 7825, 7680
5711, 1194, 1419, 1420, 6820, 4263, 1429, 4264, 7479, 8362, 8361
5712, 3033, 109, 95, 6867, 3036, 7757, 8363, 7728, 7759, 7758
5713, 2257, 2266, 2291, 6864, 2508, 2511, 2329, 8364, 8366, 8365
5714, 894, 3290, 796, 2857, 7366, 7307, 2762, 2911, 7061, 7308
5715, 864, 2299, 3112, 6893, 8367, 8368, 8369, 8370, 7671, 7476
5716, 1419, 289, 5611, 6820, 8371, 8372, 8373, 8362, 7751, 8374
5717, 5355, 5363, 4675, 6887, 5382, 8375, 7535, 6928, 8376, 8332
5718, 2863, 2842, 3287, 3277, 2950, 8164, 8377, 7537, 7415, 3308
5719, 1454, 1455, 5357, 5356, 1458, 7966, 8378, 7623, 7968, 5415
5720, 5284, 273, 1930, 6815, 5286, 1931, 5287, 8309, 8379, 8312
5721, 1638, 6821, 1634, 6849, 8380, 8294, 4620, 8381, 6985, 8296
5722, 5798, 2062, 5596, 5787, 7814, 5740, 7094, 5862, 7815, 7095
5723, 6108, 6095, 6121, 6841, 6329, 6170, 6309, 8075, 8184, 8188
5724, 3112, 2299, 2279, 6893, 8368, 2387, 7552, 7476, 7671, 7554
5725, 2268, 3071, 2296, 6867, 8382, 7725, 2427, 7782, 7178, 7727
5726, 4130, 6105, 4894, 6868, 8383, 8384, 8110, 8112, 8385, 8114
5727, 5870, 1803, 5875, 5883, 8386, 8387, 5912, 5940, 8039, 5941
5728, 115, 6886, 3632, 6888, 8325, 8270, 3634, 8326, 8196, 8269
5729, 6816, 6856, 4540, 6883, 7695, 8388, 8389, 7769, 7770, 8390
5730, 3070, 850, 851, 2261, 8171, 857, 8391, 8392, 8393, 7377
5731, 5607, 5587, 5606, 335, 5769, 5645, 5657, 7440, 8395, 8394
5732, 6097, 6101, 6108, 6841, 6316, 6328, 6337, 8360, 8076, 8075
5733, 1045, 3501, 3497, 3506, 8396, 3550, 7056, 7057, 3575, 3574
5734, 3113, 866, 2304, 6898, 8397, 8398, 8399, 8400, 8402, 8401
5735, 2839, 3492, 3507, 989, 7261, 3561, 7262, 2961, 8001, 8000
5736, 1113, 1114, 1046, 6867, 1120, 7622, 7620, 8403, 7605, 7179
5737, 5359, 5354, 5367, 6846, 5420, 5412, 5423, 7068, 7520, 6980
5738, 2109, 6826, 1754, 6844, 8249, 8404, 8405, 8053, 8407, 8406
5739, 5876, 1412, 5881, 4265, 6994, 8408, 5932, 6997, 4269, 7519
5740, 1642, 1646, 6821, 6849, 4626, 8409, 8410, 8411, 8412, 6985
5741, 1757, 5790, 1756, 1350, 8231, 8413, 1763, 8232, 8230, 8414
5742, 6099, 6090, 6100, 6826, 6305, 6307, 6306, 8415, 8208, 8206
5743, 2279, 2299, 95, 3028, 2387, 7668, 8416, 7553, 7670, 7669
5744, 3492, 2841, 2839, 1018, 8417, 2971, 7261, 3532, 3005, 3007
5745, 5432, 5615, 5443, 6897, 7427, 7426, 5509, 8418, 8420, 8419
5746, 1642, 6821, 1638, 6849, 8410, 8380, 4623, 8411, 6985, 8381
5747, 4692, 4884, 4693, 4676, 7713, 8421, 4795, 4849, 8422, 4804
5748, 2858, 2859, 2843, 6894, 2921, 3026, 3017, 8423, 7747, 7928
5749, 4130, 4894, 4136, 1757, 8110, 8341, 8342, 8111, 4924, 8424
5750, 5617, 5795, 1754, 6844, 6923, 7345, 7346, 8425, 8132, 8406
5751, 3115, 1056, 111, 6857, 3122, 1062, 3118, 7224, 7204, 7205
5752, 3279, 896, 798, 2859, 7249, 2769, 7251, 7023, 2919, 8426
5753, 6847, 6865, 5354, 6903, 7147, 7522, 7514, 7885, 7830, 7884
5754, 6047, 281, 5444, 336, 8427, 5448, 8428, 8429, 1960, 5449
5755, 2111, 5610, 6820, 6829, 8158, 8160, 8161, 8430, 8432, 8431
5756, 3706, 6817, 3693, 6842, 7550, 7551, 3864, 7229, 8433, 7231
5757, 1962, 5619, 5433, 6899, 5695, 7904, 5474, 8434, 8435, 7650
5758, 6810, 6856, 6834, 6883, 7724, 7768, 7392, 7208, 7770, 7643
5759, 3657, 3712, 3689, 6845, 3925, 3848, 3927, 7423, 7738, 7739
5760, 407, 416, 1834, 6849, 2175, 8436, 8437, 8438, 8439, 6984
5761, 6364, 1618, 2290, 6900, 6370, 8440, 8441, 7951, 7952, 8442
5762, 97, 2267, 3115, 6857, 8443, 7528, 8444, 7299, 7640, 7224
5763, 1114, 2842, 3366, 6901, 8165, 7861, 3388, 7608, 7865, 7863
5764, 3205, 1116, 3208, 6866, 8445, 8446, 3270, 8447, 7819, 8448
5765, 6463, 6488, 6451, 6862, 6764, 6763, 6765, 7104, 8321, 8322
5766, 3679, 3692, 3676, 6874, 3993, 3983, 3991, 7790, 8449, 7616
5767, 2260, 2272, 849, 3074, 2443, 8045, 7715, 7361, 7985, 7716
5768, 6082, 6846, 2107, 6847, 7798, 7684, 6086, 8115, 7489, 7995
5769, 4673, 6856, 6834, 6896, 7573, 7768, 7939, 8033, 7991, 8450
5770, 1927, 274, 5284, 6815, 1928, 5285, 5288, 7555, 7901, 8309
5771, 3198, 3191, 1058, 6866, 3255, 7545, 7136, 7900, 8451, 7367
5772, 3646, 3662, 3663, 6900, 3868, 3870, 3869, 8452, 8454, 8453
5773, 6082, 6847, 362, 6904, 8115, 7421, 6084, 7799, 7099, 7422
5774, 3405, 2751, 3411, 3408, 8455, 7405, 3451, 3478, 7406, 3479
5775, 1031, 3030, 614, 3031, 3065, 8275, 8456, 3062, 3053, 8274
5776, 3028, 109, 1115, 6893, 3035, 8457, 7475, 7478, 7760, 7477
5777, 6359, 2273, 2022, 6363, 8458, 7837, 6387, 6400, 7840, 6391
5778, 330, 6357, 6356, 516, 6389, 6388, 6385, 8459, 8461, 8460
5779, 4696, 4666, 4680, 6856, 4826, 4711, 4827, 7806, 7577, 8462
5780, 5598, 1577, 2108, 5429, 8156, 7324, 8463, 7014, 7317, 8464
5781, 4960, 4967, 1801, 6847, 5009, 5008, 5000, 7145, 7098, 8465
5782, 4963, 4962, 6865, 6903, 5004, 7829, 7045, 8466, 7810, 7830
5783, 3706, 6842, 3667, 6895, 7229, 7230, 3907, 7495, 8467, 7497
5784, 2111, 297, 1802, 6820, 7918, 7941, 7940, 8161, 8469, 8468
5785, 4958, 4963, 4962, 6865, 5014, 5004, 4975, 7046, 7045, 7829
5786, 135, 1300, 186, 160, 6961, 7693, 4243, 4017, 1302, 8470
5787, 2836, 964, 3198, 2840, 2944, 3229, 6988, 2945, 2942, 8471
5788, 61, 2734, 6477, 552, 8472, 8473, 6551, 554, 8474, 6553
5789, 3363, 1115, 1116, 6894, 3393, 1122, 3399, 7821, 7400, 7822
5790, 1046, 1113, 6867, 6888, 7620, 8403, 7179, 8140, 8475, 7571
5791, 4130, 4124, 6105, 6868, 8476, 8477, 8383, 8112, 8478, 8385
5792, 2255, 880, 3152, 6886, 8479, 8480, 8481, 8197, 8482, 8324
5793, 4670, 6884, 4681, 6896, 8293, 6954, 4839, 8483, 6959, 6957
5794, 3494, 110, 2851, 1047, 7505, 7857, 7848, 7166, 1054, 7858
5795, 1752, 297, 2111, 6820, 7919, 7918, 7917, 8159, 8469, 8161
5796, 3420, 3408, 2751, 2846, 3489, 7406, 7407, 8484, 8485, 7958
5797, 4124, 6128, 6105, 6868, 8486, 6176, 8477, 8478, 8487, 8385
5798, 5601, 6820, 5610, 6829, 8488, 8160, 5745, 8489, 8431, 8432
5799, 1952, 2106, 6847, 6903, 7502, 8018, 7513, 6915, 7504, 7885
5800, 2018, 2022, 6809, 6885, 5565, 8091, 8092, 8490, 7852, 8194
5801, 2260, 2262, 646, 6863, 2392, 8099, 8491, 7329, 7373, 8100
5802, 2842, 2857, 2856, 6901, 3025, 2912, 3022, 7865, 7803, 8492
5803, 1802, 2111, 362, 6904, 7940, 2118, 7565, 7164, 7996, 7422
5804, 1070, 3411, 793, 1071, 8493, 7530, 8494, 1077, 7534, 7532
5805, 6867, 6888, 3632, 6893, 7571, 8269, 8354, 7761, 7938, 8271
5806, 3362, 1117, 2854, 1056, 3401, 7304, 7172, 6937, 7303, 7173
5807, 3152, 2255, 6886, 6888, 8481, 8197, 8324, 8327, 7835, 8196
5808, 2844, 3407, 1006, 899, 8495, 3445, 2933, 2934, 7602, 2869
5809, 2111, 6043, 1752, 5610, 6081, 7025, 7917, 8158, 7024, 7026
5810, 6095, 6128, 4118, 6868, 6173, 8496, 8180, 7296, 8487, 8278
5811, 4959, 4961, 4664, 6815, 4980, 7451, 8191, 8192, 8060, 7499
5812, 341, 307, 308, 6861, 2003, 1830, 5541, 8163, 8497, 8118
5813, 237, 4666, 4665, 6856, 4710, 4709, 4703, 8498, 7577, 7578
5814, 6130, 1825, 6111, 1803, 6290, 6250, 6291, 7042, 4985, 7041
5815, 6118, 4202, 1581, 1580, 7659, 7763, 7764, 7663, 7661, 1587
5816, 6810, 6859, 6834, 6884, 7076, 7583, 7392, 7077, 7078, 7611
5817, 2843, 1115, 3363, 6894, 8499, 3393, 7926, 7928, 7400, 7821
5818, 4676, 4884, 4693, 4661, 8422, 8421, 4804, 4803, 8500, 4738
5819, 5343, 1723, 5342, 6816, 5346, 5350, 5352, 8501, 7735, 8502
5820, 6446, 6447, 6444, 6839, 6732, 6731, 6729, 7216, 7997, 7196
5821, 6418, 6484, 6481, 6828, 6619, 6621, 6514, 8503, 8504, 7412
5822, 5343, 5342, 1941, 6816, 5352, 5351, 5347, 8501, 8502, 8505
5823, 3208, 3362, 3199, 1116, 7044, 7043, 3259, 8446, 3398, 8506
5824, 2851, 2847, 1112, 6837, 2896, 8507, 8137, 8508, 8509, 7866
5825, 1117, 3114, 1056, 1057, 8510, 3141, 7303, 8511, 3140, 1063
5826, 3703, 6825, 3648, 6895, 7719, 7720, 3877, 7883, 8512, 7882
5827, 3646, 3663, 6875, 6900, 3869, 7816, 7817, 8452, 8453, 8513
5828, 347, 346, 1834, 5546, 2013, 8514, 7003, 5552, 5557, 6981
5829, 243, 4588, 1453, 244, 4594, 8337, 8336, 1607, 4595, 8515
5830, 4660, 264, 4542, 4689, 4718, 8516, 7429, 4720, 4713, 7428
5831, 85, 111, 748, 2264, 7656, 8517, 749, 7657, 7102, 8518
5832, 1581, 6114, 6100, 6850, 7647, 6347, 7646, 8519, 8245, 8520
5833, 4964, 6815, 299, 6859, 8228, 8521, 7879, 7236, 8068, 7880
5834, 1949, 5358, 1455, 5356, 5405, 8522, 8523, 5401, 5406, 7968
5835, 3288, 1033, 1115, 3281, 7157, 8524, 8525, 3305, 7158, 8526
5836, 6480, 6133, 6442, 6854, 7898, 7007, 6727, 7000, 8071, 6999
5837, 110, 2260, 646, 6863, 7326, 8491, 8527, 7331, 7329, 8100
5838, 4960, 6865, 6847, 6903, 7146, 7147, 7145, 8528, 7830, 7885
5839, 469, 478, 6355, 1491, 2221, 8529, 7580, 7581, 8530, 6375
5840, 1047, 3068, 1112, 1046, 3107, 8531, 7586, 1053, 3108, 8532
5841, 5363, 5355, 5365, 6887, 5382, 5427, 5396, 8376, 6928, 8533
5842, 4667, 4688, 4679, 6851, 4830, 4832, 4820, 7679, 7337, 7825
5843, 354, 334, 343, 6832, 5571, 2007, 2031, 8534, 8536, 8535
5844, 299, 1802, 297, 6820, 7878, 7941, 1794, 8537, 8468, 8469
5845, 2293, 3073, 647, 850, 8538, 8539, 8540, 8541, 8542, 8170
5846, 6462, 6488, 6463, 6818, 6629, 6764, 6637, 8050, 8051, 8543
5847, 2255, 2275, 6886, 6893, 2492, 8544, 8197, 8177, 8545, 8198
5848, 1057, 1117, 3114, 6893, 8511, 8510, 3140, 7632, 8547, 8546
5849, 4658, 4686, 273, 6815, 4747, 4743, 4745, 7730, 7731, 8379
5850, 238, 2109, 4544, 6883, 7466, 7704, 4565, 7404, 7275, 7403
5851, 4691, 6833, 4887, 6834, 6992, 7797, 7794, 7267, 7708, 7796
5852, 3661, 3646, 1615, 6900, 3782, 8548, 8549, 7953, 8452, 8550
5853, 5357, 4675, 1710, 4695, 7536, 4776, 5383, 7954, 4778, 4777
5854, 6433, 6443, 6827, 6839, 6687, 7416, 7417, 7194, 7195, 8551
5855, 2862, 3497, 1045, 6902, 7058, 7056, 7060, 8552, 8554, 8553
5856, 238, 1574, 4543, 6846, 1576, 4563, 4562, 7402, 7409, 6978
5857, 5607, 335, 1412, 6836, 7440, 8214, 8555, 7442, 7085, 8215
5858, 3405, 3413, 2751, 3408, 3428, 8556, 8455, 3478, 3435, 7406
5859, 3642, 3685, 3709, 6891, 3757, 3853, 3852, 8347, 7931, 7932
5860, 2273, 6495, 6439, 6363, 8557, 6550, 7838, 7840, 8558, 7839
5861, 4674, 4658, 4671, 6884, 4787, 4786, 4788, 6972, 8559, 7641
5862, 3497, 1044, 1045, 6902, 8560, 1051, 7056, 8554, 8561, 8553
5863, 7, 388, 5, 6858, 391, 2150, 396, 8562, 8564, 8563
5864, 5, 388, 379, 6858, 2150, 2151, 382, 8563, 8564, 8565
5865, 6136, 6100, 6114, 6850, 6349, 6347, 6325, 8566, 8520, 8245
5866, 5343, 265, 1723, 6816, 5345, 1724, 5346, 8501, 7987, 7735
5867, 6453, 6450, 6452, 6862, 6759, 6757, 6760, 8279, 8280, 7030
5868, 2298, 796, 6889, 6902, 8333, 8335, 7334, 7465, 8567, 7464
5869, 5798, 2110, 6043, 5791, 8568, 6079, 6939, 5845, 8569, 6940
5870, 3660, 3703, 3656, 6825, 3922, 3896, 3920, 7673, 7719, 7675
5871, 10, 6481, 6442, 6828, 6509, 6511, 6507, 8570, 7412, 7411
5872, 6109, 6098, 6103, 6826, 6232, 6340, 6342, 8571, 8573, 8572
5873, 3668, 3667, 3707, 6842, 3914, 3887, 3949, 7793, 7230, 7182
5874, 3648, 6817, 3647, 6895, 7278, 7279, 3866, 7882, 8574, 7902
5875, 4292, 4291, 1453, 6824, 4333, 4308, 4318, 8575, 8576, 7888
5876, 1593, 6125, 6118, 1580, 6276, 6212, 6281, 4587, 7662, 7663
5877, 2268, 95, 2269, 6867, 7779, 7766, 2383, 7782, 7758, 7569
5878, 6426, 6478, 6429, 6854, 6658, 6657, 6653, 8577, 8330, 8328
5879, 1802, 5874, 5882, 5870, 8578, 5938, 8579, 8580, 5909, 5939
5880, 646, 647, 1042, 794, 652, 7733, 7732, 8581, 8583, 8582
5881, 5784, 356, 5586, 5794, 5801, 5634, 7487, 5810, 5808, 7485
5882, 5881, 5602, 5873, 4265, 8315, 8584, 5951, 7519, 7956, 7518
5883, 3683, 3713, 3691, 6831, 3891, 3802, 3977, 8585, 8587, 8586
5884, 3496, 3501, 1046, 3507, 3553, 8588, 8589, 3571, 3572, 8590
5885, 2261, 2290, 6360, 2286, 2524, 8591, 8592, 2446, 2411, 8593
5886, 6360, 215, 6358, 2286, 6377, 6378, 6380, 8593, 8595, 8594
5887, 3418, 1073, 3403, 6830, 8250, 8251, 3473, 8256, 8257, 8596
5888, 5022, 1834, 5021, 6823, 5048, 5041, 5065, 8597, 7227, 7226
5889, 3696, 1615, 3646, 6875, 8598, 8548, 3787, 7818, 8599, 7817
5890, 1581, 6100, 6104, 6826, 7646, 6308, 7648, 8600, 8206, 8207
5891, 5363, 1944, 1832, 5365, 5372, 8601, 8602, 5396, 5377, 8603
5892, 646, 2260, 110, 3074, 8491, 7326, 8527, 8604, 7361, 3077
5893, 1057, 1115, 1116, 6893, 7398, 1122, 7877, 7632, 7477, 8605
5894, 1951, 2106, 2107, 6847, 8017, 2113, 7683, 7512, 8018, 7995
5895, 648, 3069, 2256, 2261, 8606, 7375, 8607, 8608, 7378, 2450
5896, 343, 327, 342, 6832, 5545, 5544, 2006, 8535, 8610, 8609
5897, 2838, 2840, 3205, 963, 2943, 8611, 7240, 2939, 2941, 3225
5898, 6441, 6496, 6476, 6885, 6679, 6723, 6719, 7999, 7364, 7247
5899, 2270, 2262, 878, 6863, 2484, 8612, 7784, 7372, 7373, 7787
5900, 1032, 3027, 6855, 6864, 3067, 8157, 8061, 8613, 8615, 8614
5901, 2268, 853, 3071, 6867, 8616, 8617, 8382, 7782, 8618, 7178
5902, 4686, 6815, 4674, 6838, 7731, 7729, 4790, 7705, 8069, 7293
5903, 6815, 6859, 4961, 6884, 8068, 7434, 8060, 8021, 7078, 7062
5904, 5367, 5354, 1951, 6846, 5412, 5411, 5407, 6980, 7520, 7617
5905, 4887, 4659, 4885, 6833, 7795, 7633, 4910, 7797, 6993, 7635
5906, 1114, 3632, 109, 6867, 3637, 8353, 8619, 7605, 8354, 7759
5907, 6101, 6841, 6820, 6868, 8076, 8620, 7777, 7297, 8077, 7484
5908, 5432, 5443, 5435, 6897, 5509, 5501, 5508, 8418, 8419, 8621
5909, 6810, 6856, 6851, 6896, 7724, 7681, 7722, 7112, 7991, 7338
5910, 97, 2285, 2267, 6857, 7435, 2401, 8443, 7299, 7152, 7640
5911, 3155, 3154, 1071, 6863, 3170, 3184, 3181, 7786, 7289, 7450
5912, 2261, 6360, 648, 2286, 8592, 6407, 8608, 2446, 8593, 8622
5913, 1046, 3068, 1112, 6888, 3108, 8531, 8532, 8140, 8141, 7678
5914, 6447, 6448, 6449, 6862, 6739, 6745, 6744, 8623, 8624, 7113
5915, 115, 3152, 1073, 6886, 8323, 3185, 8625, 8325, 8324, 7462
5916, 5970, 2107, 5960, 6045, 8626, 8627, 6033, 7081, 6063, 7080
5917, 327, 343, 334, 6832, 5545, 2007, 1871, 8610, 8535, 8536
5918, 6490, 6470, 6420, 6843, 6633, 6632, 6627, 8628, 8630, 8629
5919, 2299, 864, 3112, 2279, 8367, 8369, 8368, 2387, 8631, 7552
5920, 1755, 4160, 6127, 6126, 8632, 8633, 8131, 8634, 8635, 6188
5921, 1781, 4130, 6105, 4894, 8340, 8383, 6179, 4922, 8110, 8384
5922, 97, 3115, 111, 6857, 8444, 3118, 7103, 7299, 7224, 7205
5923, 1400, 4202, 139, 1580, 4205, 4204, 1401, 8636, 7661, 8637
5924, 2282, 646, 2260, 2262, 8098, 8491, 2521, 2522, 8099, 2392
5925, 801, 3409, 1075, 1074, 8638, 8639, 8640, 8641, 8201, 1081
5926, 5599, 2109, 6042, 6897, 8642, 6073, 7981, 7982, 8054, 7598
5927, 1577, 5598, 6890, 6899, 8156, 8643, 7667, 8059, 7959, 8644
5928, 6810, 6884, 6834, 6896, 7077, 7611, 7392, 7112, 6959, 8450
5929, 2841, 3504, 2837, 1017, 8645, 8646, 3006, 3004, 3527, 3003
5930, 4696, 6816, 4687, 6856, 7544, 7542, 4797, 7806, 7695, 7805
5931, 1190, 1416, 1405, 138, 4255, 8647, 6960, 4026, 8648, 1406
5932, 4674, 6815, 4658, 6884, 7729, 7730, 4787, 6972, 8021, 8559
5933, 2277, 2256, 2271, 6889, 2454, 2507, 2431, 8124, 7332, 7333
5934, 4130, 1340, 152, 6868, 4133, 1342, 4134, 8112, 8650, 8649
5935, 6046, 2108, 5589, 6890, 6068, 8651, 8652, 8653, 7666, 8654
5936, 3153, 2267, 881, 6857, 7525, 8655, 8656, 7225, 7640, 8657
5937, 3672, 3673, 3674, 6848, 3965, 3970, 3969, 8658, 7384, 7382
5938, 280, 6816, 4540, 6883, 8659, 8389, 8660, 8661, 7769, 8390
5939, 6834, 6884, 4670, 6896, 7611, 8293, 8318, 8450, 6959, 8483
5940, 3685, 3643, 3686, 6835, 3754, 3858, 3857, 8662, 8664, 8663
5941, 1832, 1833, 5363, 5365, 1836, 8665, 8602, 8603, 8666, 5396
5942, 328, 342, 327, 6832, 2005, 5544, 1861, 8667, 8609, 8610
5943, 3155, 878, 3154, 6863, 7785, 8668, 3170, 7786, 7787, 7289
5944, 6470, 6490, 6455, 6843, 6633, 6781, 6771, 8630, 8628, 8669
5945, 6046, 5589, 6852, 6890, 8652, 8670, 8671, 8653, 8654, 7472
5946, 245, 6139, 244, 6812, 7977, 8672, 1608, 7976, 7975, 8673
5947, 3666, 3703, 3660, 6825, 3934, 3922, 3935, 8674, 7719, 7673
5948, 6109, 6103, 6110, 6840, 6342, 6352, 6284, 8675, 7653, 8676
5949, 763, 49, 867, 3109, 2677, 8677, 8678, 8679, 8681, 8680
5950, 3655, 3668, 3669, 6892, 3913, 3916, 3915, 8682, 7832, 7833
5951, 3028, 3027, 840, 6855, 3057, 8683, 7964, 7456, 8157, 8023
5952, 4673, 4670, 4668, 6896, 4835, 4834, 4836, 8033, 8483, 8034
5953, 3679, 3676, 3678, 6874, 3991, 3989, 3992, 7790, 7616, 7706
5954, 1117, 6886, 3114, 6893, 7354, 8684, 8510, 8547, 8198, 8546
5955, 6110, 6131, 4172, 6840, 6194, 8685, 8686, 8676, 7742, 8687
5956, 299, 1803, 1802, 6820, 8688, 1809, 7878, 8537, 7846, 8468
5957, 2257, 6855, 2266, 6864, 7234, 8689, 2508, 8364, 8614, 8366
5958, 850, 647, 2293, 2286, 8170, 8540, 8541, 8173, 8174, 2410
5959, 1454, 1462, 1453, 4685, 4332, 4317, 1457, 7624, 8690, 7889
5960, 3632, 6867, 1113, 6888, 8354, 8403, 3636, 8269, 7571, 8475
5961, 6817, 6808, 6842, 6895, 8691, 8692, 8433, 8574, 8693, 8467
5962, 2109, 2110, 6883, 6904, 2116, 8694, 7275, 7277, 8695, 7212
5963, 751, 2276, 52, 3110, 8696, 2350, 2680, 8697, 7017, 8698
5964, 4887, 285, 4889, 6883, 8281, 8277, 4916, 8225, 7948, 7642
5965, 266, 5343, 1941, 6816, 5344, 5347, 1942, 8699, 8501, 8505
5966, 2263, 89, 736, 3150, 7221, 737, 8700, 7130, 7222, 8701
5967, 1618, 517, 2290, 6900, 8702, 2305, 8440, 7952, 8703, 8442
5968, 3648, 6825, 6817, 6895, 7720, 8704, 7278, 7882, 8512, 8574
5969, 6421, 6462, 6463, 6818, 6532, 6637, 6636, 8705, 8050, 8543
5970, 140, 4202, 1400, 1581, 4206, 4205, 1402, 8706, 7763, 8707
5971, 1948, 1187, 1414, 1413, 8708, 4251, 8709, 8710, 4250, 1423
5972, 4673, 4692, 4676, 6834, 4850, 4849, 4843, 7939, 7268, 7609
5973, 334, 354, 333, 6832, 5571, 2029, 1870, 8536, 8534, 8711
5974, 2272, 2260, 646, 3074, 2443, 8491, 8712, 7985, 7361, 8604
5975, 2293, 3073, 2272, 6357, 8538, 7983, 2408, 8713, 7124, 7984
5976, 4202, 1400, 1581, 1580, 4205, 8707, 7763, 7661, 8636, 1587
5977, 5271, 4959, 5272, 6815, 8714, 8263, 5282, 7557, 8192, 7556
5978, 760, 50, 49, 3109, 2681, 540, 2682, 8715, 8716, 8681
5979, 373, 1211, 372, 6887, 6796, 6804, 376, 8717, 8719, 8718
5980, 5882, 6041, 1802, 6829, 8720, 8721, 8579, 8722, 8724, 8723
5981, 1114, 1028, 2842, 6901, 7604, 7414, 8165, 7608, 7607, 7865
5982, 2843, 3285, 2864, 3281, 7110, 7281, 2959, 7168, 3323, 8162
5983, 2273, 2022, 515, 6359, 7837, 8725, 2309, 8458, 6387, 8726
5984, 3069, 648, 2256, 6902, 8606, 8607, 7375, 8227, 8727, 7463
5985, 1833, 5363, 5365, 6887, 8665, 5396, 8666, 8728, 8376, 8533
5986, 273, 5284, 274, 6815, 5286, 5285, 1700, 8379, 8309, 7901
5987, 4890, 4886, 4893, 6859, 4930, 4950, 4949, 7564, 7961, 7582
5988, 2268, 2296, 3071, 853, 2427, 7725, 8382, 8616, 8729, 8617
5989, 2288, 2266, 2257, 6855, 2509, 2508, 2510, 7232, 8689, 7234
5990, 271, 5306, 272, 6838, 5308, 5307, 1698, 8730, 8732, 8731
5991, 4697, 4670, 4676, 6834, 4844, 4842, 4805, 8105, 8318, 7609
5992, 1752, 289, 4891, 6820, 1758, 4917, 4923, 8159, 7751, 7778
5993, 6817, 6825, 6808, 6895, 8704, 8733, 8691, 8574, 8512, 8693
5994, 1033, 1115, 2843, 6894, 8524, 8499, 7397, 7745, 7400, 7928
5995, 3112, 3111, 1058, 6855, 3132, 3145, 3142, 7457, 7697, 7698
5996, 1803, 6102, 6130, 6882, 7040, 6350, 7042, 8734, 8736, 8735
5997, 2842, 1028, 1114, 3280, 7414, 7604, 8165, 8168, 7380, 8167
5998, 6122, 6840, 6099, 6850, 7654, 7655, 6346, 8220, 8737, 8219
5999, 2843, 1115, 1033, 3281, 8499, 8524, 7397, 7168, 8526, 7158
6000, 215, 6355, 6358, 516, 6374, 6379, 6378, 8738, 8740, 8739
6001, 271, 272, 4694, 6838, 1698, 4740, 4739, 8730, 8731, 7292
6002, 2256, 852, 3069, 6889, 8741, 8742, 7375, 7332, 8743, 8226
6003, 6440, 6439, 6424, 6885, 6647, 6591, 6648, 8176, 7854, 8019
6004, 2297, 854, 3072, 2278, 8744, 8745, 8036, 2463, 8746, 8253
6005, 2849, 1115, 2843, 3281, 8747, 8499, 2957, 8748, 8526, 7168
6006, 3674, 6874, 3676, 6891, 7615, 7616, 3979, 7269, 8749, 7271
6007, 627, 614, 657, 67, 8750, 2620, 2534, 2533, 615, 658
6008, 70, 730, 92, 720, 8751, 732, 2545, 2544, 2599, 722
6009, 733, 632, 90, 717, 8752, 2589, 734, 2600, 2590, 718
6010, 790, 660, 72, 628, 2619, 662, 792, 8753, 2537, 2549
6011, 628, 781, 669, 74, 8754, 2616, 2554, 2553, 782, 670
6012, 86, 705, 745, 631, 706, 2604, 746, 2580, 2581, 8755
6013, 742, 632, 708, 88, 8756, 2584, 2603, 744, 2585, 710
6014, 76, 629, 778, 672, 2558, 8757, 780, 674, 2557, 2615
6015, 630, 757, 693, 82, 8758, 2608, 2572, 2571, 758, 694
6016, 630, 766, 80, 684, 8759, 768, 2567, 2566, 2611, 686
6017, 1211, 5365, 136, 1947, 8760, 8761, 1213, 8762, 5378, 8763
6018, 245, 6808, 6817, 6825, 8764, 8691, 8765, 7979, 8733, 8704
6019, 4687, 4660, 265, 6816, 4723, 4719, 4721, 7542, 7543, 7987
6020, 1802, 6820, 1803, 6829, 8468, 7846, 1809, 8723, 8431, 8042
6021, 5364, 5366, 1944, 5023, 5397, 5373, 5374, 8175, 7808, 8766
6022, 2267, 2295, 863, 3115, 2467, 8767, 8768, 7528, 7527, 8769
6023, 795, 648, 647, 1043, 8770, 653, 8771, 8772, 8774, 8773
6024, 3698, 6874, 3663, 6900, 7175, 7176, 3938, 8775, 8776, 8453
6025, 5353, 1461, 1455, 5357, 8777, 4335, 7967, 5388, 8778, 7966
6026, 1802, 2111, 6820, 6829, 7940, 8161, 8468, 8723, 8430, 8431
6027, 6486, 6427, 6469, 6832, 6664, 6571, 6665, 8779, 8781, 8780
6028, 1112, 2847, 2851, 2860, 8507, 2896, 8137, 8138, 2966, 3014
6029, 5603, 2106, 5616, 5607, 8782, 8223, 5722, 5652, 8062, 5770
6030, 2290, 1618, 6364, 6360, 8440, 6370, 8441, 8591, 6376, 6408
6031, 6107, 6099, 6100, 6850, 6343, 6306, 6344, 8218, 8219, 8520
6032, 146, 4166, 1370, 1755, 4170, 4169, 1372, 8783, 8129, 8784
6033, 329, 330, 515, 2022, 1866, 8785, 8786, 5564, 2023, 8725
6034, 219, 215, 1618, 517, 1501, 1620, 4605, 8787, 8788, 8702
6035, 6849, 6877, 4291, 6879, 8789, 8790, 7800, 8791, 8793, 8792
6036, 6454, 6485, 6453, 6832, 6773, 6772, 6767, 8794, 8796, 8795
6037, 1033, 3027, 3028, 6855, 3066, 3057, 3041, 7912, 8157, 7456
6038, 470, 480, 6356, 479, 2226, 8797, 7493, 2224, 483, 8798
6039, 6102, 6129, 6130, 6882, 6338, 6351, 6350, 8736, 8799, 8735
6040, 2267, 3153, 881, 2295, 7525, 8656, 8655, 2467, 7526, 8800
6041, 2842, 1114, 2848, 3287, 8165, 8801, 2948, 8164, 8166, 8802
6042, 6099, 6103, 6098, 6826, 6341, 6340, 6304, 8415, 8572, 8573
6043, 2296, 835, 3033, 6889, 8803, 8804, 7726, 7855, 8805, 7320
6044, 840, 2279, 95, 3028, 7963, 8416, 847, 7964, 7553, 7669
6045, 295, 4891, 6092, 6820, 8806, 7117, 6242, 8807, 7778, 7776
6046, 335, 1412, 1800, 1832, 8214, 8213, 6975, 7468, 8808, 7467
6047, 3027, 2266, 840, 6855, 8809, 8810, 8683, 8157, 8689, 8023
6048, 5435, 5443, 1581, 6897, 5501, 8811, 8812, 8621, 8419, 8813
6049, 3290, 3277, 2863, 976, 3311, 7537, 8287, 3310, 3306, 2947
6050, 3073, 1042, 6357, 647, 3100, 7123, 7124, 8539, 7733, 6397
6051, 2257, 2291, 42, 6864, 2329, 2325, 2327, 8364, 8365, 8814
6052, 6045, 5970, 2059, 5595, 7081, 8815, 6056, 7639, 7349, 5717
6053, 3364, 2839, 3507, 989, 7599, 7262, 7198, 3376, 2961, 8000
6054, 3111, 6855, 2294, 6898, 7697, 8816, 8817, 7711, 7638, 8818
6055, 3366, 2833, 6860, 6901, 7862, 8819, 7906, 7863, 7864, 7201
6056, 189, 188, 125, 6831, 1451, 1485, 4338, 8820, 7895, 7896
6057, 3656, 3657, 6845, 6895, 3910, 7423, 7424, 7699, 7272, 8821
6058, 4962, 4683, 5366, 5023, 8822, 8823, 7809, 7807, 8824, 7808
6059, 2282, 793, 646, 6863, 8136, 8825, 8098, 7371, 8135, 8100
6060, 881, 2280, 3150, 6857, 8826, 7131, 8827, 8657, 7138, 7139
6061, 2304, 46, 3113, 6898, 2339, 8828, 8399, 8401, 8829, 8400
6062, 163, 2119, 1812, 4966, 2122, 6152, 6151, 8830, 8831, 4991
6063, 5617, 5614, 5588, 6844, 5679, 5774, 5771, 8425, 8832, 7595
6064, 1058, 2861, 6866, 6894, 7137, 7899, 7367, 7185, 8833, 7369
6065, 3686, 3695, 3718, 6848, 3859, 3964, 3987, 8834, 8836, 8835
6066, 3675, 3672, 3674, 6848, 3971, 3969, 3972, 8837, 8658, 7382
6067, 2106, 5607, 5603, 6836, 8062, 5652, 8782, 7503, 7442, 8838
6068, 4154, 1755, 1756, 6126, 8839, 1762, 8840, 8841, 8634, 8842
6069, 1117, 1056, 3114, 6886, 7303, 3141, 8510, 7354, 7073, 8684
6070, 2263, 736, 58, 3150, 8700, 2659, 2366, 7130, 8701, 8843
6071, 4884, 4659, 4887, 6834, 7712, 7795, 4946, 7714, 7266, 7796
6072, 1212, 1949, 137, 5356, 8844, 8845, 1215, 7876, 5401, 8846
6073, 5871, 362, 5608, 5885, 8847, 8848, 8285, 5945, 8849, 8286
6074, 163, 1812, 302, 4966, 6151, 1813, 6148, 8830, 4991, 4990
6075, 3632, 1115, 109, 6893, 3638, 8457, 8353, 8271, 7477, 7760
6076, 6484, 6437, 6438, 6854, 6710, 6701, 6711, 8268, 8851, 8850
6077, 6825, 6845, 6812, 6895, 8852, 8853, 7980, 8512, 8821, 8854
6078, 215, 6360, 517, 2286, 6377, 8855, 8788, 8595, 8593, 2407
6079, 6475, 6485, 6430, 6832, 6682, 6681, 6598, 8856, 8796, 8857
6080, 130, 6116, 246, 5068, 6141, 6140, 1863, 5070, 8858, 5072
6081, 6099, 6098, 6090, 6826, 6304, 6229, 6305, 8415, 8573, 8208
6082, 3072, 2278, 96, 6863, 8253, 8859, 8860, 7288, 8121, 7330
6083, 799, 2861, 1058, 6894, 8861, 7137, 8862, 8863, 8833, 7185
6084, 2294, 6855, 2288, 6898, 8816, 7232, 2519, 8818, 7638, 7636
6085, 1045, 6860, 2862, 6901, 7200, 7870, 7060, 7132, 7201, 8864
6086, 3692, 3675, 3676, 6891, 3982, 3978, 3983, 8865, 7270, 7271
6087, 3507, 3496, 3364, 1113, 3571, 6949, 7198, 8866, 8867, 3383
6088, 4676, 4670, 4673, 6834, 4842, 4835, 4843, 7609, 8318, 7939
6089, 13, 6812, 11, 6876, 8868, 8869, 423, 8870, 8872, 8871
6090, 2294, 2300, 2288, 6855, 2476, 2525, 2519, 8816, 8022, 7232
6091, 4679, 1713, 5362, 5360, 4783, 5390, 8009, 8008, 5392, 5394
6092, 3112, 865, 3111, 6855, 8143, 8873, 3132, 7457, 8144, 7697
6093, 3692, 3679, 3701, 6891, 3993, 4000, 3999, 8865, 8874, 8306
6094, 5439, 2108, 1577, 5429, 8875, 7324, 7315, 5453, 8464, 7317
6095, 1072, 3419, 3402, 6837, 8205, 3465, 8204, 7509, 8350, 8876
6096, 3406, 3419, 115, 2852, 3482, 8877, 8878, 8355, 8356, 8879
6097, 215, 6355, 516, 517, 6374, 8740, 8738, 8788, 8880, 520
6098, 1753, 6883, 2110, 6904, 7946, 8694, 8881, 8882, 7212, 8695
6099, 3713, 6831, 3683, 6842, 8587, 8585, 3891, 6905, 8883, 6907
6100, 4884, 4676, 4692, 6834, 8422, 4849, 7713, 7714, 7609, 7268
6101, 5879, 4265, 5869, 186, 6996, 7600, 5893, 8884, 4267, 7445
6102, 451, 461, 189, 460, 2211, 8089, 8885, 2208, 464, 8886
6103, 451, 461, 452, 189, 2211, 2210, 455, 8885, 8089, 7871
6104, 5605, 6047, 2109, 5444, 8887, 6074, 8888, 8889, 8428, 8890
6105, 6437, 6434, 6438, 6854, 6700, 6702, 6701, 8851, 8329, 8850
6106, 2258, 2280, 2285, 6857, 2513, 2516, 2515, 7436, 7138, 7152
6107, 4888, 4661, 4892, 6838, 7844, 7986, 4905, 7847, 7396, 8088
6108, 3114, 3112, 1057, 6893, 3129, 3143, 3140, 8546, 7476, 7632
6109, 3154, 878, 2278, 6863, 8668, 8891, 8120, 7289, 7787, 8121
6110, 4889, 6883, 1753, 6904, 7642, 7946, 4914, 7827, 7212, 8882
6111, 3683, 3691, 3673, 6831, 3977, 3976, 3967, 8585, 8586, 8892
6112, 268, 4690, 267, 6833, 4728, 4727, 1694, 8893, 6991, 8894
6113, 4291, 1453, 6824, 6849, 4308, 7888, 8576, 7800, 7801, 7891
6114, 645, 1070, 3155, 3156, 8895, 3182, 7989, 7990, 3163, 3167
6115, 3111, 865, 2294, 6855, 8873, 8896, 8817, 7697, 8144, 8816
6116, 3500, 2839, 3364, 2860, 7260, 7599, 6947, 7517, 2963, 7516
6117, 4660, 264, 4538, 4542, 4718, 7009, 7010, 7429, 8516, 4581
6118, 5960, 2107, 1951, 6045, 8627, 7683, 8055, 7080, 6063, 8056
6119, 742, 88, 2258, 6857, 744, 8897, 8898, 8899, 8900, 7436
6120, 1714, 5366, 4683, 5023, 5370, 8823, 4772, 8901, 7808, 8824
6121, 5357, 1711, 1461, 4695, 5384, 8902, 8778, 7954, 4767, 8903
6122, 1461, 1454, 5357, 4695, 4334, 8378, 8778, 8903, 8904, 7954
6123, 3710, 3641, 3712, 6892, 3846, 3847, 3849, 7916, 7914, 8007
6124, 3700, 66, 37, 3031, 3773, 609, 3774, 8905, 8907, 8906
6125, 1412, 5881, 5602, 1800, 8408, 8315, 8908, 8213, 8314, 8313
6126, 5361, 1211, 5365, 6887, 8909, 8760, 5400, 7083, 8719, 8533
6127, 2864, 3285, 2859, 979, 7281, 6917, 2956, 2954, 3321, 2953
6128, 1950, 1414, 1949, 6890, 8910, 8911, 1956, 7141, 8913, 8912
6129, 1577, 5598, 2108, 6890, 8156, 8463, 7324, 7667, 8643, 7666
6130, 443, 442, 452, 6849, 446, 2204, 2203, 8914, 8915, 7302
6131, 452, 442, 451, 6849, 2204, 2202, 455, 7302, 8915, 8916
6132, 4677, 4687, 6816, 6856, 4814, 7542, 7264, 7574, 7805, 7695
6133, 49, 760, 3109, 81, 2682, 8715, 8681, 830, 761, 8917
6134, 3716, 6364, 2298, 2290, 8918, 8919, 8920, 8921, 8441, 2414
6135, 389, 397, 1453, 388, 2161, 8922, 8923, 392, 2158, 8924
6136, 397, 389, 1453, 398, 2161, 8923, 8922, 401, 2163, 8925
6137, 5969, 1950, 5967, 6852, 7020, 8199, 6039, 7753, 7471, 8926
6138, 5598, 5589, 2108, 6890, 5730, 8651, 8463, 8643, 8654, 7666
6139, 760, 50, 3109, 82, 2681, 8716, 8715, 762, 832, 8927
6140, 295, 1752, 4891, 6820, 7561, 4923, 8806, 8807, 8159, 7778
6141, 264, 241, 4538, 1602, 1722, 4578, 7009, 4853, 1603, 4579
6142, 2255, 2269, 2275, 6893, 2500, 2501, 2492, 8177, 7767, 8545
6143, 1658, 6877, 6849, 6879, 8928, 8789, 7909, 8929, 8793, 8791
6144, 2256, 648, 2298, 6902, 8607, 8930, 2505, 7463, 8727, 7465
6145, 3071, 852, 2296, 6889, 8931, 8932, 7725, 7319, 8743, 7855
6146, 4960, 6847, 1801, 6903, 7145, 8465, 5000, 8528, 7885, 7937
6147, 87, 742, 2258, 6857, 743, 8898, 8933, 8934, 8899, 7436
6148, 5970, 2059, 5597, 6852, 8815, 5725, 7538, 7539, 8935, 7541
6149, 4696, 4680, 4542, 6856, 4827, 8048, 7430, 7806, 8462, 8936
6150, 274, 5272, 4959, 6815, 5274, 8263, 8147, 7901, 7556, 8192
6151, 3029, 2265, 524, 2271, 7771, 2313, 8937, 7775, 2416, 2415
6152, 191, 6123, 1578, 6890, 6215, 8938, 4547, 7748, 8940, 8939
6153, 6445, 6433, 6827, 6839, 6697, 7417, 7856, 7387, 7194, 8551
6154, 3658, 6116, 5068, 6825, 8941, 8858, 8942, 7721, 8944, 8943
6155, 6136, 6114, 6094, 6850, 6325, 6324, 6326, 8566, 8245, 8096
6156, 6115, 4106, 4100, 6841, 8945, 8946, 8947, 8948, 8950, 8949
6157, 3363, 6866, 2832, 6894, 7820, 8951, 7927, 7821, 7369, 7929
6158, 5798, 5783, 1753, 5791, 5846, 8952, 8953, 5845, 5816, 8302
6159, 6360, 2290, 1618, 517, 8591, 8440, 6376, 8855, 2305, 8702
6160, 2860, 1112, 3364, 1047, 8138, 3379, 7516, 8087, 7586, 7408
6161, 4888, 271, 4694, 6838, 7842, 4739, 7843, 7847, 8730, 7292
6162, 2852, 3419, 3365, 6837, 8356, 8349, 8954, 8955, 8350, 8351
6163, 4142, 1350, 1757, 4895, 4145, 8232, 8956, 8957, 8958, 4941
6164, 3506, 3507, 3492, 6860, 3564, 3561, 3562, 7869, 8002, 8003
6165, 1117, 3632, 115, 6886, 3635, 3634, 1124, 7354, 8270, 8325
6166, 6045, 5616, 5964, 5595, 8067, 8240, 7082, 7639, 5719, 7348
6167, 4958, 4664, 4959, 4961, 7452, 8191, 4972, 5013, 7451, 4980
6168, 864, 3112, 3114, 6893, 8369, 3129, 8959, 8370, 7476, 8546
6169, 1574, 4540, 6856, 6883, 4570, 8388, 7723, 7410, 8390, 7770
6170, 3494, 2851, 110, 2850, 7848, 7857, 7505, 7084, 2901, 7065
6171, 6808, 6892, 6842, 6895, 8960, 8961, 8692, 8693, 8962, 8467
6172, 5358, 5353, 1455, 5356, 5416, 7967, 8522, 5406, 5414, 7968
6173, 268, 267, 5320, 6833, 1694, 5322, 5321, 8893, 8894, 8963
6174, 154, 4112, 4118, 6841, 4114, 8181, 4122, 8964, 8182, 8183
6175, 6819, 6827, 6443, 6839, 8224, 7416, 7126, 8965, 8551, 7195
6176, 3703, 3665, 3658, 6825, 3929, 3819, 3879, 7719, 8966, 7721
6177, 4884, 269, 4693, 270, 4897, 4733, 8421, 4896, 1696, 4734
6178, 330, 2272, 515, 6359, 8967, 2403, 8785, 6386, 8968, 8726
6179, 990, 2833, 3366, 2842, 2968, 7862, 3380, 2975, 2974, 7861
6180, 3363, 991, 2843, 2832, 3391, 2978, 7926, 7927, 2976, 2979
6181, 5599, 5588, 6042, 2061, 5735, 7593, 7981, 5734, 5732, 6071
6182, 6093, 4178, 6840, 6850, 7740, 7743, 7744, 8969, 8970, 8737
6183, 5433, 5619, 5598, 6899, 7904, 5698, 7012, 7650, 8435, 7959
6184, 3501, 3506, 1045, 6860, 3575, 7057, 8396, 8971, 7869, 7200
6185, 3412, 2853, 3418, 6830, 8972, 8973, 3480, 8974, 8975, 8256
6186, 5599, 1966, 5444, 5432, 5706, 5456, 8976, 8292, 5486, 5489
6187, 3698, 3663, 3662, 6900, 3938, 3870, 3939, 8775, 8453, 8454
6188, 793, 6837, 2851, 6863, 8977, 8508, 8978, 8135, 7511, 7859
6189, 3686, 3718, 3675, 6848, 3987, 3973, 3986, 8834, 8835, 8837
6190, 2259, 2287, 44, 6898, 2335, 2331, 2333, 7960, 7637, 8979
6191, 2282, 553, 2273, 6494, 2419, 2310, 2423, 8980, 6603, 8981
6192, 3407, 3412, 3416, 2844, 3447, 3486, 3485, 8495, 8982, 7626
6193, 4885, 4887, 4884, 4659, 4910, 4946, 4900, 7633, 7795, 7712
6194, 6093, 6122, 6107, 6850, 6322, 6321, 6320, 8969, 8220, 8218
6195, 840, 2266, 2300, 6855, 8810, 2438, 7962, 8023, 8689, 8022
6196, 1834, 408, 417, 416, 8983, 2174, 8984, 8436, 2177, 420
6197, 408, 1834, 407, 416, 8983, 8437, 411, 2177, 8436, 2175
6198, 3497, 2837, 3498, 795, 8985, 8986, 3556, 8987, 8989, 8988
6199, 2262, 2278, 878, 6863, 2394, 8891, 8612, 7373, 8121, 7787
6200, 1755, 1360, 4154, 1756, 8990, 4157, 8839, 1762, 8991, 8840
6201, 5615, 5620, 5432, 1965, 5704, 8291, 7427, 5701, 5702, 5487
6202, 1582, 6826, 2109, 6897, 8248, 8249, 7588, 8992, 8993, 8054
6203, 3109, 757, 51, 3110, 8994, 2685, 8995, 3139, 8997, 8996
6204, 3205, 2838, 3362, 992, 7240, 7454, 7473, 8998, 2981, 3396
6205, 237, 4665, 1574, 6856, 4703, 7845, 1575, 8498, 7578, 7723
6206, 801, 2855, 6830, 6857, 8999, 7546, 9000, 9001, 7548, 7206
6207, 2119, 163, 6468, 4966, 2122, 6559, 6560, 8831, 8830, 9002
6208, 3651, 3647, 3653, 6895, 3873, 3875, 3874, 7881, 7902, 7496
6209, 273, 5295, 1930, 6838, 5296, 5299, 1931, 9003, 9005, 9004
6210, 5343, 266, 265, 6816, 5344, 1692, 5345, 8501, 8699, 7987
6211, 2293, 3073, 849, 2272, 8538, 8044, 9006, 2408, 7983, 8045
6212, 1046, 1112, 1113, 6888, 8532, 1119, 7620, 8140, 7678, 8475
6213, 6358, 648, 6360, 2286, 6402, 6407, 6380, 8594, 8622, 8593
6214, 1072, 115, 3419, 3365, 9007, 8877, 8205, 8348, 3371, 8349
6215, 6834, 6856, 6810, 6896, 7768, 7724, 7392, 8450, 7991, 7112
6216, 6477, 877, 3156, 552, 9008, 7035, 9009, 6553, 8024, 8025
6217, 3664, 3680, 3687, 6858, 3730, 3836, 3944, 9010, 9012, 9011
6218, 4667, 4668, 4669, 6896, 4821, 4829, 4828, 7612, 8034, 7169
6219, 3361, 115, 3418, 1073, 3368, 9013, 8254, 8255, 8625, 8250
6220, 4962, 5366, 4683, 6865, 7809, 8823, 8822, 7829, 7828, 9014
6221, 6102, 6820, 6097, 6841, 7038, 7603, 6335, 8358, 8620, 8360
6222, 66, 610, 37, 3031, 611, 2527, 609, 8907, 9015, 8906
6223, 2022, 330, 515, 6359, 2023, 8785, 8725, 6387, 6386, 8726
6224, 6476, 6440, 6441, 6885, 6718, 6649, 6719, 7247, 8176, 7999
6225, 727, 112, 98, 3151, 9016, 9017, 9018, 9019, 3158, 9020
6226, 3632, 6886, 1117, 6893, 8270, 7354, 3635, 8271, 8198, 8547
6227, 2292, 3030, 40, 6864, 9021, 9022, 2319, 9023, 9025, 9024
6228, 2295, 863, 3115, 6886, 8767, 8769, 7527, 7717, 9026, 7071
6229, 5885, 1801, 5868, 5874, 9027, 9028, 5930, 5931, 9029, 5906
6230, 1578, 1577, 191, 6890, 1584, 4548, 4547, 8939, 7667, 7748
6231, 2260, 849, 570, 2704, 7715, 2713, 2388, 7558, 2710, 2708
6232, 1461, 5353, 1711, 5357, 8777, 5386, 8902, 8778, 5388, 5384
6233, 3654, 3656, 3651, 6895, 3895, 3894, 3892, 7274, 7699, 7881
6234, 852, 2256, 3069, 851, 8741, 7375, 8742, 858, 7374, 7376
6235, 6826, 6844, 2109, 6897, 8407, 8053, 8249, 8993, 7597, 8054
6236, 572, 851, 850, 2261, 2717, 857, 2714, 2444, 7377, 8393
6237, 3659, 6825, 3656, 6845, 7674, 7675, 3918, 7425, 8852, 7424
6238, 2062, 6043, 5594, 5787, 6076, 7789, 5737, 7815, 6971, 7433
6239, 1453, 6812, 6139, 6858, 9030, 7975, 6273, 9031, 8265, 8266
6240, 3418, 2853, 3361, 6830, 8973, 9032, 8254, 8256, 8975, 8258
6241, 6044, 5885, 1801, 6836, 9033, 9027, 9034, 9035, 9036, 7936
6242, 5363, 1709, 5355, 4675, 5369, 5380, 5382, 8375, 4773, 7535
6243, 4673, 6834, 4670, 6896, 7939, 8318, 4835, 8033, 8450, 8483
6244, 6042, 2109, 2110, 6844, 6073, 2116, 6078, 7594, 8053, 9037
6245, 6470, 6452, 6451, 6862, 6761, 6758, 6762, 7029, 7030, 8322
6246, 6492, 6467, 6419, 6853, 6624, 6523, 6625, 9038, 9040, 9039
6247, 498, 6356, 497, 516, 9041, 9042, 501, 9043, 8460, 9044
6248, 6139, 4589, 245, 244, 9045, 4597, 7977, 8672, 4596, 1608
6249, 6487, 6445, 6466, 6853, 6736, 6698, 6737, 9046, 9048, 9047
6250, 4967, 362, 1801, 6847, 7420, 9049, 5008, 7098, 7421, 8465
6251, 6045, 1952, 5616, 2106, 7925, 8065, 8067, 6059, 7502, 8223
6252, 3501, 3507, 3506, 6860, 3572, 3564, 3575, 8971, 8002, 7869
6253, 5783, 5789, 5795, 1754, 5819, 5844, 5843, 9050, 7344, 7345
6254, 4658, 273, 274, 6815, 4745, 1700, 4746, 7730, 8379, 7901
6255, 4658, 6815, 4671, 6884, 7730, 7498, 4786, 8559, 8021, 7641
6256, 5611, 5610, 5601, 6820, 5768, 5745, 5693, 8374, 8160, 8488
6257, 3690, 1591, 1578, 1579, 9051, 4551, 9052, 9053, 4584, 1585
6258, 295, 4886, 4890, 6859, 9054, 4930, 7560, 7562, 7961, 7564
6259, 5877, 5872, 5600, 5883, 5928, 8352, 9055, 5950, 5949, 8038
6260, 2255, 2275, 880, 6886, 2492, 9056, 8479, 8197, 8544, 8482
6261, 4677, 4668, 4666, 6856, 4823, 4822, 4824, 7574, 7575, 7577
6262, 6093, 6840, 6122, 6850, 7744, 7654, 6322, 8969, 8737, 8220
6263, 215, 6360, 1618, 517, 6377, 6376, 1620, 8788, 8855, 8702
6264, 111, 85, 751, 3110, 7656, 753, 9057, 3117, 7658, 8697
6265, 3695, 3710, 3669, 6892, 3959, 3958, 3955, 8119, 7916, 7833
6266, 469, 479, 6355, 478, 2225, 9058, 7580, 2221, 482, 8529
6267, 479, 469, 6355, 470, 2225, 7580, 9058, 2224, 473, 8063
6268, 6091, 4106, 6115, 6841, 9059, 8945, 6164, 9060, 8950, 8948
6269, 5608, 5885, 6044, 6836, 8286, 9033, 9061, 9062, 9036, 9035
6270, 793, 2851, 110, 6863, 8978, 7857, 9063, 8135, 7859, 7331
6271, 1420, 1804, 1803, 5875, 9064, 1810, 9065, 9066, 9067, 8387
6272, 614, 838, 3030, 39, 8272, 8276, 8275, 2528, 9069, 9068
6273, 2293, 6358, 516, 2286, 9070, 8739, 2409, 2410, 8594, 2406
6274, 6357, 2272, 330, 6359, 7984, 8967, 6389, 6390, 8968, 6386
6275, 1581, 6113, 6118, 1593, 7765, 6209, 7764, 4574, 6280, 6281
6276, 4889, 287, 1753, 285, 4913, 4912, 4914, 8277, 1750, 7944
6277, 3657, 3688, 6892, 6895, 3912, 8005, 8006, 7272, 7273, 8962
6278, 6463, 6451, 6498, 6862, 6765, 6752, 6766, 7104, 8322, 7106
6279, 2280, 3150, 2263, 881, 7131, 7130, 2495, 8826, 8827, 9071
6280, 263, 4684, 310, 6823, 4715, 9072, 9073, 9074, 9076, 9075
6281, 6357, 330, 515, 516, 6389, 8785, 9077, 8461, 8459, 519
6282, 1059, 3111, 3113, 6898, 3144, 3135, 3147, 7710, 7711, 8400
6283, 3647, 6817, 3706, 6895, 7279, 7550, 3862, 7902, 8574, 7495
6284, 5365, 5355, 5361, 6887, 5427, 5426, 5400, 8533, 6928, 7083
6285, 5614, 5599, 5588, 6897, 5773, 5735, 5774, 9078, 7982, 7596
6286, 274, 4959, 4698, 6815, 8147, 8145, 4748, 7901, 8192, 7500
6287, 1455, 137, 1949, 5356, 9079, 8845, 8523, 7968, 8846, 5401
6288, 4685, 1686, 235, 6824, 4701, 1687, 4699, 7887, 8011, 9080
6289, 6082, 2107, 2106, 6847, 6086, 2113, 6083, 8115, 7995, 8018
6290, 6358, 647, 3070, 2286, 6401, 8169, 9081, 8594, 8174, 8172
6291, 1153, 6364, 2298, 3716, 6368, 8919, 9082, 3781, 8918, 8920
6292, 274, 4698, 4658, 6815, 4748, 4750, 4746, 7901, 7500, 7730
6293, 863, 97, 2267, 3115, 869, 8443, 8768, 8769, 8444, 7528
6294, 37, 610, 38, 3031, 2527, 2526, 528, 8906, 9015, 9083
6295, 3072, 96, 110, 6863, 8860, 7327, 3076, 7288, 7330, 7331
6296, 2274, 854, 3068, 6888, 9084, 9085, 8299, 8300, 9086, 8141
6297, 2108, 5604, 5598, 5429, 9087, 5696, 8463, 8464, 7567, 7014
6298, 489, 480, 488, 6356, 2230, 2233, 492, 9088, 8797, 9089
6299, 479, 488, 480, 6356, 2232, 2233, 483, 8798, 9089, 8797
6300, 1682, 6824, 1686, 6849, 9090, 8011, 4656, 7974, 7891, 7973
6301, 5366, 5354, 6865, 6903, 5424, 7522, 7828, 7811, 7884, 7830
6302, 6813, 6827, 6819, 6839, 9091, 8224, 9092, 9093, 8551, 8965
6303, 5598, 5612, 5589, 6890, 5778, 5777, 5730, 8643, 9094, 8654
6304, 212, 189, 126, 6831, 1487, 4339, 1486, 9095, 8820, 9096
6305, 6097, 6820, 6101, 6841, 7603, 7777, 6316, 8360, 8620, 8076
6306, 2300, 2294, 865, 6855, 2476, 8896, 8142, 8022, 8816, 8144
6307, 51, 3109, 3110, 868, 8995, 3139, 8996, 9097, 9099, 9098
6308, 96, 3072, 854, 2278, 8860, 8745, 861, 8859, 8253, 8746
6309, 3287, 1114, 2848, 3280, 8166, 8801, 8802, 3301, 8167, 9100
6310, 1832, 304, 6124, 1800, 1835, 6251, 6253, 7467, 4998, 9101
6311, 304, 5023, 4962, 6903, 5025, 7807, 4995, 9102, 7812, 7810
6312, 1834, 346, 345, 5547, 8514, 2012, 9103, 9104, 5556, 5554
6313, 5354, 5364, 1952, 6903, 5413, 5379, 5410, 7884, 6914, 6915
6314, 5871, 5877, 5609, 5882, 5925, 9105, 9106, 5944, 5943, 9107
6315, 1627, 6362, 214, 6878, 6373, 6372, 1628, 8237, 8238, 9108
6316, 338, 358, 5884, 186, 2098, 5889, 5888, 7444, 7443, 7314
6317, 6365, 1627, 248, 6870, 6381, 1629, 6382, 9109, 9111, 9110
6318, 5878, 5885, 5608, 6836, 5946, 8286, 8284, 9112, 9036, 9062
6319, 6463, 6473, 6853, 6862, 6638, 7446, 7447, 7104, 7105, 9113
6320, 3632, 1113, 1112, 6888, 3636, 1119, 3633, 8269, 8475, 7678
6321, 2261, 3070, 850, 2286, 8392, 8171, 8393, 2446, 8172, 8173
6322, 1454, 1455, 1461, 5357, 1458, 4335, 4334, 8378, 7966, 8778
6323, 189, 125, 126, 6831, 4338, 1165, 4339, 8820, 7896, 9096
6324, 2290, 6364, 2298, 648, 8441, 8919, 2414, 9114, 6406, 8930
6325, 2852, 3414, 3419, 6837, 8357, 3483, 8356, 8955, 9115, 8350
6326, 1194, 1419, 289, 6868, 4263, 8371, 7750, 7482, 9116, 7752
6327, 1950, 6852, 5618, 6890, 7471, 7754, 7022, 7141, 7472, 9117
6328, 1455, 1949, 137, 6890, 8523, 8845, 9079, 9118, 8912, 9119
6329, 2275, 3114, 6886, 6893, 9120, 8684, 8544, 8545, 8546, 8198
6330, 5618, 5593, 5965, 1414, 5663, 6924, 6927, 9121, 9123, 9122
6331, 2274, 2303, 2255, 6888, 2460, 2503, 2504, 8300, 7572, 7835
6332, 2089, 5964, 5971, 5616, 6012, 6015, 5983, 5765, 8240, 8066
6333, 3418, 3412, 3406, 2853, 3480, 3444, 3481, 8973, 8972, 9124
6334, 3660, 3705, 3666, 6876, 3937, 3936, 3935, 9125, 9127, 9126
6335, 2290, 6360, 648, 2261, 8591, 6407, 9114, 2524, 8592, 8608
6336, 4963, 6865, 4960, 6903, 7045, 7146, 5002, 8466, 7830, 8528
6337, 1658, 6849, 1654, 6879, 7909, 7908, 4635, 8929, 8791, 9128
6338, 880, 2255, 3152, 879, 8479, 8481, 8480, 886, 9130, 9129
6339, 1074, 3153, 3150, 6857, 3187, 3179, 3190, 9131, 7225, 7139
6340, 2863, 2857, 3290, 976, 2952, 7061, 8287, 2947, 2951, 3310
6341, 3492, 989, 2841, 6860, 8001, 2969, 8417, 8003, 8004, 9132
6342, 5443, 5435, 1581, 5430, 5501, 8812, 8811, 5500, 5472, 9133
6343, 6092, 6096, 297, 6820, 6246, 6245, 6241, 7776, 7039, 8469
6344, 1801, 6847, 2106, 6903, 8465, 8018, 8078, 7937, 7885, 7504
6345, 5592, 5789, 1418, 5617, 6920, 9134, 9135, 5685, 6922, 9136
6346, 4696, 4677, 4666, 6856, 4825, 4824, 4826, 7806, 7574, 7577
6347, 3674, 3675, 6848, 6891, 3972, 8837, 7382, 7269, 7270, 9137
6348, 1670, 6824, 1674, 6849, 9138, 9139, 4647, 9140, 7891, 8047
6349, 6495, 6439, 36, 2273, 6550, 6549, 6546, 8557, 7838, 2308
6350, 2271, 2298, 3715, 649, 2417, 9141, 9142, 8104, 9144, 9143
6351, 3711, 3649, 3677, 6831, 3882, 3881, 3883, 9145, 9147, 9146
6352, 2833, 2842, 2856, 6901, 2974, 3022, 3021, 7864, 7865, 8492
6353, 1650, 1654, 6849, 6879, 4632, 7908, 9148, 9149, 9128, 8791
6354, 6457, 6421, 6473, 6853, 6529, 6635, 6634, 9150, 7448, 7446
6355, 1071, 3402, 3420, 6837, 8185, 3468, 7533, 7510, 8876, 9151
6356, 297, 6815, 296, 6838, 9152, 9153, 1789, 9154, 8069, 9155
6357, 3701, 3702, 3684, 6900, 4003, 3763, 4004, 9156, 9158, 9157
6358, 1756, 1350, 4142, 4895, 8414, 4145, 9159, 4942, 8958, 8957
6359, 3654, 3653, 3655, 6895, 3893, 3904, 3903, 7274, 7496, 7860
6360, 107, 116, 94, 3415, 1138, 8016, 8014, 3424, 3423, 6951
6361, 497, 489, 6356, 498, 2239, 9088, 9042, 501, 2237, 9041
6362, 489, 497, 6356, 488, 2239, 9042, 9088, 492, 2240, 9089
6363, 6082, 362, 2111, 6904, 6084, 2118, 6085, 7799, 7422, 7996
6364, 1300, 4082, 1804, 4965, 4085, 9160, 7692, 9161, 9162, 4994
6365, 3492, 3504, 2841, 1017, 3534, 8645, 8417, 3533, 3527, 3004
6366, 6450, 6486, 6449, 6862, 6754, 6753, 6748, 8280, 7115, 7113
6367, 5364, 1944, 1832, 5023, 5374, 8601, 7469, 8175, 8766, 5026
6368, 3197, 2836, 2861, 799, 6987, 2929, 6989, 9163, 9164, 8861
6369, 1678, 6824, 1682, 6849, 9165, 9090, 4653, 8027, 7891, 7974
6370, 6426, 6819, 6436, 6854, 7246, 7524, 6646, 8577, 9167, 9166
6371, 6358, 6357, 2293, 516, 6403, 8713, 9070, 8739, 8461, 2409
6372, 1574, 4542, 237, 6856, 4561, 4559, 1575, 7723, 8936, 8498
6373, 295, 6117, 6092, 4891, 6240, 6243, 6242, 8806, 7116, 7117
6374, 3154, 2297, 879, 6888, 8035, 9168, 9169, 7358, 8126, 9170
6375, 1875, 5075, 6365, 248, 5078, 9171, 6383, 1876, 5076, 6382
6376, 864, 3114, 2275, 6893, 8959, 9120, 9172, 8370, 8546, 8545
6377, 1713, 4679, 4672, 5360, 4783, 4782, 4781, 5392, 8008, 8190
6378, 3420, 3402, 3419, 6837, 3468, 3465, 3469, 9151, 8876, 8350
6379, 6785, 4, 371, 6858, 6790, 374, 6791, 9173, 9175, 9174
6380, 793, 1071, 6837, 6863, 7532, 7510, 8977, 8135, 7450, 7511
6381, 6495, 6494, 2273, 553, 6607, 8981, 8557, 6547, 6603, 2310
6382, 2856, 2862, 6901, 6902, 2914, 8864, 8492, 9176, 8552, 9177
6383, 3072, 1047, 3068, 6888, 3082, 3107, 3098, 7359, 7360, 8141
6384, 1112, 3068, 1047, 6888, 8531, 3107, 7586, 7678, 8141, 7360
6385, 835, 3032, 3033, 6889, 9178, 3044, 8804, 8805, 8125, 7320
6386, 3150, 3153, 881, 6857, 3179, 8656, 8827, 7139, 7225, 8657
6387, 3153, 880, 2295, 6886, 9179, 9180, 7526, 7072, 8482, 7717
6388, 3154, 3152, 1072, 6888, 3173, 3186, 3183, 7358, 8327, 7886
6389, 5882, 1802, 5870, 6829, 8579, 8580, 5939, 8722, 8723, 9181
6390, 1674, 6824, 1678, 6849, 9139, 9165, 4650, 8047, 7891, 8027
6391, 3667, 6842, 3655, 6895, 7230, 8331, 3905, 7497, 8467, 7860
6392, 3156, 2270, 645, 552, 7033, 7988, 7990, 8025, 2421, 9182
6393, 3071, 3068, 1046, 6867, 3097, 3108, 3105, 7178, 8139, 7179
6394, 345, 6134, 1834, 5547, 9183, 6259, 9103, 5554, 9184, 9104
6395, 1705, 4675, 5363, 6887, 4774, 8375, 9185, 9186, 8332, 8376
6396, 3661, 1615, 1618, 6900, 8549, 4604, 7950, 7953, 8550, 7952
6397, 5796, 5789, 5786, 5795, 5851, 9187, 5859, 5860, 5844, 5856
6398, 245, 6812, 6808, 6825, 7976, 9188, 8764, 7979, 7980, 8733
6399, 295, 297, 1752, 6820, 1791, 7919, 7561, 8807, 8469, 8159
6400, 1658, 1662, 6849, 6877, 4638, 9189, 7909, 8928, 9190, 8789
6401, 4178, 1380, 144, 6840, 4181, 1382, 4182, 7743, 9192, 9191
6402, 1114, 109, 3632, 1115, 8619, 8353, 3637, 1121, 8457, 3638
6403, 1072, 3152, 115, 6888, 3186, 8323, 9007, 7886, 8327, 8326
6404, 6429, 6434, 6827, 6854, 6676, 7093, 7091, 8328, 8329, 9193
6405, 3281, 2864, 2843, 980, 8162, 2959, 7168, 3300, 2955, 2958
6406, 3069, 3071, 1045, 6889, 3094, 3106, 3103, 8226, 7319, 7788
6407, 297, 299, 6815, 6859, 1794, 8521, 9152, 7920, 7880, 8068
6408, 3420, 3419, 3414, 6837, 3469, 3483, 3490, 9151, 8350, 9115
6409, 1779, 6109, 6110, 6840, 6233, 6284, 6283, 9194, 8675, 8676
6410, 1577, 6890, 1578, 6899, 7667, 8939, 1584, 8059, 8644, 9195
6411, 1662, 1666, 6849, 6877, 4641, 9196, 9189, 9190, 9197, 8789
6412, 6447, 6449, 6459, 6861, 6744, 6747, 6746, 9198, 9200, 9199
6413, 6458, 6456, 6491, 6133, 6504, 6724, 6614, 9201, 7005, 7006
6414, 2734, 877, 6477, 552, 2740, 9008, 8473, 8474, 8024, 6553
6415, 6043, 2110, 1753, 5791, 6079, 8881, 8301, 6940, 8569, 8302
6416, 3671, 6842, 3683, 6848, 7285, 6907, 3968, 8084, 9202, 8085
6417, 793, 3420, 2751, 2846, 7531, 7407, 2755, 9203, 8484, 7958
6418, 2266, 2281, 2291, 6864, 2435, 2326, 2511, 8366, 9204, 8365
6419, 3027, 2266, 6855, 6864, 8809, 8689, 8157, 8615, 8366, 8614
6420, 2257, 42, 43, 6864, 2327, 533, 2328, 8364, 8814, 9205
6421, 2843, 2832, 2858, 6894, 2979, 3018, 3017, 7928, 7929, 8423
6422, 2277, 852, 2256, 6889, 9206, 8741, 2454, 8124, 8743, 7332
6423, 1153, 2298, 6364, 648, 9082, 8919, 6368, 6404, 8930, 6406
6424, 5599, 5620, 5432, 6897, 5707, 8291, 8292, 7982, 9207, 8418
6425, 6139, 1453, 244, 6812, 6273, 8515, 8672, 7975, 9030, 8673
6426, 1580, 1592, 1593, 6125, 4585, 1596, 4587, 7662, 6213, 6276
6427, 4543, 2108, 238, 6846, 7783, 9208, 4562, 6978, 7325, 7402
6428, 1044, 648, 3069, 6902, 9209, 8606, 3104, 8561, 8727, 8227
6429, 801, 111, 2855, 6857, 9210, 7547, 8999, 9001, 7205, 7548
6430, 2293, 3073, 6357, 647, 8538, 7124, 8713, 8540, 8539, 6397
6431, 610, 38, 3031, 67, 2526, 9083, 9015, 612, 613, 9211
6432, 6091, 6115, 6129, 6841, 6164, 6313, 6312, 9060, 8948, 8359
6433, 6109, 1754, 285, 6098, 9212, 7945, 6231, 6232, 9213, 6227
6434, 1951, 5967, 1950, 6852, 8304, 8199, 1957, 7755, 8926, 7471
6435, 854, 2297, 3072, 6888, 8744, 8036, 8745, 9086, 8126, 7359
6436, 362, 6041, 1802, 5882, 6048, 8721, 7565, 9214, 8720, 8579
6437, 5602, 5878, 5881, 5873, 9215, 5952, 8315, 8584, 5919, 5951
6438, 398, 406, 407, 6849, 2168, 410, 2170, 9216, 9217, 8438
6439, 3687, 3665, 3666, 6858, 3834, 3947, 3946, 9011, 9219, 9218
6440, 1045, 1046, 3501, 6860, 1052, 8588, 8396, 7200, 7199, 8971
6441, 5871, 5609, 362, 5882, 9106, 9220, 8847, 5944, 9107, 9214
6442, 6357, 646, 2272, 6359, 6396, 8712, 7984, 6390, 6399, 8968
6443, 5791, 5784, 1752, 5797, 5813, 7245, 7220, 5849, 5848, 7028
6444, 6041, 5882, 5609, 6829, 8720, 9107, 9221, 8724, 8722, 9222
6445, 1420, 1419, 5611, 6820, 1429, 8373, 9223, 8361, 8362, 8374
6446, 3114, 1056, 3115, 6886, 3141, 3122, 3126, 8684, 7073, 7071
6447, 3418, 3406, 115, 2853, 3481, 8878, 9013, 8973, 9124, 9224
6448, 524, 3029, 2271, 649, 8937, 7775, 2415, 9225, 8103, 8104
6449, 1058, 3191, 1057, 6866, 7545, 8073, 1064, 7367, 8451, 7368
6450, 1803, 6820, 6102, 6882, 7846, 7038, 7040, 8734, 9226, 8736
6451, 1192, 1375, 144, 6840, 9227, 1376, 4040, 8288, 9228, 9191
6452, 1623, 6822, 1630, 6849, 9229, 9230, 4614, 9231, 9232, 8297
6453, 228, 6877, 1658, 6879, 9233, 8928, 1659, 9234, 8793, 8929
6454, 266, 4687, 265, 6816, 4722, 4721, 1692, 8699, 7542, 7987
6455, 1073, 3152, 3153, 6886, 3185, 3176, 3188, 7462, 8324, 7072
6456, 1826, 1804, 4082, 4965, 5012, 9160, 9235, 4992, 4994, 9162
6457, 379, 363, 1, 6858, 2144, 366, 2143, 8565, 9237, 9236
6458, 2292, 40, 2281, 6864, 2319, 2321, 2323, 9023, 9024, 9204
6459, 3695, 3686, 3643, 6835, 3859, 3858, 3855, 9238, 8663, 8664
6460, 1211, 5361, 5365, 1947, 8909, 5400, 8760, 8762, 5399, 5378
6461, 289, 1419, 1194, 6820, 8371, 4263, 7750, 7751, 8362, 7479
6462, 854, 3072, 3068, 6888, 8745, 3098, 9085, 9086, 7359, 8141
6463, 866, 2289, 2304, 6898, 9239, 2341, 8398, 8402, 9240, 8401
6464, 191, 1455, 6123, 6890, 1459, 6216, 6215, 7748, 9118, 8940
6465, 1057, 1116, 1117, 6893, 7877, 1123, 8511, 7632, 8605, 8547
6466, 1412, 5881, 4265, 5602, 8408, 7519, 4269, 8908, 8315, 7956
6467, 2269, 2303, 2268, 6867, 2502, 2459, 2383, 7569, 7568, 7782
6468, 328, 307, 341, 6861, 1862, 2003, 5543, 9241, 8497, 8163
6469, 3494, 1019, 3500, 2860, 3515, 3535, 3538, 7515, 3009, 7517
6470, 4136, 4894, 1781, 1757, 8341, 4922, 8343, 8424, 4924, 4944
6471, 1, 5, 379, 6858, 387, 382, 2143, 9236, 8563, 8565
6472, 3416, 3403, 1074, 6830, 3470, 8200, 7627, 7631, 8596, 7630
6473, 5870, 1803, 5883, 6829, 8386, 8039, 5940, 9181, 8042, 8043
6474, 5366, 1714, 1704, 5023, 5370, 4762, 9242, 7808, 8901, 8320
6475, 1114, 990, 3366, 2842, 3387, 3380, 3388, 8165, 2975, 7861
6476, 2109, 5599, 6042, 2061, 8642, 7981, 6073, 6072, 5734, 6071
6477, 991, 1115, 3363, 2843, 3392, 3393, 3391, 2978, 8499, 7926
6478, 4670, 4681, 4669, 6896, 4839, 4838, 4833, 8483, 6957, 7169
6479, 852, 3071, 3069, 6889, 8931, 3094, 8742, 8743, 7319, 8226
6480, 4683, 4662, 4958, 6865, 4759, 7108, 9243, 9014, 7107, 7046
6481, 3198, 3208, 3191, 6866, 3258, 3257, 3255, 7900, 8448, 8451
6482, 648, 2256, 2298, 2261, 8607, 2505, 8930, 8608, 2450, 2506
6483, 793, 3155, 1071, 6863, 8133, 3181, 7532, 8135, 7786, 7450
6484, 230, 231, 1670, 6881, 1549, 1671, 4643, 9244, 9246, 9245
6485, 6460, 6490, 6420, 6843, 6628, 6627, 6538, 9247, 8628, 8629
6486, 5586, 5794, 2045, 5594, 7485, 5807, 5635, 5710, 7432, 5708
6487, 2108, 2107, 6082, 6846, 2114, 6086, 6087, 7325, 7684, 7798
6488, 3071, 853, 3068, 6867, 8617, 9248, 3097, 7178, 8618, 8139
6489, 6131, 4172, 178, 6110, 8685, 4177, 6193, 6194, 8686, 6189
6490, 373, 6456, 6133, 365, 9249, 7005, 9250, 2139, 9252, 9251
6491, 258, 1670, 259, 6873, 4645, 1672, 1673, 9253, 9255, 9254
6492, 5609, 5882, 5877, 6829, 9107, 5943, 9105, 9222, 8722, 9256
6493, 3665, 6825, 3666, 6858, 8966, 8674, 3947, 9219, 8267, 9218
6494, 2262, 96, 2278, 6863, 7677, 8859, 2394, 7373, 7330, 8121
6495, 3705, 3687, 3666, 6858, 3948, 3946, 3936, 9257, 9011, 9218
6496, 1941, 5332, 266, 6833, 5335, 5334, 1942, 9258, 9260, 9259
6497, 339, 6365, 308, 6870, 9261, 9262, 2000, 9263, 9109, 9264
6498, 517, 6360, 2290, 2286, 8855, 8591, 2305, 2407, 8593, 2411
6499, 3661, 3716, 35, 6900, 3771, 3767, 3770, 7953, 9266, 9265
6500, 2062, 6042, 5588, 2061, 6070, 7593, 5733, 2068, 6071, 5732
6501, 991, 3363, 992, 2832, 3391, 3390, 998, 2976, 7927, 2977
6502, 2833, 3366, 989, 990, 7862, 3381, 2967, 2968, 3380, 996
6503, 3154, 879, 3152, 6888, 9169, 9129, 3173, 7358, 9170, 8327
6504, 2851, 793, 2847, 6837, 8978, 9267, 2896, 8508, 8977, 8509
6505, 2273, 646, 2260, 2282, 9268, 8491, 2523, 2423, 8098, 2521
6506, 3198, 3204, 964, 2836, 3230, 3228, 3229, 6988, 9269, 2944
6507, 2277, 3032, 835, 6889, 8123, 9178, 9270, 8124, 8125, 8805
6508, 3709, 3675, 3692, 6891, 3985, 3982, 3988, 7932, 7270, 8865
6509, 5618, 5965, 1950, 1414, 6927, 7021, 7022, 9121, 9122, 8910
6510, 6129, 6097, 6108, 6841, 6339, 6337, 6311, 8359, 8360, 8075
6511, 6103, 6826, 6099, 6840, 8572, 8415, 6341, 7653, 9271, 7655
6512, 3715, 3716, 2298, 523, 3827, 8920, 9141, 3826, 3766, 2412
6513, 300, 301, 4961, 6815, 1795, 4977, 4976, 9272, 9273, 8060
6514, 6456, 373, 3, 2, 9249, 377, 6499, 6500, 2138, 370
6515, 1709, 5363, 1705, 4675, 5369, 9185, 4771, 4773, 8375, 4774
6516, 3114, 863, 2275, 6886, 9274, 9275, 9120, 8684, 9026, 8544
6517, 433, 243, 442, 6849, 9276, 9277, 2193, 9278, 8339, 8915
6518, 881, 2267, 2280, 6857, 8655, 2498, 8826, 8657, 7640, 7138
6519, 6109, 6826, 6103, 6840, 8571, 8572, 6342, 8675, 9271, 7653
6520, 6110, 6122, 6131, 6840, 6353, 6323, 6194, 8676, 7654, 7742
6521, 6815, 4674, 6838, 6884, 7729, 7293, 8069, 8021, 6972, 7294
6522, 3671, 3670, 3668, 6848, 3952, 3951, 3953, 8084, 9280, 9279
6523, 6465, 6440, 6489, 6843, 6717, 6721, 6720, 9281, 9283, 9282
6524, 373, 6456, 365, 2, 9249, 9252, 2139, 2138, 6500, 369
6525, 4889, 4887, 287, 285, 4916, 4907, 4913, 8277, 8281, 1750
6526, 1966, 5605, 5599, 5444, 5628, 5705, 5706, 5456, 8889, 8976
6527, 3027, 839, 2266, 6864, 9284, 9285, 8809, 8615, 9286, 8366
6528, 2270, 645, 793, 3155, 7988, 9287, 8134, 7032, 7989, 8133
6529, 3205, 3208, 3198, 6866, 3270, 3258, 3231, 8447, 8448, 7900
6530, 2108, 6047, 5604, 5429, 6069, 9288, 9087, 8464, 9289, 7567
6531, 280, 283, 6816, 6883, 1744, 9290, 8659, 8661, 7592, 7769
6532, 5965, 1950, 1414, 1949, 7021, 8910, 9122, 9291, 1956, 8911
6533, 293, 268, 4885, 1773, 1937, 8260, 4935, 1775, 5318, 4899
6534, 6113, 1581, 6114, 1593, 7765, 7647, 6279, 6280, 4574, 6278
6535, 6426, 6429, 6819, 6854, 6653, 7055, 7246, 8577, 8328, 9167
6536, 362, 6044, 5608, 5885, 6051, 9061, 8848, 8849, 9033, 8286
6537, 6358, 2293, 6357, 647, 9070, 8713, 6403, 6401, 8540, 6397
6538, 2861, 1058, 3197, 799, 7137, 7135, 6989, 8861, 8862, 9163
6539, 4664, 4698, 275, 4959, 4753, 4749, 4751, 8191, 8145, 8146
6540, 5364, 1944, 335, 1832, 5374, 1946, 5375, 7469, 8601, 7468
6541, 3673, 3672, 3671, 6848, 3965, 3961, 3966, 7384, 8658, 8084
6542, 6489, 6455, 6464, 6843, 6777, 6779, 6778, 9282, 8669, 9292
6543, 6121, 4112, 6091, 6841, 8187, 9293, 6167, 8188, 8182, 9060
6544, 3673, 3691, 3711, 6831, 3976, 3884, 3975, 8892, 8586, 9145
6545, 3414, 3408, 3420, 2846, 3438, 3489, 3490, 9294, 8485, 8484
6546, 345, 6807, 1834, 6854, 9295, 9296, 9103, 9297, 9299, 9298
6547, 1153, 3715, 2298, 648, 3830, 9141, 9082, 6404, 9300, 8930
6548, 3361, 1117, 1073, 6830, 3375, 7461, 8255, 8258, 7306, 8257
6549, 5967, 2107, 5970, 6852, 9301, 8626, 6034, 8926, 7756, 7539
6550, 4674, 4671, 4697, 6884, 4788, 4846, 4802, 6972, 7641, 7419
6551, 4130, 152, 4124, 6868, 4134, 4126, 8476, 8112, 8649, 8478
6552, 1350, 1756, 1757, 4895, 8414, 1763, 8232, 8958, 4942, 4941
6553, 2852, 3419, 115, 3365, 8356, 8877, 8879, 8954, 8349, 3371
6554, 5878, 5608, 5871, 2073, 8284, 8285, 5922, 5917, 5753, 5921
6555, 3708, 3717, 3678, 6875, 3902, 3998, 3994, 9302, 9304, 9303
6556, 4958, 4962, 4683, 6865, 4975, 8822, 9243, 7046, 7829, 9014
6557, 4178, 6093, 4184, 6850, 7740, 9305, 9306, 8970, 8969, 9307
6558, 2106, 362, 6082, 6847, 2112, 6084, 6083, 8018, 7421, 8115
6559, 331, 2018, 329, 6809, 5567, 2019, 1867, 9308, 8092, 8090
6560, 2838, 3195, 963, 3205, 7239, 3221, 2939, 7240, 3226, 3225
6561, 3689, 3694, 3719, 6876, 3742, 3933, 3928, 9309, 9311, 9310
6562, 763, 81, 49, 3109, 765, 830, 2677, 8679, 8917, 8681
6563, 2273, 646, 2127, 6363, 9268, 6394, 9312, 7840, 6398, 6393
6564, 1420, 1439, 1440, 5611, 4287, 1449, 4270, 9223, 5687, 5686
6565, 1419, 1439, 1420, 5611, 4285, 4287, 1429, 8373, 5687, 9223
6566, 801, 800, 898, 2855, 810, 2770, 2773, 8999, 9313, 2931
6567, 6471, 6443, 6428, 6861, 6666, 6667, 6601, 9314, 9316, 9315
6568, 1003, 3414, 3406, 2852, 3436, 3441, 3440, 2997, 8357, 8355
6569, 6494, 6495, 2273, 2127, 6607, 8557, 8981, 6618, 6588, 9312
6570, 1581, 6104, 1582, 6826, 7648, 9317, 1588, 8600, 8207, 8248
6571, 4082, 1300, 160, 4965, 4085, 1302, 4086, 9162, 9161, 9318
6572, 6464, 6455, 6490, 6843, 6779, 6781, 6780, 9292, 8669, 8628
6573, 363, 364, 1454, 379, 367, 9319, 9320, 2144, 2147, 9321
6574, 1058, 1059, 3197, 799, 1065, 9322, 7135, 8862, 9323, 9163
6575, 3700, 2265, 524, 3029, 8195, 2313, 3775, 7992, 7771, 8937
6576, 2059, 6046, 2060, 5589, 6061, 6060, 2066, 5723, 8652, 5724
6577, 5295, 5294, 1930, 6838, 5304, 5303, 5299, 9005, 9324, 9004
6578, 2303, 853, 2268, 6867, 9325, 8616, 2459, 7568, 8618, 7782
6579, 8, 10, 6442, 6828, 404, 6507, 6506, 9326, 8570, 7411
6580, 3155, 878, 2270, 877, 7785, 7784, 7032, 7034, 884, 7036
6581, 345, 6813, 6807, 6819, 9327, 9328, 9295, 9329, 9092, 9330
6582, 1117, 115, 1073, 6886, 1124, 8625, 7461, 7354, 8325, 7462
6583, 82, 757, 50, 3109, 758, 2686, 832, 8927, 8994, 8716
6584, 294, 4886, 295, 6838, 9331, 9054, 1786, 9332, 8013, 9333
6585, 2285, 2280, 2267, 6857, 2516, 2498, 2401, 7152, 7138, 7640
6586, 1630, 6822, 1634, 6849, 9230, 9334, 4617, 8297, 9232, 8296
6587, 266, 4663, 4687, 6816, 4724, 4726, 4722, 8699, 7263, 7542
6588, 6785, 6135, 3682, 6858, 9335, 9336, 9337, 9173, 9339, 9338
6589, 2255, 3152, 879, 6888, 8481, 9129, 9130, 7835, 8327, 9170
6590, 478, 488, 6355, 487, 2231, 9340, 8529, 2228, 491, 9341
6591, 478, 488, 479, 6355, 2231, 2232, 482, 8529, 9340, 9058
6592, 239, 280, 4540, 6883, 1728, 8660, 4567, 9342, 8661, 8390
6593, 237, 4665, 4539, 1574, 4703, 7913, 4556, 1575, 7845, 4560
6594, 880, 881, 3153, 2295, 887, 8656, 9179, 9180, 8800, 7526
6595, 3410, 115, 3419, 1072, 9343, 8877, 3466, 8203, 9007, 8205
6596, 880, 3153, 3152, 6886, 9179, 3176, 8480, 8482, 7072, 8324
6597, 43, 44, 2287, 778, 534, 2331, 2330, 2658, 2657, 9344
6598, 6807, 6819, 6813, 6827, 9330, 9092, 9328, 9345, 8224, 9091
6599, 6044, 362, 1801, 5885, 6051, 9049, 9034, 9033, 8849, 9027
6600, 3692, 3701, 3720, 6891, 3999, 4005, 4006, 8865, 8306, 8307
6601, 3646, 6875, 1615, 6900, 7817, 8599, 8548, 8452, 8513, 8550
6602, 6100, 6826, 1581, 6850, 8206, 8600, 7646, 8520, 9346, 8519
6603, 5366, 5354, 5360, 6865, 5424, 5421, 5395, 7828, 7522, 8086
6604, 5617, 6826, 1754, 6840, 9347, 8404, 7346, 9348, 9271, 9349
6605, 6120, 1804, 4082, 1826, 9350, 9160, 9351, 6155, 5012, 9235
6606, 1839, 1832, 1833, 5363, 5063, 1836, 5062, 9352, 8602, 8665
6607, 739, 89, 57, 2283, 741, 821, 2663, 9353, 7223, 2363
6608, 1780, 4154, 1756, 6126, 9354, 8840, 4939, 6185, 8841, 8842
6609, 6095, 6112, 6128, 6868, 6331, 6333, 6173, 7296, 7702, 8487
6610, 2298, 648, 796, 6902, 8930, 9355, 8333, 7465, 8727, 8567
6611, 5587, 2089, 5971, 5616, 5643, 5983, 9356, 5766, 5765, 8066
6612, 2034, 2035, 5965, 1949, 2041, 5991, 5990, 5579, 5582, 9291
6613, 2036, 1950, 5967, 2035, 5584, 8199, 5994, 2042, 5581, 5993
6614, 1127, 1071, 3402, 1126, 3626, 8185, 3453, 1133, 3623, 3452
6615, 1705, 1839, 1840, 5363, 5269, 1842, 5263, 9185, 9352, 9357
6616, 2298, 2271, 796, 649, 2417, 8334, 8333, 9144, 8104, 9358
6617, 863, 3114, 3115, 6886, 9274, 3126, 8769, 9026, 8684, 7071
6618, 281, 6047, 5444, 238, 8427, 8428, 5448, 4868, 9360, 9359
6619, 2127, 6495, 2273, 6363, 6588, 8557, 9312, 6393, 8558, 7840
6620, 3410, 3418, 115, 1073, 3472, 9013, 9343, 8252, 8250, 8625
6621, 6364, 2290, 6360, 648, 8441, 8591, 6408, 6406, 9114, 6407
6622, 3661, 3662, 3646, 6900, 3768, 3868, 3782, 7953, 8454, 8452
6623, 3507, 3501, 1113, 6860, 3572, 9361, 8866, 8002, 8971, 7619
6624, 1365, 4160, 146, 1755, 4163, 4162, 1366, 9362, 8632, 8783
6625, 1130, 1074, 3409, 1129, 3631, 8201, 3462, 1136, 3630, 3461
6626, 1752, 4890, 1753, 6904, 4928, 4936, 1759, 9363, 8246, 8882
6627, 4885, 4690, 268, 6833, 7634, 4728, 8260, 7635, 6991, 8893
6628, 799, 798, 2861, 6894, 808, 9364, 8861, 8863, 9365, 8833
6629, 6434, 6478, 6438, 6854, 6677, 6703, 6702, 8329, 8330, 8850
6630, 623, 624, 647, 794, 635, 2593, 2592, 2628, 2627, 8583
6631, 624, 625, 647, 795, 636, 2595, 2593, 2629, 2630, 8771
6632, 623, 647, 646, 794, 2592, 652, 2594, 2628, 8583, 8581
6633, 2034, 1948, 5956, 2033, 5580, 8211, 5988, 2040, 5578, 5987
6634, 3191, 3208, 1116, 6866, 3257, 8446, 9366, 8451, 8448, 7819
6635, 1129, 1073, 3403, 1128, 3629, 8251, 3459, 1135, 3627, 3458
6636, 346, 1834, 5546, 2008, 8514, 6981, 5557, 5558, 6254, 5551
6637, 4588, 1610, 1453, 244, 4593, 6214, 8337, 4595, 4598, 8515
6638, 1127, 1128, 3410, 1072, 1134, 3456, 3455, 3625, 3628, 8203
6639, 5306, 5305, 1933, 6838, 5315, 5316, 5310, 8732, 9368, 9367
6640, 1360, 4154, 147, 1755, 4157, 4156, 1361, 8990, 8839, 9369
6641, 3642, 3709, 3720, 6891, 3852, 3854, 3851, 8347, 7932, 8307
6642, 648, 795, 647, 625, 8770, 8771, 653, 2596, 2630, 2595
6643, 1113, 3632, 1114, 6867, 3636, 3637, 1120, 8403, 8354, 7605
6644, 6487, 6473, 6445, 6853, 6738, 6735, 6736, 9046, 7446, 9048
6645, 1781, 172, 4130, 4136, 6178, 4131, 8340, 8343, 4141, 8342
6646, 1975, 1974, 1752, 5791, 1981, 5516, 5518, 5812, 5811, 7220
6647, 308, 309, 339, 6870, 1831, 5548, 2000, 9264, 9370, 9263
6648, 647, 6358, 2293, 2286, 6401, 9070, 8540, 8174, 8594, 2410
6649, 282, 6816, 283, 6833, 9371, 9290, 1742, 9372, 7707, 9373
6650, 877, 2734, 596, 552, 2740, 2738, 2742, 8024, 8474, 2378
6651, 433, 442, 443, 6849, 2193, 446, 2197, 9278, 8915, 8914
6652, 443, 434, 433, 6849, 2196, 437, 2197, 8914, 9374, 9278
6653, 6118, 1581, 1593, 1580, 7764, 4574, 6281, 7663, 1587, 4587
6654, 1143, 1045, 3501, 1142, 3601, 8396, 3549, 1149, 3599, 3548
6655, 1086, 3201, 1059, 1087, 3248, 9375, 3613, 1093, 3249, 3616
6656, 77, 775, 1059, 6898, 777, 8344, 9376, 9377, 8346, 7710
6657, 4660, 4542, 4538, 6816, 7429, 4581, 7010, 7543, 8261, 8020
6658, 517, 497, 6355, 516, 9378, 9379, 8880, 520, 9044, 8740
6659, 271, 4888, 5306, 6838, 7842, 9380, 5308, 8730, 7847, 8732
6660, 989, 3507, 3364, 1113, 8000, 7198, 3376, 3382, 8866, 3383
6661, 2301, 58, 59, 3151, 2368, 549, 2369, 9381, 9383, 9382
6662, 3205, 2840, 992, 6866, 8611, 2984, 8998, 8447, 9385, 9384
6663, 2059, 2107, 5970, 6045, 6062, 8626, 8815, 6056, 6063, 7081
6664, 110, 1047, 3072, 6863, 1054, 3082, 3076, 7331, 7290, 7288
6665, 5872, 1420, 1440, 5600, 8202, 4270, 7365, 8352, 9386, 5690
6666, 5366, 5364, 5354, 6903, 5397, 5413, 5424, 7811, 6914, 7884
6667, 1729, 1577, 1730, 5436, 4870, 4873, 1736, 5458, 7316, 5459
6668, 1839, 1833, 1840, 5363, 5062, 5064, 1842, 9352, 8665, 9357
6669, 1072, 1112, 3365, 6837, 7676, 3374, 8348, 7509, 7866, 8351
6670, 5607, 1413, 1412, 335, 9387, 1422, 8555, 7440, 9388, 8214
6671, 6110, 6103, 6122, 6840, 6352, 6345, 6353, 8676, 7653, 7654
6672, 1083, 3199, 1056, 1084, 3239, 7122, 3607, 1090, 3240, 3610
6673, 1139, 3499, 1042, 1140, 3539, 9389, 3593, 1146, 3540, 3596
6674, 1097, 3286, 1028, 1098, 3324, 6968, 3579, 1104, 3325, 3582
6675, 5365, 1211, 1833, 6887, 8760, 9390, 8666, 8533, 8719, 8728
6676, 332, 480, 489, 6356, 9391, 2230, 9392, 9393, 8797, 9088
6677, 1126, 1070, 3411, 1125, 3624, 8493, 3450, 1132, 3621, 3449
6678, 5868, 1801, 5885, 6836, 9028, 9027, 5930, 9394, 7936, 9036
6679, 1330, 4118, 153, 6868, 4121, 4120, 1331, 7483, 8278, 9395
6680, 497, 517, 6355, 496, 9378, 8880, 9379, 500, 9397, 9396
6681, 1112, 115, 3632, 6888, 1118, 3634, 3633, 7678, 8326, 8269
6682, 5598, 5612, 6890, 6899, 5778, 9094, 8643, 7959, 9398, 8644
6683, 154, 1325, 4112, 6841, 1326, 4115, 4114, 8964, 9399, 8182
6684, 6492, 6487, 6466, 6853, 6626, 6737, 6706, 9038, 9046, 9047
6685, 6, 365, 6456, 2, 2145, 9252, 6501, 386, 369, 6500
6686, 336, 5444, 6047, 5605, 5449, 8428, 8429, 5629, 8889, 8887
6687, 292, 271, 1770, 4888, 1936, 5317, 1771, 4934, 7842, 4901
6688, 3412, 3407, 1005, 2844, 3447, 3446, 3442, 8982, 8495, 3001
6689, 2296, 2277, 835, 6889, 2428, 9270, 8803, 7855, 8124, 8805
6690, 1944, 335, 1832, 5365, 1946, 7468, 8601, 5377, 5376, 8603
6691, 1070, 1071, 793, 3155, 1077, 7532, 8494, 3182, 3181, 8133
6692, 3641, 6845, 3712, 6892, 7737, 7738, 3847, 7914, 9400, 8007
6693, 284, 285, 4887, 6833, 1745, 8281, 9401, 9402, 8282, 7797
6694, 1755, 1754, 6109, 6840, 1761, 9212, 9403, 9404, 9349, 8675
6695, 3713, 3650, 126, 6842, 3805, 3804, 3800, 6905, 6906, 9405
6696, 6459, 6449, 6469, 6861, 6747, 6756, 6755, 9199, 9200, 9406
6697, 2109, 6082, 2110, 6904, 6088, 6089, 2116, 7277, 7799, 8695
6698, 801, 800, 2855, 111, 810, 9313, 8999, 9210, 9407, 7547
6699, 739, 57, 56, 2283, 2663, 547, 2664, 9353, 2363, 2362
6700, 55, 54, 745, 2284, 545, 2672, 2671, 2357, 2356, 9408
6701, 2298, 2290, 648, 2261, 2414, 9114, 8930, 2506, 2524, 8608
6702, 1638, 1634, 6822, 6849, 4620, 9334, 9409, 8381, 8296, 9232
6703, 3282, 1101, 1031, 1100, 3334, 3588, 9410, 3333, 1107, 3586
6704, 2033, 1947, 5962, 2032, 5577, 9411, 5985, 2039, 5575, 5984
6705, 3283, 1098, 1099, 1029, 3327, 1105, 3328, 8186, 3581, 3583
6706, 6100, 6136, 6107, 6850, 6349, 6348, 6344, 8520, 8566, 8218
6707, 330, 515, 2272, 6357, 8785, 2403, 8967, 6389, 9077, 7984
6708, 288, 6112, 6117, 4891, 6237, 6239, 6235, 4918, 7701, 7116
6709, 801, 6830, 1074, 6857, 9000, 7630, 8641, 9001, 7206, 9131
6710, 5363, 1705, 1839, 1709, 9185, 5269, 9352, 5369, 4771, 9412
6711, 1754, 6098, 6109, 6826, 9213, 6232, 9212, 8404, 8573, 8571
6712, 2110, 5798, 5596, 6844, 8568, 7094, 9413, 9037, 7893, 7894
6713, 3688, 3710, 3712, 6892, 3957, 3849, 3926, 8005, 7916, 8007
6714, 1085, 1084, 1057, 3191, 1091, 3609, 3612, 3243, 3242, 8073
6715, 1141, 1043, 3491, 1140, 3597, 9414, 3543, 1147, 3595, 3542
6716, 2847, 3365, 1112, 6837, 9415, 3374, 8507, 8509, 8351, 7866
6717, 962, 3202, 2838, 2830, 3213, 7455, 2938, 2874, 7934, 2940
6718, 801, 898, 899, 2855, 2773, 908, 2756, 8999, 2931, 2930
6719, 2294, 2288, 2259, 6898, 2519, 2518, 2520, 8818, 7636, 7960
6720, 3681, 3695, 3643, 6835, 3856, 3855, 3751, 9416, 9238, 8664
6721, 1390, 4190, 141, 6850, 4193, 4192, 1391, 9417, 9419, 9418
6722, 1779, 1755, 6109, 6840, 4938, 9403, 6233, 9194, 9404, 8675
6723, 1832, 1412, 1800, 6124, 8808, 8213, 7467, 6253, 9420, 9101
6724, 2290, 517, 35, 6900, 2305, 521, 2306, 8442, 8703, 9265
6725, 5602, 2072, 5878, 5873, 5746, 5918, 9215, 8584, 5914, 5919
6726, 1086, 3197, 1085, 1058, 3246, 3245, 1092, 3614, 7135, 3611
6727, 1142, 1044, 3497, 1141, 3600, 8560, 3546, 1148, 3598, 3545
6728, 6808, 6825, 6812, 6895, 8733, 7980, 9188, 8693, 8512, 8854
6729, 390, 399, 1834, 6887, 2160, 9421, 9422, 9423, 9424, 7437
6730, 1812, 6124, 1800, 1799, 6252, 9101, 4999, 5006, 9425, 1806
6731, 4671, 4681, 4697, 6884, 4808, 4845, 4846, 7641, 6954, 7419
6732, 766, 48, 47, 3113, 2673, 538, 2674, 9426, 9428, 9427
6733, 5331, 5332, 1941, 6833, 5341, 5335, 5339, 9429, 9260, 9258
6734, 3716, 3715, 2298, 1153, 3827, 9141, 8920, 3781, 3830, 9082
6735, 4892, 4886, 4888, 6838, 4948, 4933, 4905, 8088, 8013, 7847
6736, 631, 111, 86, 748, 9430, 9431, 2580, 9432, 8517, 750
6737, 5798, 2110, 2062, 6043, 8568, 6077, 7814, 6939, 6079, 6076
6738, 1812, 2119, 6124, 1799, 6152, 6286, 6252, 5006, 9433, 9425
6739, 1642, 1638, 6822, 6849, 4623, 9409, 9434, 8411, 8381, 9232
6740, 6119, 4184, 6093, 6850, 9435, 9305, 6200, 9436, 9307, 8969
6741, 496, 488, 487, 6355, 2238, 491, 2235, 9396, 9340, 9341
6742, 496, 488, 6355, 497, 2238, 9340, 9396, 500, 2240, 9379
6743, 2273, 2272, 646, 6359, 2405, 8712, 9268, 8458, 8968, 6399
6744, 5790, 1756, 1978, 1979, 8413, 5525, 5823, 5824, 5526, 1985
6745, 1951, 2036, 5960, 2037, 5583, 5996, 8055, 5585, 2043, 5997
6746, 3071, 2296, 852, 853, 7725, 8932, 8931, 8617, 8729, 859
6747, 6128, 171, 4124, 6105, 6171, 4125, 8486, 6176, 6175, 8477
6748, 6465, 6439, 6440, 6843, 6548, 6647, 6717, 9281, 7850, 9283
6749, 742, 88, 56, 2258, 744, 823, 2667, 8898, 8897, 2360
6750, 52, 53, 2276, 751, 543, 2352, 2350, 2680, 2679, 8696
6751, 6475, 6453, 6485, 6832, 6661, 6772, 6682, 8856, 8795, 8796
6752, 218, 219, 6355, 1491, 1500, 9437, 9438, 4354, 4351, 6375
6753, 794, 793, 2851, 110, 803, 8978, 9439, 9440, 9063, 7857
6754, 6121, 168, 6091, 4112, 6166, 6162, 6167, 8187, 4117, 9293
6755, 1414, 1950, 5618, 6890, 8910, 7022, 9121, 8913, 7141, 9117
6756, 1453, 415, 406, 6849, 9441, 2172, 9442, 7801, 9443, 9217
6757, 4678, 1712, 1566, 4293, 4768, 4765, 4704, 7841, 7969, 8319
6758, 150, 5790, 1350, 1193, 8229, 8230, 1352, 4053, 9445, 9444
6759, 3413, 2751, 94, 3405, 8556, 2753, 9446, 3428, 8455, 8015
6760, 3113, 3111, 866, 6898, 3135, 9447, 8397, 8400, 7711, 8402
6761, 2063, 2062, 6043, 5594, 2069, 6076, 6075, 5738, 5737, 7789
6762, 993, 3362, 2838, 992, 3395, 7454, 2982, 999, 3396, 2981
6763, 3403, 1073, 1074, 6830, 8251, 1080, 8200, 8596, 8257, 7630
6764, 1412, 1186, 1185, 136, 4248, 1197, 4246, 9448, 4020, 4019
6765, 55, 87, 742, 2258, 825, 743, 2668, 2359, 8933, 8898
6766, 2260, 2272, 646, 2273, 2443, 8712, 8491, 2523, 2405, 9268
6767, 5617, 6826, 5614, 6844, 9347, 9449, 5679, 8425, 8407, 8832
6768, 6480, 6484, 6438, 6854, 6716, 6711, 6715, 7000, 8268, 8850
6769, 344, 348, 5559, 6138, 2015, 5562, 5561, 6256, 6255, 9450
6770, 50, 757, 51, 3109, 2686, 2685, 541, 8716, 8994, 8995
6771, 1032, 3030, 3027, 6864, 3064, 3056, 3067, 8613, 9025, 8615
6772, 1071, 1072, 3402, 6837, 1078, 8204, 8185, 7510, 7509, 8876
6773, 3697, 3677, 3649, 6875, 3880, 3881, 3796, 9451, 9453, 9452
6774, 4142, 1757, 4136, 4895, 8956, 8424, 9454, 8957, 4941, 9455
6775, 801, 899, 3407, 2844, 2756, 7602, 9456, 9457, 2934, 8495
6776, 4696, 4542, 6816, 6856, 7430, 8261, 7544, 7806, 8936, 7695
6777, 4966, 302, 4076, 303, 4990, 9458, 9459, 4989, 1798, 9460
6778, 748, 53, 85, 2264, 2676, 829, 749, 8518, 2353, 7657
6779, 6355, 6356, 6357, 516, 6415, 6388, 6414, 8740, 8460, 8461
6780, 5596, 5594, 5787, 2062, 5713, 7433, 7095, 5740, 5737, 7815
6781, 1029, 796, 2271, 649, 7310, 8334, 8101, 8102, 9358, 8104
6782, 3670, 3718, 3695, 6848, 3962, 3964, 3956, 9280, 8835, 8836
6783, 794, 891, 2851, 793, 2758, 2891, 9439, 803, 2759, 8978
6784, 1413, 5607, 1412, 1432, 9387, 8555, 1422, 4272, 5647, 4273
6785, 6424, 351, 2022, 6439, 6585, 2024, 9461, 6591, 6590, 7836
6786, 5798, 2110, 5783, 6844, 8568, 9462, 5846, 7893, 9037, 9463
6787, 5973, 5956, 1414, 1948, 6017, 9464, 9465, 8210, 8211, 8709
6788, 763, 49, 48, 867, 2677, 539, 2678, 8678, 8677, 9466
6789, 5600, 5877, 5883, 6829, 9055, 5950, 8038, 8041, 9256, 8043
6790, 631, 111, 800, 801, 9430, 9407, 2641, 2642, 9210, 810
6791, 864, 2275, 2299, 6893, 9172, 2472, 8367, 8370, 8545, 7671
6792, 433, 424, 243, 6849, 2186, 9467, 9276, 9278, 9468, 8339
6793, 2300, 2266, 2288, 6855, 2438, 2509, 2525, 8022, 8689, 7232
6794, 1950, 5965, 2035, 1949, 7021, 5991, 5581, 1956, 9291, 5582
6795, 1950, 2036, 5967, 1951, 5584, 5994, 8199, 1957, 5583, 8304
6796, 1127, 1071, 1072, 3402, 3626, 1078, 3625, 3453, 8185, 8204
6797, 1415, 1414, 5618, 6890, 1424, 9121, 9469, 9470, 8913, 9117
6798, 3665, 3703, 3666, 6825, 3929, 3934, 3947, 8966, 7719, 8674
6799, 2035, 5967, 5965, 1950, 5993, 5995, 5991, 5581, 8199, 7021
6800, 3655, 6842, 3668, 6892, 8331, 7793, 3913, 8682, 8961, 7832
6801, 245, 5068, 6116, 6825, 5071, 8858, 9471, 7979, 8943, 8944
6802, 5319, 5320, 1938, 6833, 5330, 5323, 5327, 9472, 8963, 9473
6803, 794, 793, 110, 623, 803, 9063, 9440, 2628, 2626, 9474
6804, 6112, 4894, 6105, 6868, 9475, 8384, 6238, 7702, 8114, 8385
6805, 3703, 3656, 6825, 6895, 3896, 7675, 7719, 7883, 7699, 8512
6806, 6357, 515, 2272, 516, 9077, 2403, 7984, 8461, 519, 2404
6807, 2274, 2297, 854, 6888, 2462, 8744, 9084, 8300, 8126, 9086
6808, 852, 572, 2256, 851, 2715, 2449, 8741, 858, 2717, 7374
6809, 4694, 272, 4686, 6838, 4740, 4742, 4744, 7292, 8731, 7705
6810, 1130, 1074, 1075, 3409, 3631, 1081, 3622, 3462, 8201, 8639
6811, 297, 295, 6092, 6820, 1791, 6242, 6241, 8469, 8807, 7776
6812, 1951, 2107, 5970, 5967, 7683, 8626, 8303, 8304, 9301, 6034
6813, 3278, 1032, 1101, 1102, 7258, 3587, 3336, 3337, 3589, 1108
6814, 2109, 5605, 5599, 2061, 8888, 5705, 8642, 6072, 5736, 5734
6815, 991, 2849, 1115, 2843, 2980, 8747, 3392, 2978, 2957, 8499
6816, 882, 2301, 59, 3151, 9476, 2369, 9477, 9478, 9381, 9382
6817, 896, 897, 799, 2861, 906, 2772, 2768, 2918, 2917, 8861
6818, 3110, 97, 2276, 868, 7018, 7016, 7017, 9098, 875, 9479
6819, 1948, 2034, 5956, 1949, 5580, 5988, 8211, 1955, 5579, 9480
6820, 3402, 1127, 3410, 1072, 3453, 3455, 3457, 8204, 3625, 8203
6821, 3492, 2839, 2841, 989, 7261, 2971, 8417, 8001, 2961, 2969
6822, 2075, 5872, 5600, 5877, 5927, 8352, 5757, 5923, 5928, 9055
6823, 1073, 1129, 3403, 1074, 3629, 3459, 8251, 1080, 3630, 8200
6824, 3672, 3675, 3718, 6848, 3971, 3973, 3963, 8658, 8837, 8835
6825, 1073, 3410, 1128, 1072, 8252, 3456, 3627, 1079, 8203, 3628
6826, 1949, 5965, 2034, 5956, 9291, 5990, 5579, 9480, 5992, 5988
6827, 3632, 1117, 1116, 6893, 3635, 1123, 3639, 8271, 8547, 8605
6828, 1591, 1172, 131, 3690, 6145, 1176, 6146, 9051, 3822, 3821
6829, 1801, 362, 2106, 6847, 9049, 2112, 8078, 8465, 7421, 8018
6830, 748, 54, 53, 2264, 2675, 544, 2676, 8518, 2354, 2353
6831, 273, 272, 5295, 6838, 1699, 5297, 5296, 9003, 8731, 9005
6832, 5966, 5972, 5969, 5965, 6036, 6040, 6030, 9481, 6019, 6038
6833, 766, 48, 3113, 80, 2673, 9428, 9426, 768, 828, 9482
6834, 1704, 1944, 5366, 5023, 9483, 5373, 9242, 8320, 8766, 7808
6835, 1780, 1756, 1755, 6126, 4939, 1762, 4940, 6185, 8842, 8634
6836, 6357, 2272, 2293, 516, 7984, 2408, 8713, 8461, 2404, 2409
6837, 2839, 3364, 988, 989, 7599, 3377, 2960, 2961, 3376, 995
6838, 5595, 2059, 6045, 2058, 5717, 6056, 7639, 5716, 2065, 6057
6839, 1128, 3403, 3410, 1073, 3458, 3460, 3456, 3627, 8251, 8252
6840, 6115, 6091, 167, 4106, 6164, 6163, 6159, 8945, 9059, 4111
6841, 3208, 1057, 3191, 1116, 8074, 8073, 3257, 8446, 7877, 9366
6842, 742, 56, 55, 2258, 2667, 546, 2668, 8898, 2360, 2359
6843, 6123, 1415, 1578, 6890, 9484, 9485, 8938, 8940, 9470, 8939
6844, 1045, 1143, 3501, 1046, 3601, 3549, 8396, 1052, 3602, 8588
6845, 1060, 1059, 3201, 1087, 1066, 9375, 9486, 3615, 3616, 3249
6846, 416, 407, 406, 6849, 2175, 410, 2176, 8439, 8438, 9217
6847, 2266, 3027, 840, 839, 8809, 8683, 8810, 9285, 9284, 846
6848, 1754, 1753, 287, 285, 1760, 4912, 4911, 7945, 7944, 1750
6849, 6453, 6427, 6486, 6832, 6662, 6664, 6663, 8795, 8781, 8779
6850, 228, 1658, 227, 6879, 1659, 4634, 1537, 9234, 8929, 9487
6851, 263, 4684, 1840, 310, 4715, 9488, 5264, 9073, 9072, 1843
6852, 398, 390, 389, 6887, 2162, 393, 2163, 9489, 9423, 8109
6853, 398, 399, 390, 6887, 402, 2160, 2162, 9489, 9424, 9423
6854, 3507, 3501, 1046, 1113, 3572, 8588, 8590, 8866, 9361, 7620
6855, 5615, 5432, 5620, 6897, 7427, 8291, 5704, 8420, 8418, 9207
6856, 15, 6812, 13, 6876, 9490, 8868, 432, 9491, 8872, 8870
6857, 1030, 1029, 3700, 649, 1036, 7993, 7994, 9492, 8102, 9493
6858, 1084, 3199, 1056, 1057, 3240, 7122, 3610, 3609, 8072, 1063
6859, 1140, 3499, 1042, 1043, 3540, 9389, 3596, 3595, 9494, 1049
6860, 1098, 3286, 1028, 1029, 3325, 6968, 3582, 3581, 7090, 1035
6861, 6105, 172, 4130, 1781, 6174, 4131, 8383, 6179, 6178, 8340
6862, 1070, 1126, 3411, 1071, 3624, 3450, 8493, 1077, 3623, 7534
6863, 2861, 798, 2858, 6894, 9364, 9495, 2923, 8833, 9365, 8423
6864, 2061, 6047, 5604, 2060, 6065, 9288, 5729, 2067, 6066, 5728
6865, 255, 1658, 256, 6871, 4636, 1660, 1661, 9496, 7910, 9497
6866, 255, 1654, 1658, 6871, 1656, 4635, 4636, 9496, 7911, 7910
6867, 303, 1987, 5879, 1799, 5529, 5891, 9498, 1805, 5530, 9499
6868, 1170, 6135, 3682, 1171, 6262, 9336, 3832, 1174, 6263, 3831
6869, 245, 244, 6808, 6812, 1608, 9500, 8764, 7976, 8673, 9188
6870, 6128, 6112, 6105, 6868, 6333, 6238, 6176, 8487, 7702, 8385
6871, 416, 406, 415, 6849, 2176, 2172, 419, 8439, 9217, 9443
6872, 5440, 5598, 5619, 1961, 7013, 5698, 7903, 5454, 5697, 5694
6873, 3029, 3700, 1029, 649, 7992, 7993, 3061, 8103, 9493, 8102
6874, 1991, 5875, 1803, 1992, 5910, 8387, 5538, 1998, 5911, 5540
6875, 1754, 1418, 5789, 5617, 9501, 9134, 7344, 7346, 9136, 6922
6876, 227, 1658, 1654, 6879, 4634, 4635, 1655, 9487, 8929, 9128
6877, 5874, 362, 1802, 5882, 9502, 7565, 8578, 5938, 9214, 8579
6878, 47, 766, 3113, 79, 2674, 9426, 9427, 826, 767, 9503
6879, 645, 1070, 3156, 6477, 8895, 3163, 7990, 9504, 9505, 9009
6880, 2274, 3068, 854, 853, 8299, 9085, 9084, 9506, 9248, 860
6881, 523, 3716, 2298, 2290, 3766, 8920, 2412, 2307, 8921, 2414
6882, 2074, 5877, 5609, 5871, 5924, 9105, 5751, 5920, 5925, 9106
6883, 3361, 3418, 115, 2853, 8254, 9013, 3368, 9032, 8973, 9224
6884, 6358, 6355, 6357, 516, 6379, 6414, 6403, 8739, 8740, 8461
6885, 3651, 3653, 3654, 6895, 3874, 3893, 3892, 7881, 7496, 7274
6886, 3706, 6817, 6842, 6895, 7550, 8433, 7229, 7495, 8574, 8467
6887, 5970, 2107, 2059, 6852, 8626, 6062, 8815, 7539, 7756, 8935
6888, 3199, 1057, 3208, 1116, 8072, 8074, 3259, 8506, 7877, 8446
6889, 1144, 1046, 3496, 1143, 3603, 8589, 3552, 1150, 3602, 3551
6890, 3196, 1088, 1060, 1087, 3252, 3617, 9507, 3251, 1094, 3615
6891, 1991, 1802, 5870, 1990, 5539, 8580, 5908, 1997, 5536, 5907
6892, 8, 399, 10, 6828, 2159, 403, 404, 9326, 9508, 8570
6893, 399, 8, 390, 6828, 2159, 394, 2160, 9508, 9326, 9509
6894, 4682, 4662, 4683, 6865, 4811, 4759, 4812, 7148, 7107, 9014
6895, 1686, 4684, 263, 6823, 4716, 4715, 1688, 7971, 9076, 9074
6896, 5609, 6041, 362, 5882, 9221, 6048, 9220, 9107, 8720, 9214
6897, 1031, 1032, 1101, 3282, 1038, 3587, 3588, 9410, 9510, 3334
6898, 2033, 1947, 1948, 5962, 5577, 1954, 5578, 5985, 9411, 8212
6899, 1099, 3283, 1029, 1030, 3328, 8186, 3583, 3584, 9511, 1036
6900, 6449, 6469, 6861, 6862, 6756, 9406, 9200, 7113, 7114, 9512
6901, 2275, 2269, 2299, 6893, 2501, 2385, 2472, 8545, 7767, 7671
6902, 571, 572, 850, 2261, 578, 2714, 2712, 2445, 2444, 8393
6903, 6044, 2106, 5603, 6836, 6054, 8782, 9513, 9035, 7503, 8838
6904, 524, 3700, 3029, 649, 3775, 7992, 8937, 9225, 9493, 8103
6905, 4130, 4124, 171, 6105, 8476, 4125, 4135, 8383, 8477, 6175
6906, 181, 4190, 6119, 6094, 4195, 9514, 6198, 6202, 9515, 6203
6907, 299, 301, 4964, 1802, 1797, 4983, 7879, 7878, 4982, 4984
6908, 3191, 1057, 1085, 1058, 8073, 3612, 3243, 7545, 1064, 3611
6909, 1043, 1141, 3491, 1044, 3597, 3543, 9414, 1050, 3598, 9516
6910, 1566, 1712, 5353, 4293, 4765, 5387, 9517, 8319, 7969, 7970
6911, 4196, 1395, 141, 1417, 4199, 1397, 4200, 9518, 9520, 9519
6912, 1004, 3406, 3412, 2853, 3439, 3444, 3443, 2995, 9124, 8972
6913, 299, 301, 300, 6815, 1797, 1795, 4957, 8521, 9273, 9272
6914, 993, 3361, 106, 2853, 3373, 3369, 1000, 2882, 9032, 2883
6915, 41, 784, 42, 6864, 2650, 2649, 532, 9521, 9522, 8814
6916, 273, 6815, 4686, 6838, 8379, 7731, 4743, 9003, 8069, 7705
6917, 1832, 1839, 1944, 5363, 5063, 9523, 8601, 8602, 9352, 5372
6918, 2839, 3500, 1019, 2860, 7260, 3535, 3008, 2963, 7517, 3009
6919, 836, 835, 2277, 3032, 842, 9270, 8151, 8152, 9178, 8123
6920, 5366, 1714, 278, 1704, 5370, 1721, 5371, 9242, 4762, 4761
6921, 6096, 299, 297, 6820, 6244, 1794, 6245, 7039, 8537, 8469
6922, 5599, 5432, 5444, 6897, 8292, 5489, 8976, 7982, 8418, 9524
6923, 852, 2277, 2296, 6889, 9206, 2428, 8932, 8743, 8124, 7855
6924, 3403, 1074, 1129, 3409, 8200, 3630, 3459, 3463, 8201, 3461
6925, 1059, 3197, 1086, 1058, 9322, 3246, 3613, 1065, 7135, 3614
6926, 1142, 1044, 1045, 3497, 3600, 1051, 3599, 3546, 8560, 7056
6927, 1045, 6901, 2862, 6902, 7132, 8864, 7060, 8553, 9177, 8552
6928, 73, 784, 41, 6864, 785, 2650, 813, 9525, 9522, 9521
6929, 1188, 1189, 137, 1415, 1200, 4023, 4022, 4253, 4254, 9526
6930, 3281, 2843, 2849, 980, 7168, 2957, 8748, 3300, 2958, 2877
6931, 3416, 2844, 3412, 6830, 7626, 8982, 3486, 7631, 7629, 8974
6932, 1335, 4124, 152, 6868, 4127, 4126, 1336, 9527, 8478, 8649
6933, 6477, 3156, 645, 552, 9009, 7990, 9504, 6553, 8025, 9182
6934, 2848, 3367, 990, 991, 9528, 3386, 2972, 2973, 3385, 997
6935, 57, 89, 736, 2263, 821, 737, 2660, 2365, 7221, 8700
6936, 225, 6879, 6822, 6880, 9529, 9530, 9531, 9532, 9534, 9533
6937, 1074, 3150, 1075, 801, 3190, 3189, 1081, 8641, 9535, 8640
6938, 5594, 5794, 2045, 5787, 7432, 5807, 5708, 7433, 5829, 5828
6939, 1832, 335, 136, 5365, 7468, 9536, 9537, 8603, 5376, 8761
6940, 6127, 6110, 177, 4166, 6191, 6190, 6186, 8127, 8128, 4171
6941, 2846, 3420, 3414, 6837, 8484, 3490, 9294, 9538, 9151, 9115
6942, 3711, 3691, 3649, 6831, 3884, 3799, 3882, 9145, 8586, 9147
6943, 2275, 863, 3114, 864, 9275, 9274, 9120, 9172, 870, 8959
6944, 1099, 3283, 1030, 3276, 3328, 9511, 3584, 3330, 3332, 9539
6945, 798, 1032, 2859, 6894, 9540, 7256, 8426, 9365, 7746, 7747
6946, 112, 93, 98, 6477, 9541, 9542, 9017, 9543, 6552, 9544
6947, 106, 2852, 3365, 988, 2880, 8954, 3370, 994, 2881, 3372
6948, 3507, 1113, 989, 6860, 8866, 3382, 8000, 8002, 7619, 8004
6949, 6044, 2106, 2058, 5603, 6054, 6058, 6052, 9513, 8782, 5721
6950, 1979, 5790, 1756, 1757, 5824, 8413, 5526, 5517, 8231, 1763
6951, 4672, 4683, 5360, 6865, 4785, 9545, 8190, 7824, 9014, 8086
6952, 2842, 2863, 3287, 975, 2950, 8377, 8164, 2949, 2946, 3298
6953, 1412, 5603, 5607, 6836, 9546, 5652, 8555, 8215, 8838, 7442
6954, 1704, 1714, 4683, 5023, 4762, 4772, 4758, 8320, 8901, 8824
6955, 880, 2275, 2295, 6886, 9056, 2468, 9180, 8482, 8544, 7717
6956, 2847, 3365, 988, 1112, 9415, 3372, 2965, 8507, 3374, 3378
6957, 891, 794, 2851, 892, 2758, 9439, 2891, 901, 2760, 2890
6958, 1432, 1433, 1413, 5607, 1442, 4275, 4272, 5647, 5646, 9387
6959, 3680, 1, 4, 6858, 3721, 378, 3722, 9012, 9236, 9175
6960, 6139, 6825, 6116, 6858, 7978, 8944, 6223, 8266, 8267, 9547
6961, 2273, 515, 2272, 6359, 2309, 2403, 2405, 8458, 8726, 8968
6962, 1658, 228, 229, 6877, 1659, 1541, 4637, 8928, 9233, 9548
6963, 41, 787, 73, 6864, 2645, 789, 813, 9521, 9549, 9525
6964, 2033, 5956, 5962, 1948, 5987, 5989, 5985, 5578, 8211, 8212
6965, 6458, 2121, 2120, 6133, 6611, 2124, 6612, 9201, 6302, 6299
6966, 3286, 1098, 3283, 1029, 3325, 3327, 3329, 7090, 3581, 8186
6967, 4885, 268, 5320, 6833, 8260, 5321, 9550, 7635, 8893, 8963
6968, 1662, 257, 256, 6869, 1664, 1665, 4639, 9551, 9553, 9552
6969, 297, 296, 294, 6838, 1789, 1790, 4955, 9154, 9155, 9332
6970, 6447, 6449, 6839, 6862, 6744, 9554, 7997, 8623, 7113, 8264
6971, 1031, 614, 67, 3031, 8456, 615, 9555, 3062, 8274, 9211
6972, 301, 299, 1803, 1802, 1797, 8688, 4981, 4982, 7878, 1809
6973, 3411, 1126, 3402, 1071, 3450, 3452, 3454, 7534, 3623, 8185
6974, 3669, 3688, 3655, 6892, 3917, 3909, 3915, 7833, 8005, 8682
6975, 1031, 3282, 1100, 3276, 9410, 3333, 3586, 9556, 3335, 3331
6976, 4693, 4659, 4884, 4692, 4735, 7712, 8421, 4795, 4794, 7713
6977, 3193, 104, 2830, 3202, 3209, 2873, 7935, 3216, 3214, 7934
6978, 1951, 2036, 5967, 5960, 5583, 5994, 8304, 8055, 5996, 5998
6979, 40, 787, 41, 6864, 2646, 2645, 531, 9024, 9549, 9521
6980, 1415, 1434, 1435, 5618, 4277, 1444, 4279, 9469, 5659, 5658
6981, 1434, 1415, 1414, 5618, 4277, 1424, 4276, 5659, 9469, 9121
6982, 1658, 229, 1662, 6877, 4637, 1663, 4638, 8928, 9548, 9190
6983, 1116, 1115, 3632, 6893, 1122, 3638, 3639, 8605, 7477, 8271
6984, 167, 4100, 6115, 4106, 4101, 8947, 6159, 4111, 8946, 8945
6985, 1057, 1084, 3199, 3191, 3609, 3240, 8072, 8073, 3242, 3244
6986, 3491, 3499, 1140, 1043, 3544, 3540, 3542, 9414, 9494, 3595
6987, 346, 1834, 345, 6807, 8514, 9103, 2012, 9557, 9296, 9295
6988, 6044, 2058, 357, 5608, 6052, 2064, 6050, 9061, 5637, 5636
6989, 5783, 1754, 5795, 6844, 9050, 7345, 5843, 9463, 8406, 8132
6990, 1059, 3197, 3201, 1086, 9322, 3250, 9375, 3613, 3246, 3248
6991, 3497, 1142, 3501, 1045, 3546, 3548, 3550, 7056, 3599, 8396
6992, 434, 425, 424, 6849, 2189, 428, 2190, 9374, 9558, 9468
6993, 433, 434, 424, 6849, 437, 2190, 2186, 9278, 9374, 9468
6994, 6471, 6819, 6443, 6861, 7177, 7126, 6666, 9314, 9559, 9316
6995, 110, 646, 793, 6863, 8527, 8825, 9063, 7331, 8100, 8135
6996, 6481, 6828, 6484, 6854, 7412, 8504, 6621, 6998, 7413, 8268
6997, 1365, 147, 4160, 1755, 1367, 4164, 4163, 9362, 9369, 8632
6998, 2089, 5964, 5616, 5595, 6012, 8240, 5765, 5764, 7348, 5719
6999, 364, 371, 363, 1454, 2140, 2137, 367, 9319, 8235, 9320
7000, 3027, 3030, 839, 6864, 3056, 9560, 9284, 8615, 9025, 9286
7001, 896, 799, 798, 2861, 2768, 808, 2769, 2918, 8861, 9364
7002, 4669, 4668, 4670, 6896, 4829, 4834, 4833, 7169, 8034, 8483
7003, 1056, 3362, 1117, 1116, 6937, 3401, 7303, 9561, 3398, 1123
7004, 1112, 3364, 1047, 1113, 3379, 7408, 7586, 1119, 3383, 9562
7005, 646, 2273, 6359, 6363, 9268, 8458, 6399, 6398, 7840, 6400
7006, 1582, 6104, 1581, 239, 9317, 7648, 1588, 4572, 6219, 4573
7007, 1756, 1978, 5785, 5790, 5525, 5821, 9563, 8413, 5823, 5825
7008, 3700, 37, 2265, 837, 3774, 2314, 8195, 9564, 9566, 9565
7009, 6443, 6483, 6428, 6861, 6669, 6668, 6667, 9316, 9567, 9315
7010, 1755, 6127, 6110, 1779, 8131, 6191, 8130, 4938, 6285, 6283
7011, 882, 2263, 3150, 881, 9568, 7130, 9569, 888, 9071, 8827
7012, 3712, 6845, 3657, 6892, 7738, 7423, 3925, 8007, 9400, 8006
7013, 1752, 1753, 2111, 6904, 1759, 9570, 7917, 9363, 8882, 7996
7014, 151, 1340, 4130, 1757, 1341, 4133, 4132, 9571, 9572, 8111
7015, 1033, 3028, 109, 1115, 3041, 3035, 1040, 8524, 7475, 8457
7016, 3191, 1085, 3197, 1058, 3243, 3245, 3247, 7545, 3611, 7135
7017, 3491, 3497, 1044, 1141, 3547, 8560, 9516, 3543, 3545, 3598
7018, 5596, 5588, 6042, 6844, 5739, 7593, 9573, 7894, 7595, 7594
7019, 372, 1454, 371, 364, 8236, 8235, 375, 2142, 9319, 2140
7020, 598, 878, 2297, 879, 2744, 9574, 2481, 2745, 885, 9168
7021, 295, 290, 4890, 4886, 1788, 4929, 7560, 9054, 4925, 4930
7022, 730, 60, 59, 3151, 2651, 550, 2652, 9575, 9576, 9382
7023, 4293, 5358, 5353, 1455, 7161, 5416, 7970, 4312, 8522, 7967
7024, 2855, 2845, 801, 6830, 2937, 9577, 8999, 7546, 8217, 9000
7025, 6134, 345, 1834, 6854, 9183, 9103, 6259, 9578, 9297, 9298
7026, 2062, 2110, 5798, 5596, 6077, 8568, 7814, 5740, 9413, 7094
7027, 3663, 6874, 6875, 6900, 7176, 9579, 7816, 8453, 8776, 8513
7028, 1153, 649, 3715, 648, 6405, 9143, 3830, 6404, 654, 9300
7029, 2018, 6809, 6832, 6885, 8092, 9580, 9581, 8490, 8194, 9582
7030, 6108, 6121, 6091, 6841, 6309, 6167, 6310, 8075, 8188, 9060
7031, 645, 646, 2127, 6494, 651, 6394, 6395, 9583, 9584, 6618
7032, 6041, 2063, 5609, 357, 6053, 5638, 9221, 6049, 2070, 5639
7033, 796, 1029, 6889, 6901, 7310, 9585, 8335, 9586, 7804, 7322
7034, 247, 248, 1627, 6870, 1626, 1629, 4612, 9587, 9110, 9111
7035, 6102, 6841, 6129, 6882, 8358, 8359, 6338, 8736, 9588, 8799
7036, 5970, 2107, 1951, 5960, 8626, 7683, 8303, 6033, 8627, 8055
7037, 238, 2109, 6047, 5444, 7466, 6074, 9360, 9359, 8890, 8428
7038, 306, 275, 4959, 1819, 1926, 8146, 5005, 1821, 5270, 4971
7039, 214, 220, 1627, 6878, 1505, 4610, 1628, 9108, 9589, 8237
7040, 3278, 1033, 1032, 1102, 7156, 1039, 7258, 3337, 3580, 3589
7041, 3663, 3652, 3696, 6875, 3897, 3790, 3871, 7816, 9590, 7818
7042, 1101, 1032, 3278, 3282, 3587, 7258, 3336, 3334, 9510, 3338
7043, 214, 6362, 189, 6878, 6372, 7872, 9591, 9108, 8238, 9592
7044, 6486, 6832, 6469, 6862, 8779, 8780, 6665, 7115, 9593, 7114
7045, 1826, 6120, 1804, 1825, 6155, 9350, 5012, 1828, 6287, 5011
7046, 1627, 1623, 247, 6870, 4611, 1625, 4612, 9111, 9594, 9587
7047, 2857, 1029, 796, 6901, 7088, 7310, 7308, 7803, 7804, 9586
7048, 3682, 6785, 1171, 1454, 9337, 9595, 3831, 9596, 9597, 6268
7049, 3073, 2293, 849, 850, 8538, 9006, 8044, 8542, 8541, 856
7050, 1623, 1627, 220, 6878, 4611, 4610, 1624, 9598, 8237, 9589
7051, 4214, 1580, 1592, 1579, 9599, 4585, 9600, 9601, 1586, 4586
7052, 736, 58, 57, 2263, 2659, 548, 2660, 8700, 2366, 2365
7053, 6119, 6093, 6107, 6850, 6200, 6320, 6319, 9436, 8969, 8218
7054, 424, 425, 416, 6849, 428, 2184, 2182, 9468, 9558, 8439
7055, 424, 416, 415, 6849, 2182, 419, 2179, 9468, 8439, 9443
7056, 273, 4686, 272, 6838, 4743, 4742, 1699, 9003, 7705, 8731
7057, 1375, 4172, 144, 6840, 4175, 4174, 1376, 9228, 8687, 9191
7058, 880, 599, 2275, 2255, 2747, 2491, 9056, 8479, 2486, 2492
7059, 4190, 6119, 6094, 6850, 9514, 6203, 9515, 9419, 9436, 8096
7060, 839, 2281, 2266, 6864, 9602, 2435, 9285, 9286, 9204, 8366
7061, 1781, 6105, 288, 4894, 6179, 6236, 1785, 4922, 8384, 4919
7062, 2835, 2853, 3412, 6830, 3000, 8972, 9603, 9604, 8975, 8974
7063, 6821, 6871, 253, 6872, 7352, 9605, 9606, 9607, 9609, 9608
7064, 254, 1654, 255, 6871, 4633, 1656, 1657, 9610, 7911, 9496
7065, 254, 1650, 1654, 6871, 1652, 4632, 4633, 9610, 9611, 7911
7066, 2840, 964, 3198, 3205, 2942, 3229, 8471, 8611, 3224, 3231
7067, 1002, 3408, 3414, 2846, 3433, 3438, 3437, 2990, 8485, 9294
7068, 1582, 2109, 5444, 6897, 7588, 8890, 9612, 8992, 8054, 9524
7069, 227, 1650, 226, 6879, 4631, 1651, 1533, 9487, 9149, 9613
7070, 227, 1654, 1650, 6879, 1655, 4632, 4631, 9487, 9128, 9149
7071, 1072, 115, 1112, 6888, 9007, 1118, 7676, 7886, 8326, 7678
7072, 6099, 6826, 6100, 6850, 8415, 8206, 6306, 8219, 9346, 8520
7073, 1802, 6041, 2111, 6829, 8721, 6055, 7940, 8723, 8724, 8430
7074, 3663, 6874, 3717, 6875, 7176, 7174, 3899, 7816, 9579, 9304
7075, 299, 300, 298, 6815, 4957, 1796, 1792, 8521, 9272, 9614
7076, 349, 6423, 6422, 6819, 6583, 6582, 6581, 9615, 7501, 7507
7077, 3646, 3696, 120, 1615, 3787, 3786, 3784, 8548, 8598, 4606
7078, 1757, 1781, 4136, 4895, 4944, 8343, 8424, 4941, 4945, 9455
7079, 5365, 136, 1833, 1211, 8761, 9616, 8666, 8760, 1213, 9390
7080, 6119, 4184, 180, 6093, 9435, 4189, 6199, 6200, 9305, 6195
7081, 2295, 2275, 863, 6886, 2468, 9275, 8767, 7717, 8544, 9026
7082, 1754, 6826, 5617, 6844, 8404, 9347, 7346, 8406, 8407, 8425
7083, 1375, 145, 4172, 6840, 1377, 4176, 4175, 9228, 9617, 8687
7084, 212, 126, 243, 6831, 1486, 4601, 1606, 9095, 9096, 9618
7085, 93, 61, 98, 6477, 815, 9619, 9542, 6552, 6551, 9544
7086, 435, 6807, 444, 6828, 9620, 9621, 2195, 9622, 9624, 9623
7087, 2860, 3494, 1019, 2831, 7515, 3515, 3009, 3010, 7849, 2887
7088, 1580, 1592, 6125, 4214, 4585, 6213, 7662, 9599, 9600, 9625
7089, 46, 45, 772, 6898, 536, 2666, 2665, 8829, 9627, 9626
7090, 5306, 4888, 5305, 6838, 9380, 9628, 5315, 8732, 7847, 9368
7091, 3205, 992, 1116, 6866, 8998, 3397, 8445, 8447, 9384, 7819
7092, 1046, 1144, 3496, 1047, 3603, 3552, 8589, 1053, 3594, 7167
7093, 3196, 1088, 1061, 1060, 3252, 3608, 9629, 9507, 3617, 1067
7094, 166, 4100, 6106, 6115, 4105, 9630, 6156, 6160, 8947, 6161
7095, 727, 93, 98, 112, 729, 9542, 9018, 9016, 9541, 9017
7096, 6464, 6490, 6460, 6843, 6780, 6628, 6782, 9292, 8628, 9247
7097, 6104, 1593, 1581, 239, 6220, 4574, 7648, 6219, 1597, 4573
7098, 3501, 1143, 3496, 1046, 3549, 3551, 3553, 8588, 3602, 8589
7099, 3201, 3196, 1060, 1087, 3253, 9507, 9486, 3249, 3251, 3615
7100, 2037, 5960, 1951, 1952, 5997, 8055, 5585, 5576, 7924, 1958
7101, 2304, 2289, 46, 6898, 2341, 2337, 2339, 8401, 9240, 8829
7102, 6473, 6839, 6445, 6853, 7215, 7387, 6735, 7446, 9631, 9048
7103, 294, 295, 297, 6838, 1786, 1791, 4955, 9332, 9333, 9154
7104, 6427, 6453, 6475, 6832, 6662, 6661, 6574, 8781, 8795, 8856
7105, 835, 95, 3033, 910, 841, 8363, 8804, 2777, 2776, 3038
7106, 59, 730, 3151, 91, 2652, 9575, 9382, 817, 731, 9632
7107, 479, 488, 6356, 6355, 2232, 9089, 8798, 9058, 9340, 6415
7108, 6448, 6450, 6449, 6862, 6749, 6748, 6745, 8624, 8280, 7113
7109, 129, 3644, 3645, 6817, 3809, 3815, 3814, 9633, 7549, 7280
7110, 3288, 1115, 109, 3281, 8525, 8457, 9634, 3305, 8526, 9635
7111, 3493, 108, 2850, 3502, 3509, 2885, 7064, 3516, 3514, 9636
7112, 5433, 5436, 5441, 6899, 5496, 5492, 5511, 7650, 7651, 9637
7113, 1670, 232, 1674, 6824, 4646, 1675, 4647, 9138, 9638, 9139
7114, 6082, 2111, 2110, 6904, 6085, 2117, 6089, 7799, 7996, 8695
7115, 1947, 1211, 5361, 1948, 8762, 8909, 5399, 1954, 9639, 5398
7116, 1454, 1212, 137, 5356, 8234, 1215, 9640, 7623, 7876, 8846
7117, 98, 882, 2302, 3151, 889, 9641, 9642, 9020, 9478, 9643
7118, 257, 1666, 258, 6869, 4642, 1668, 1669, 9553, 9645, 9644
7119, 257, 1662, 1666, 6869, 1664, 4641, 4642, 9553, 9551, 9645
7120, 44, 775, 45, 6898, 2662, 2661, 535, 8979, 8346, 9627
7121, 79, 47, 769, 3113, 826, 2669, 771, 9503, 9427, 9646
7122, 6470, 6843, 6455, 6862, 8630, 8669, 6771, 7029, 9647, 7031
7123, 6090, 6098, 283, 6826, 6229, 6228, 6224, 8208, 8573, 8247
7124, 892, 3502, 1014, 3495, 9648, 3513, 2899, 7255, 3523, 3522
7125, 1962, 5613, 5619, 6899, 5699, 5700, 5695, 8434, 9649, 8435
7126, 6356, 6355, 497, 516, 6415, 9379, 9042, 8460, 8740, 9044
7127, 2106, 5616, 2058, 5603, 8223, 5718, 6058, 8782, 5722, 5721
7128, 1112, 988, 2847, 2860, 3378, 2965, 8507, 8138, 2962, 2966
7129, 5366, 278, 1944, 1704, 5371, 1945, 5373, 9242, 4761, 9483
7130, 1933, 272, 5306, 6838, 1934, 5307, 5310, 9367, 8731, 8732
7131, 45, 77, 772, 6898, 822, 773, 2666, 9627, 9377, 9626
7132, 3663, 3717, 3652, 6875, 3899, 3898, 3897, 7816, 9304, 9590
7133, 5870, 5875, 1803, 1991, 5912, 8387, 8386, 5908, 5910, 5538
7134, 229, 230, 1666, 6877, 1545, 1667, 4640, 9548, 9650, 9197
7135, 1662, 229, 1666, 6877, 1663, 4640, 4641, 9190, 9548, 9197
7136, 3714, 3660, 3659, 6876, 3930, 3921, 3931, 9651, 9125, 9652
7137, 2845, 3361, 993, 2853, 9653, 3373, 2988, 2987, 9032, 2882
7138, 1755, 1779, 1780, 6126, 4938, 1783, 4940, 8634, 6282, 6185
7139, 730, 60, 3151, 92, 2651, 9576, 9575, 732, 814, 9654
7140, 95, 100, 109, 3033, 2775, 1027, 7757, 8363, 3037, 3036
7141, 98, 103, 112, 3156, 2817, 1069, 9017, 9655, 3160, 3159
7142, 98, 112, 103, 3151, 9017, 1069, 2817, 9020, 3158, 3157
7143, 109, 100, 95, 3028, 1027, 2775, 7757, 3035, 3034, 7669
7144, 273, 1930, 6815, 6838, 1931, 8312, 8379, 9003, 9004, 8069
7145, 42, 784, 74, 6864, 2649, 786, 816, 8814, 9522, 9656
7146, 2108, 1577, 4543, 238, 7324, 4550, 7783, 9208, 1583, 4562
7147, 3507, 1046, 3496, 1113, 8590, 8589, 3571, 8866, 7620, 8867
7148, 248, 308, 6365, 6870, 9657, 9262, 6382, 9110, 9264, 9109
7149, 2267, 64, 97, 583, 2396, 862, 8443, 2395, 589, 2721
7150, 1802, 5874, 5870, 1990, 8578, 5909, 8580, 5536, 5905, 5907
7151, 769, 47, 46, 3113, 2669, 537, 2670, 9646, 9427, 8828
7152, 2256, 2277, 573, 852, 2454, 2453, 2448, 8741, 9206, 2716
7153, 5885, 362, 1801, 5874, 8849, 9049, 9027, 5931, 9502, 9029
7154, 39, 790, 40, 3030, 2644, 2643, 530, 9068, 9658, 9022
7155, 5601, 2063, 5609, 6041, 5744, 5638, 5743, 9659, 6053, 9221
7156, 3687, 3705, 3704, 6858, 3948, 3843, 3945, 9011, 9257, 9660
7157, 1171, 6135, 3682, 1454, 6263, 9336, 3831, 6268, 6267, 9596
7158, 877, 98, 3156, 949, 883, 9655, 7035, 2819, 2818, 3161
7159, 45, 775, 77, 6898, 2661, 777, 822, 9627, 8346, 9377
7160, 6128, 4118, 170, 6095, 8496, 4119, 6172, 6173, 8180, 6168
7161, 96, 923, 3074, 849, 2790, 3079, 7362, 855, 2791, 7716
7162, 1754, 1779, 1755, 6109, 4915, 4938, 1761, 9212, 6233, 9403
7163, 1834, 344, 2008, 5547, 6257, 2010, 6254, 9104, 5553, 5555
7164, 3701, 3684, 6891, 6900, 4004, 8305, 8306, 9156, 9157, 9661
7165, 6044, 1801, 2106, 6836, 9034, 8078, 6054, 9035, 7936, 7503
7166, 727, 61, 60, 98, 2647, 551, 2648, 9018, 9619, 9662
7167, 1733, 1580, 5430, 1732, 4879, 9663, 5468, 1739, 4876, 5467
7168, 6439, 6440, 6843, 6885, 6647, 9283, 7850, 7854, 8176, 7853
7169, 3688, 3655, 6892, 6895, 3909, 8682, 8005, 7273, 7860, 8962
7170, 1990, 1801, 5874, 1989, 5537, 9029, 5905, 1996, 5534, 5904
7171, 39, 614, 68, 3030, 2528, 616, 617, 9068, 8275, 9664
7172, 6479, 6138, 6480, 6854, 7942, 9665, 6615, 9666, 9667, 7000
7173, 1567, 1461, 1566, 4695, 4537, 4532, 1569, 4763, 8903, 4764
7174, 572, 852, 2256, 573, 2715, 8741, 2449, 579, 2716, 2448
7175, 4663, 267, 4690, 6833, 4725, 4727, 4729, 7813, 8894, 6991
7176, 838, 614, 38, 39, 8272, 2529, 9668, 9069, 2528, 529
7177, 4178, 180, 4184, 6093, 4179, 4189, 9306, 7740, 6195, 9305
7178, 3716, 2290, 35, 6900, 8921, 2306, 3767, 9266, 8442, 9265
7179, 281, 1734, 1582, 5444, 1741, 4871, 4867, 5448, 5452, 9612
7180, 266, 5332, 267, 6833, 5334, 5333, 1693, 9259, 9260, 8894
7181, 6047, 5604, 5605, 2061, 9288, 5630, 8887, 6065, 5729, 5736
7182, 6046, 5589, 2059, 6852, 8652, 5723, 6061, 8671, 8670, 8935
7183, 280, 279, 4540, 6816, 1727, 9669, 8660, 8659, 9670, 8389
7184, 6498, 6451, 6448, 6862, 6752, 6751, 6741, 7106, 8322, 8624
7185, 1208, 6468, 2119, 2131, 7395, 6560, 9671, 6794, 6558, 6610
7186, 352, 6474, 6424, 6885, 6592, 6594, 6587, 9672, 7998, 8019
7187, 111, 97, 102, 3115, 7103, 2803, 1055, 3118, 8444, 3119
7188, 110, 96, 101, 3074, 7327, 2789, 1041, 3077, 7362, 3078
7189, 1731, 1578, 5428, 1730, 4875, 9673, 5462, 1737, 4872, 5461
7190, 102, 97, 111, 3110, 2803, 7103, 1055, 3116, 7018, 3117
7191, 101, 96, 110, 3072, 2789, 7327, 1041, 3075, 8860, 3076
7192, 757, 51, 3110, 83, 2685, 8996, 8997, 759, 833, 9674
7193, 68, 790, 39, 3030, 791, 2644, 617, 9664, 9658, 9068
7194, 992, 2832, 3363, 6866, 2977, 7927, 3390, 9384, 8951, 7820
7195, 6483, 6447, 6459, 6861, 6733, 6746, 6670, 9567, 9198, 9199
7196, 5612, 1415, 5618, 6890, 9675, 9469, 5670, 9094, 9470, 9117
7197, 5319, 4885, 5320, 6833, 9676, 9550, 5330, 9472, 7635, 8963
7198, 2262, 597, 878, 2278, 2483, 2743, 8612, 2394, 2485, 8891
7199, 583, 97, 2267, 863, 2721, 8443, 2395, 2723, 869, 8768
7200, 1800, 304, 1801, 6903, 4998, 4997, 1807, 6913, 9102, 7937
7201, 4963, 304, 4962, 6903, 5003, 4995, 5004, 8466, 9102, 7810
7202, 6450, 6451, 6452, 6862, 6750, 6758, 6757, 8280, 8322, 7030
7203, 599, 879, 2255, 880, 2746, 9130, 2486, 2747, 886, 8479
7204, 599, 879, 598, 2255, 2746, 2745, 605, 2486, 9130, 2487
7205, 1991, 1802, 1803, 5870, 5539, 1809, 5538, 5908, 8580, 8386
7206, 1417, 6826, 5617, 6840, 9677, 9347, 9678, 8290, 9271, 9348
7207, 751, 52, 84, 3110, 2680, 831, 752, 8697, 8698, 9679
7208, 3280, 105, 2848, 3287, 3294, 2875, 9100, 3301, 3299, 8802
7209, 5609, 2074, 5871, 2073, 5751, 5920, 9106, 5750, 2080, 5921
7210, 3367, 2848, 2849, 991, 9528, 2879, 9680, 3385, 2973, 2980
7211, 284, 282, 285, 6833, 1746, 4882, 1745, 9402, 9372, 8282
7212, 1976, 1753, 5783, 1975, 5521, 8952, 5815, 1982, 5519, 5814
7213, 6820, 6841, 6102, 6882, 8620, 8358, 7038, 9226, 9588, 8736
7214, 727, 93, 61, 98, 729, 815, 2647, 9018, 9542, 9619
7215, 97, 863, 936, 3115, 869, 2805, 2804, 8444, 8769, 3120
7216, 3366, 2833, 989, 6860, 7862, 2967, 3381, 7906, 8819, 8004
7217, 137, 1455, 1454, 5356, 9079, 1458, 9640, 8846, 7968, 7623
7218, 1593, 1581, 6114, 6104, 4574, 7647, 6278, 6220, 7648, 6277
7219, 1803, 1825, 6111, 301, 4985, 6250, 7041, 4981, 1827, 6247
7220, 954, 3150, 953, 881, 3178, 3177, 960, 2829, 8827, 2827
7221, 6116, 3658, 3665, 6825, 8941, 3819, 7529, 8944, 7721, 8966
7222, 182, 6113, 4196, 6094, 6205, 8093, 4201, 6201, 6206, 8094
7223, 911, 835, 3032, 910, 2780, 9178, 3043, 917, 2777, 3042
7224, 285, 282, 283, 6833, 4882, 1742, 1747, 8282, 9372, 9373
7225, 96, 575, 2278, 854, 2705, 2391, 8859, 861, 2709, 8746
7226, 5437, 5442, 1436, 5431, 5503, 9681, 7120, 5485, 5504, 9682
7227, 4100, 4106, 156, 6841, 8946, 4110, 4102, 8949, 8950, 9683
7228, 40, 39, 3030, 2292, 530, 9068, 9022, 2319, 2318, 9021
7229, 1046, 1112, 1047, 1113, 8532, 7586, 1053, 7620, 1119, 9562
7230, 1057, 1056, 1117, 1116, 1063, 7303, 8511, 7877, 9561, 1123
7231, 5306, 292, 5305, 4888, 5309, 5314, 5315, 9380, 4934, 9628
7232, 6489, 6843, 6440, 6885, 9282, 9283, 6721, 7248, 7853, 8176
7233, 913, 837, 3031, 912, 2784, 9684, 3049, 919, 2781, 3048
7234, 287, 284, 4887, 286, 4883, 9401, 4907, 1748, 1749, 4906
7235, 2108, 5598, 5604, 2060, 8463, 5696, 9087, 6067, 5731, 5728
7236, 990, 1114, 2848, 2842, 3387, 8801, 2972, 2975, 8165, 2948
7237, 772, 78, 46, 6898, 774, 824, 2665, 9626, 9685, 8829
7238, 798, 6855, 1032, 6894, 9686, 8061, 9540, 9365, 7460, 7746
7239, 923, 3073, 849, 924, 3083, 8044, 2791, 930, 3084, 2794
7240, 1581, 6826, 1582, 6897, 8600, 8248, 1588, 8813, 8993, 8992
7241, 926, 851, 3069, 925, 2798, 7376, 3090, 932, 2795, 3089
7242, 292, 271, 4888, 5306, 1936, 7842, 4934, 5309, 5308, 9380
7243, 733, 91, 59, 3151, 735, 817, 2655, 9687, 9632, 9382
7244, 3720, 3709, 3692, 6891, 3854, 3988, 4006, 8307, 7932, 8865
7245, 3406, 1004, 1003, 2853, 3439, 1010, 3440, 9124, 2995, 2994
7246, 733, 59, 58, 3151, 2655, 549, 2656, 9687, 9382, 9383
7247, 51, 754, 52, 3110, 2684, 2683, 542, 8996, 9688, 8698
7248, 239, 4544, 280, 6883, 4571, 9689, 1728, 9342, 7403, 8661
7249, 1074, 3150, 801, 6857, 3190, 9535, 8641, 9131, 7139, 9001
7250, 1578, 6123, 1591, 1216, 8938, 6217, 4551, 9690, 9692, 9691
7251, 40, 790, 72, 3030, 2643, 792, 812, 9022, 9658, 9693
7252, 6124, 1412, 1800, 1799, 9420, 8213, 9101, 9425, 9694, 1806
7253, 2270, 2262, 597, 878, 2484, 2483, 2480, 7784, 8612, 2743
7254, 839, 838, 2292, 3030, 845, 9695, 9696, 9560, 8276, 9021
7255, 6115, 6130, 6129, 6882, 6354, 6351, 6313, 9697, 8735, 8799
7256, 836, 558, 2265, 2271, 2695, 2429, 7773, 7774, 2430, 2416
7257, 866, 939, 3113, 940, 2811, 3133, 8397, 2814, 946, 3134
7258, 5428, 1730, 1578, 5436, 5461, 4872, 9673, 5463, 5459, 9698
7259, 1802, 1803, 5870, 6829, 1809, 8386, 8580, 8723, 8042, 9181
7260, 6487, 6457, 6473, 6853, 6623, 6634, 6738, 9046, 9150, 7446
7261, 1117, 993, 3362, 2854, 3400, 3395, 3401, 7304, 2986, 7172
7262, 6043, 2111, 2063, 5610, 6081, 6080, 6075, 7024, 8158, 5742
7263, 3205, 3198, 2840, 6866, 3231, 8471, 8611, 8447, 7900, 9385
7264, 6485, 6430, 6832, 6885, 6681, 8857, 8796, 7363, 7393, 9582
7265, 5878, 5608, 5590, 6836, 8284, 5752, 9699, 9112, 9062, 9700
7266, 83, 754, 51, 3110, 755, 2684, 833, 9674, 9688, 8996
7267, 2109, 6047, 5605, 2061, 6074, 8887, 8888, 6072, 6065, 5736
7268, 42, 781, 43, 6864, 2654, 2653, 533, 8814, 9701, 9205
7269, 6786, 6458, 2120, 1833, 9702, 6612, 9703, 9704, 9705, 6298
7270, 3113, 47, 46, 2304, 9427, 537, 8828, 8399, 2340, 2339
7271, 1436, 5445, 5438, 5431, 9706, 5506, 7831, 9682, 5505, 5482
7272, 877, 3155, 950, 949, 7034, 3166, 2822, 2819, 3165, 956
7273, 3504, 1016, 3498, 2837, 3528, 3529, 3530, 8646, 2906, 8986
7274, 1115, 3367, 2849, 991, 3394, 9680, 8747, 3392, 3385, 2980
7275, 950, 878, 951, 3154, 2821, 2824, 957, 3168, 8668, 3169
7276, 953, 880, 3153, 952, 2828, 9179, 3175, 959, 2825, 3174
7277, 6479, 6426, 6436, 6854, 6659, 6646, 6579, 9666, 8577, 9166
7278, 5611, 289, 1419, 5586, 8372, 8371, 8373, 5688, 9708, 9707
7279, 6126, 6127, 1755, 1779, 6188, 8131, 8634, 6282, 6285, 4938
7280, 1779, 6110, 1755, 6840, 6283, 8130, 4938, 9194, 8676, 9404
7281, 1976, 1977, 5789, 1754, 1983, 5818, 5817, 5520, 5522, 7344
7282, 307, 6813, 308, 6861, 9709, 9710, 1830, 8497, 9711, 8118
7283, 882, 601, 65, 2302, 2739, 608, 2735, 9641, 2402, 2376
7284, 98, 882, 65, 2302, 889, 2735, 876, 9642, 9641, 2376
7285, 928, 3068, 927, 853, 3096, 3095, 934, 2801, 9248, 2799
7286, 912, 836, 3029, 911, 2782, 7772, 3046, 918, 2779, 3045
7287, 952, 879, 3152, 951, 2826, 9129, 3172, 958, 2823, 3171
7288, 3113, 866, 867, 2304, 8397, 873, 9712, 8399, 8398, 9713
7289, 1753, 4890, 4889, 6904, 4936, 4937, 4914, 8882, 8246, 7827
7290, 6429, 6827, 6819, 6854, 7091, 8224, 7055, 8328, 9193, 9167
7291, 3071, 852, 926, 927, 8931, 2797, 3092, 3093, 2800, 933
7292, 2852, 2834, 3414, 6837, 2996, 9714, 8357, 8955, 9715, 9115
7293, 941, 3109, 940, 867, 3137, 3136, 947, 2815, 8680, 2813
7294, 2279, 95, 62, 840, 8416, 834, 2381, 7963, 847, 2688
7295, 298, 296, 297, 6815, 1793, 1789, 4956, 9614, 9153, 9152
7296, 863, 936, 3114, 937, 2805, 3124, 9274, 2808, 943, 3125
7297, 355, 1952, 5971, 2037, 5572, 7923, 5976, 2044, 5576, 5980
7298, 914, 838, 3030, 913, 2786, 8276, 3052, 920, 2783, 3051
7299, 3692, 6874, 3679, 6891, 8449, 7790, 3993, 8865, 8749, 8874
7300, 1350, 1757, 150, 4142, 8232, 8233, 1352, 4145, 8956, 4146
7301, 4888, 4886, 294, 6838, 4933, 9331, 9716, 7847, 8013, 9332
7302, 1577, 1578, 1730, 5436, 1584, 4872, 4873, 7316, 9698, 5459
7303, 1335, 153, 4124, 6868, 1337, 4128, 4127, 9527, 9395, 8478
7304, 5434, 5428, 1731, 1579, 5466, 5462, 5464, 9717, 9718, 4874
7305, 2259, 2289, 2294, 6898, 2338, 2479, 2520, 7960, 9240, 8818
7306, 267, 1938, 5320, 6833, 1939, 5323, 5322, 8894, 9473, 8963
7307, 1833, 1832, 136, 5365, 1836, 9537, 9616, 8666, 8603, 8761
7308, 866, 865, 2294, 3111, 872, 8896, 9719, 9447, 8873, 8817
7309, 925, 850, 3070, 924, 2796, 8171, 3087, 931, 2793, 3086
7310, 6813, 6819, 345, 6861, 9092, 9329, 9327, 9711, 9559, 9720
7311, 6480, 6138, 6134, 6854, 9665, 6260, 9721, 7000, 9667, 9578
7312, 801, 2844, 1074, 6830, 9457, 7628, 8641, 9000, 7629, 7630
7313, 6454, 6485, 6832, 6885, 6773, 8796, 8794, 6933, 7363, 9582
7314, 915, 839, 3027, 914, 2787, 9284, 3055, 921, 2785, 3054
7315, 938, 864, 3112, 937, 2810, 8369, 3128, 944, 2807, 3127
7316, 939, 865, 3111, 938, 2812, 8873, 3131, 945, 2809, 3130
7317, 3685, 6835, 3686, 6891, 8662, 8663, 3857, 7931, 9722, 7933
7318, 4685, 1567, 1462, 235, 4700, 4536, 8690, 4699, 1570, 4535
7319, 1804, 160, 1300, 4965, 9723, 1302, 7692, 4994, 9318, 9161
7320, 6139, 246, 4589, 1610, 6222, 4600, 9045, 6221, 1612, 4599
7321, 6447, 6839, 6448, 6862, 7997, 7685, 6739, 8623, 8264, 8624
7322, 865, 3112, 864, 2279, 8143, 8369, 871, 8262, 7552, 8631
7323, 2062, 6042, 5596, 5588, 6070, 9573, 5740, 5733, 7593, 5739
7324, 6461, 6464, 6460, 6843, 6783, 6782, 6541, 9724, 9292, 9247
7325, 3675, 3686, 6848, 6891, 3986, 8834, 8837, 7270, 7933, 9137
7326, 3702, 3701, 3699, 6900, 4003, 4002, 3942, 9158, 9156, 9725
7327, 2837, 2841, 2862, 6860, 3006, 3019, 2907, 9726, 9132, 7870
7328, 1834, 1840, 1833, 6887, 5047, 5064, 1837, 7437, 9727, 8728
7329, 4892, 4887, 4893, 6834, 4947, 4952, 4951, 7718, 7796, 7391
7330, 798, 790, 72, 628, 9728, 792, 9729, 2637, 8753, 2549
7331, 733, 801, 90, 632, 9730, 9731, 734, 8752, 2625, 2589
7332, 6489, 6464, 6465, 6843, 6778, 6784, 6720, 9282, 9292, 9281
7333, 5794, 5586, 5610, 5594, 7485, 5767, 7486, 7432, 5710, 5741
7334, 629, 778, 798, 76, 8757, 9732, 2636, 2558, 780, 9733
7335, 381, 380, 389, 6887, 384, 2155, 2156, 9734, 8108, 8109
7336, 3150, 954, 882, 881, 3178, 2820, 9569, 8827, 2829, 888
7337, 335, 355, 5957, 5968, 5573, 5975, 9735, 9736, 5978, 5981
7338, 1977, 5785, 1755, 1978, 5820, 9737, 5523, 1984, 5821, 5524
7339, 3156, 112, 98, 6477, 3159, 9017, 9655, 9009, 9543, 9544
7340, 953, 880, 881, 3153, 2828, 887, 2827, 3175, 9179, 8656
7341, 835, 911, 3032, 836, 2780, 3043, 9178, 842, 2779, 8152
7342, 299, 1803, 6111, 301, 8688, 7041, 6248, 1797, 4981, 6247
7343, 389, 390, 381, 6887, 393, 2153, 2156, 8109, 9423, 9734
7344, 6811, 6814, 496, 6900, 9738, 9739, 9740, 9741, 9743, 9742
7345, 837, 836, 3029, 912, 843, 7772, 9744, 2781, 2782, 3046
7346, 4892, 4884, 4887, 6834, 4904, 4946, 4947, 7718, 7714, 7796
7347, 6355, 488, 6356, 497, 9340, 9089, 6415, 9379, 2240, 9042
7348, 5881, 5878, 5602, 6836, 5952, 9215, 8315, 8317, 9112, 8316
7349, 838, 837, 3031, 913, 844, 9684, 8273, 2783, 2784, 3049
7350, 52, 754, 84, 3110, 2683, 756, 831, 8698, 9688, 9679
7351, 840, 562, 2300, 2266, 2692, 2437, 7962, 8810, 2433, 2438
7352, 74, 781, 42, 6864, 782, 2654, 816, 9656, 9701, 8814
7353, 5019, 313, 312, 6873, 5050, 1846, 5051, 9745, 9747, 9746
7354, 850, 849, 3073, 924, 856, 8044, 8542, 2793, 2794, 3084
7355, 1754, 285, 6098, 6826, 7945, 6227, 9213, 8404, 9748, 8573
7356, 1754, 6826, 6109, 6840, 8404, 8571, 9212, 9349, 9271, 8675
7357, 498, 331, 329, 6809, 9749, 1867, 9750, 9751, 9308, 8090
7358, 851, 926, 3069, 852, 2798, 3090, 7376, 858, 2797, 8742
7359, 3697, 3708, 3677, 6875, 3900, 3995, 3880, 9451, 9302, 9453
7360, 238, 2108, 1577, 5439, 9208, 7324, 1583, 9752, 8875, 7315
7361, 575, 96, 2278, 63, 2705, 8859, 2391, 582, 848, 2390
7362, 6093, 4178, 179, 6131, 7740, 4183, 6196, 6197, 7741, 6192
7363, 1577, 1578, 5436, 6899, 1584, 9698, 7316, 8059, 9195, 7651
7364, 559, 2265, 37, 837, 2316, 2314, 2315, 2700, 9565, 9566
7365, 2862, 6860, 2833, 6901, 7870, 8819, 3020, 8864, 7201, 7864
7366, 287, 284, 285, 4887, 4883, 1745, 1750, 4907, 9401, 8281
7367, 1073, 3361, 115, 1117, 8255, 3368, 8625, 7461, 3375, 1124
7368, 3365, 1072, 115, 1112, 8348, 9007, 3371, 3374, 7676, 1118
7369, 3660, 3714, 3705, 6876, 3930, 3844, 3937, 9125, 9651, 9127
7370, 3710, 3688, 3669, 6892, 3957, 3917, 3958, 7916, 8005, 7833
7371, 3113, 866, 940, 867, 8397, 2814, 3134, 9712, 873, 2813
7372, 2832, 6866, 2861, 6894, 8951, 7899, 3015, 7929, 7369, 8833
7373, 850, 925, 3070, 851, 2796, 3087, 8171, 857, 2795, 8391
7374, 1455, 1415, 6123, 6890, 9753, 9484, 6216, 9118, 9470, 8940
7375, 6129, 6108, 6091, 6841, 6311, 6310, 6312, 8359, 8075, 9060
7376, 865, 939, 3111, 866, 2812, 3131, 8873, 872, 2811, 9447
7377, 1804, 1803, 5875, 1992, 1810, 8387, 9067, 5531, 5540, 5911
7378, 196, 4289, 195, 6881, 4321, 4320, 1468, 9754, 9756, 9755
7379, 15, 6845, 6812, 6876, 9757, 8853, 9490, 9491, 9758, 8872
7380, 4076, 302, 4965, 303, 9458, 4987, 9759, 9460, 1798, 4988
7381, 2022, 351, 6424, 2018, 2024, 6585, 9461, 5565, 5566, 9760
7382, 6492, 6419, 6487, 6853, 6625, 6622, 6626, 9038, 9039, 9046
7383, 950, 878, 3155, 877, 2821, 7785, 3166, 2822, 884, 7034
7384, 1988, 1989, 5868, 1800, 1995, 5902, 5901, 5532, 5535, 9761
7385, 879, 951, 878, 3154, 2823, 2824, 885, 9169, 3169, 8668
7386, 1753, 1975, 1752, 5791, 5519, 5518, 1759, 8302, 5812, 7220
7387, 5789, 1755, 1418, 1754, 9762, 9763, 9134, 7344, 1761, 9501
7388, 1582, 280, 283, 6826, 9764, 1744, 7590, 8248, 9765, 8247
7389, 3672, 3670, 3671, 6848, 3960, 3952, 3961, 8658, 9280, 8084
7390, 562, 2279, 62, 840, 2382, 2381, 569, 2692, 7963, 2688
7391, 2062, 5596, 6042, 6844, 5740, 9573, 6070, 9766, 7894, 7594
7392, 6839, 6853, 6473, 6862, 9631, 7446, 7215, 8264, 9113, 7105
7393, 5444, 1734, 1582, 5435, 5452, 4871, 9612, 5473, 5471, 9767
7394, 3068, 928, 854, 853, 3096, 2792, 9085, 9248, 2801, 860
7395, 879, 952, 3152, 880, 2826, 3172, 9129, 886, 2825, 8480
7396, 1045, 3069, 6889, 6902, 3103, 8226, 7788, 8553, 8227, 7464
7397, 2299, 95, 62, 2279, 7668, 834, 2386, 2387, 8416, 2381
7398, 927, 3071, 852, 853, 3093, 8931, 2800, 2799, 8617, 859
7399, 3109, 941, 868, 867, 3137, 2806, 9099, 8680, 2815, 874
7400, 5619, 5440, 1961, 5433, 7903, 5454, 5694, 7904, 5476, 5475
7401, 1754, 287, 1779, 6109, 4911, 1782, 4915, 9212, 6230, 6233
7402, 6785, 3682, 6135, 1454, 9337, 9336, 9335, 9597, 9596, 6267
7403, 1834, 6807, 417, 6854, 9296, 9768, 8984, 9298, 9299, 9769
7404, 6120, 1825, 6106, 6882, 6287, 6288, 6158, 9770, 9772, 9771
7405, 937, 3114, 863, 864, 3125, 9274, 2808, 2807, 8959, 870
7406, 839, 838, 3030, 914, 845, 8276, 9560, 2785, 2786, 3052
7407, 4589, 6139, 1453, 244, 9045, 6273, 9773, 4596, 8672, 8515
7408, 297, 299, 298, 6815, 1794, 1792, 4956, 9152, 8521, 9614
7409, 866, 3111, 2294, 6898, 9447, 8817, 9719, 8402, 7711, 8818
7410, 1582, 2109, 238, 5444, 7588, 7466, 1589, 9612, 8890, 9359
7411, 6118, 6125, 184, 4202, 6212, 6211, 6207, 7659, 7660, 4203
7412, 5366, 5360, 4683, 6865, 5395, 9545, 8823, 7828, 8086, 9014
7413, 2846, 2847, 793, 6837, 2895, 9267, 9203, 9538, 8509, 8977
7414, 6498, 6448, 6839, 6862, 6741, 7685, 7214, 7106, 8624, 8264
7415, 4959, 300, 4961, 6815, 4979, 4976, 4980, 8192, 9272, 8060
7416, 553, 36, 2273, 6495, 556, 2308, 2310, 6547, 6546, 8557
7417, 915, 839, 840, 3027, 2787, 846, 2778, 3055, 9284, 8683
7418, 938, 864, 865, 3112, 2810, 871, 2809, 3128, 8369, 8143
7419, 5798, 1753, 5783, 2110, 8953, 8952, 5846, 8568, 8881, 9462
7420, 5609, 5877, 5591, 6829, 9105, 9774, 5756, 9222, 9256, 9775
7421, 290, 295, 291, 4886, 1788, 4954, 1766, 4925, 9054, 4926
7422, 6099, 6840, 6826, 6850, 7655, 9271, 8415, 8219, 8737, 9346
7423, 6130, 1825, 1803, 6882, 6290, 4985, 7042, 8735, 9772, 8734
7424, 3194, 3196, 800, 3200, 3267, 9776, 9777, 3238, 3268, 9778
7425, 1732, 5430, 5434, 1580, 5467, 5469, 5465, 4876, 9663, 9779
7426, 1674, 233, 1678, 6824, 4649, 1679, 4650, 9139, 9780, 9165
7427, 1674, 232, 233, 6824, 1675, 1557, 4649, 9139, 9638, 9780
7428, 371, 1, 363, 6858, 2136, 366, 2137, 9174, 9236, 9237
7429, 371, 4, 1, 6858, 374, 378, 2136, 9174, 9175, 9236
7430, 645, 2270, 6494, 552, 7988, 9781, 9583, 9182, 2421, 6604
7431, 2270, 2282, 6494, 552, 2422, 8980, 9781, 2421, 2418, 6604
7432, 628, 781, 74, 798, 8754, 782, 2553, 2637, 9783, 9782
7433, 742, 801, 632, 88, 9784, 2625, 8756, 744, 9785, 2585
7434, 2267, 881, 600, 2295, 8655, 2750, 2497, 2467, 8800, 2489
7435, 1678, 261, 260, 6823, 1680, 1681, 4651, 8026, 9787, 9786
7436, 260, 1674, 1678, 6823, 1676, 4650, 4651, 9786, 8046, 8026
7437, 1045, 1044, 3069, 6902, 1051, 3104, 3103, 8553, 8561, 8227
7438, 4890, 290, 295, 1752, 4929, 1788, 7560, 4928, 4927, 7561
7439, 1211, 1212, 372, 5361, 1214, 6803, 6804, 8909, 7875, 9788
7440, 2840, 2838, 3205, 992, 2943, 7240, 8611, 2984, 2981, 8998
7441, 1615, 6875, 6811, 6900, 8599, 9789, 9790, 8550, 8513, 9741
7442, 1434, 5966, 5972, 5961, 9791, 6036, 9792, 9793, 6008, 6037
7443, 1582, 5435, 1581, 6897, 9767, 8812, 1588, 8992, 8621, 8813
7444, 6443, 6839, 6483, 6861, 7195, 7394, 6669, 9316, 9794, 9567
7445, 798, 2859, 2858, 6894, 8426, 2921, 9495, 9365, 7747, 8423
7446, 3109, 51, 50, 868, 8995, 541, 8716, 9099, 9097, 9795
7447, 4088, 165, 4094, 6120, 4089, 4099, 9796, 9797, 6153, 9798
7448, 6813, 6807, 6827, 6839, 9328, 9345, 9091, 9093, 9799, 8551
7449, 1734, 1581, 5435, 1733, 4880, 8812, 5471, 1740, 4878, 5470
7450, 346, 6813, 345, 6861, 9800, 9327, 2012, 9801, 9711, 9720
7451, 1833, 6458, 2120, 6133, 9705, 6612, 6298, 6296, 9201, 6299
7452, 2856, 6901, 796, 6902, 8492, 9586, 9802, 9176, 9177, 8567
7453, 3692, 3676, 6874, 6891, 3983, 7616, 8449, 8865, 7271, 8749
7454, 1975, 1753, 5783, 5791, 5519, 8952, 5814, 5812, 8302, 5816
7455, 838, 3030, 39, 2292, 8276, 9068, 9069, 9695, 9021, 2318
7456, 1418, 5617, 1754, 6840, 9136, 7346, 9501, 8289, 9348, 9349
7457, 4136, 151, 4130, 1757, 4140, 4132, 8342, 8424, 9571, 8111
7458, 3687, 3704, 3664, 6858, 3945, 3733, 3944, 9011, 9660, 9010
7459, 2110, 5798, 1753, 5791, 8568, 8953, 8881, 8569, 5845, 8302
7460, 1420, 5600, 1803, 6829, 9386, 8040, 9065, 9803, 8041, 8042
7461, 280, 283, 279, 6816, 1744, 4881, 1727, 8659, 9290, 9670
7462, 6041, 1802, 2111, 362, 8721, 7940, 6055, 6048, 7565, 2118
7463, 3701, 6891, 3699, 6900, 8306, 9804, 4002, 9156, 9661, 9725
7464, 3656, 6845, 6825, 6895, 7424, 8852, 7675, 7699, 8821, 8512
7465, 880, 600, 881, 2295, 2748, 2750, 887, 9180, 2489, 8800
7466, 5294, 5295, 1933, 6838, 5304, 5298, 5302, 9324, 9005, 9367
7467, 5444, 5435, 1582, 6897, 5473, 9767, 9612, 9524, 8621, 8992
7468, 3660, 3666, 6825, 6876, 3935, 8674, 7673, 9125, 9126, 9805
7469, 2059, 5589, 5597, 6852, 5723, 5726, 5725, 8935, 8670, 7541
7470, 850, 571, 2261, 2286, 2712, 2445, 8393, 8173, 2447, 2446
7471, 1978, 5785, 1755, 1756, 5821, 9737, 5524, 5525, 9563, 1762
7472, 6494, 2282, 553, 552, 8980, 2419, 6603, 6604, 2418, 555
7473, 279, 283, 282, 6816, 4881, 1742, 1743, 9670, 9290, 9371
7474, 3698, 3699, 6874, 6900, 3940, 7791, 7175, 8775, 9725, 8776
7475, 364, 380, 381, 6887, 2149, 384, 2148, 9806, 8108, 9734
7476, 2296, 2268, 574, 853, 2427, 2457, 2451, 8729, 8616, 2719
7477, 5881, 1800, 5868, 6836, 8314, 9761, 5933, 8317, 7086, 9394
7478, 623, 646, 645, 793, 2594, 651, 2591, 2626, 8825, 9287
7479, 562, 839, 561, 2266, 2703, 2702, 568, 2433, 9285, 2434
7480, 878, 598, 2297, 597, 2744, 2481, 9574, 2743, 604, 2482
7481, 5295, 272, 1933, 6838, 5297, 1934, 5298, 9005, 8731, 9367
7482, 1412, 335, 136, 1832, 8214, 9536, 9448, 8808, 7468, 9537
7483, 415, 244, 1453, 6812, 9807, 8515, 9441, 9808, 8673, 9030
7484, 3109, 1061, 757, 3110, 3148, 9809, 8994, 3139, 3123, 8997
7485, 283, 6098, 285, 6826, 6228, 6227, 1747, 8247, 8573, 9748
7486, 1686, 1682, 234, 6824, 4656, 1683, 4655, 8011, 9090, 9810
7487, 623, 645, 622, 793, 2591, 2541, 634, 2626, 9287, 2624
7488, 115, 1073, 3152, 1072, 8625, 3185, 8323, 9007, 1079, 3186
7489, 5608, 357, 362, 5871, 5636, 2105, 8848, 8285, 9811, 8847
7490, 364, 381, 365, 6887, 2148, 2146, 368, 9806, 9734, 9812
7491, 839, 560, 561, 2292, 2701, 567, 2702, 9696, 2320, 2432
7492, 115, 106, 3406, 2852, 1111, 9813, 8878, 8879, 2880, 8355
7493, 238, 1729, 5439, 1577, 4869, 5451, 9752, 1583, 4870, 7315
7494, 262, 1682, 1686, 6823, 1684, 4656, 4657, 9814, 7972, 7971
7495, 373, 372, 365, 6887, 376, 2141, 2139, 8717, 8718, 9812
7496, 364, 365, 372, 6887, 368, 2141, 2142, 9806, 9812, 8718
7497, 1801, 5868, 5874, 1989, 9028, 5906, 9029, 5534, 5902, 5904
7498, 1840, 1705, 4684, 263, 5263, 4717, 9488, 5264, 1708, 4715
7499, 2297, 878, 597, 2278, 9574, 2743, 2482, 2463, 8891, 2485
7500, 221, 1630, 1623, 6822, 1631, 4614, 4613, 9815, 9230, 9229
7501, 5617, 1417, 5614, 6826, 9678, 9816, 5679, 9347, 9677, 9449
7502, 349, 361, 345, 6819, 2103, 5955, 2017, 9615, 9817, 9329
7503, 3361, 2853, 2845, 6830, 9032, 2987, 9653, 8258, 8975, 8217
7504, 6119, 6136, 6094, 6850, 6327, 6326, 6203, 9436, 8566, 8096
7505, 1032, 3030, 790, 1031, 3064, 9658, 9818, 1038, 3065, 9819
7506, 989, 2833, 2841, 6860, 2967, 2970, 2969, 8004, 8819, 9132
7507, 5429, 6047, 5604, 336, 9289, 9288, 7567, 5446, 8429, 5626
7508, 6455, 6843, 6489, 6885, 8669, 9282, 6777, 6931, 7853, 7248
7509, 1839, 1704, 5363, 1709, 5268, 9820, 9352, 9412, 4760, 5369
7510, 2275, 583, 863, 584, 2465, 2723, 9275, 2464, 590, 2725
7511, 863, 2275, 584, 864, 9275, 2464, 2725, 870, 9172, 2726
7512, 35, 523, 2290, 3716, 525, 2307, 2306, 3767, 3766, 8921
7513, 2037, 5971, 5960, 1952, 5980, 5999, 5997, 5576, 7923, 7924
7514, 2840, 2832, 992, 6866, 2983, 2977, 2984, 9385, 8951, 9384
7515, 266, 267, 4663, 6833, 1693, 4725, 4724, 9259, 8894, 7813
7516, 335, 2032, 5968, 1947, 5574, 5979, 9736, 1953, 5575, 9821
7517, 129, 245, 128, 6817, 1864, 5074, 1168, 9633, 8765, 9822
7518, 5880, 2071, 187, 4265, 5894, 5622, 9823, 8057, 7955, 4268
7519, 1208, 136, 6132, 1412, 1210, 9824, 9825, 9826, 9448, 9827
7520, 351, 2022, 6439, 6363, 2024, 7836, 6590, 6392, 6391, 7839
7521, 234, 1678, 233, 6824, 4652, 1679, 1561, 9810, 9165, 9780
7522, 234, 1682, 1678, 6824, 1683, 4653, 4652, 9810, 9090, 9165
7523, 3674, 6848, 6874, 6891, 7382, 9828, 7615, 7269, 9137, 8749
7524, 1976, 5789, 5783, 1754, 5817, 5819, 5815, 5520, 7344, 9050
7525, 5874, 1802, 1801, 1990, 8578, 1808, 9029, 5905, 5536, 5537
7526, 562, 839, 2266, 840, 2703, 9285, 2433, 2692, 846, 8810
7527, 1194, 1330, 153, 6868, 7481, 1331, 4060, 7482, 7483, 9395
7528, 308, 6813, 339, 6861, 9710, 9829, 2000, 8118, 9711, 8117
7529, 2838, 3362, 993, 2854, 7454, 3395, 2982, 2985, 7172, 2986
7530, 5610, 2063, 6043, 5594, 5742, 6075, 7024, 5741, 5738, 7789
7531, 1941, 266, 6816, 6833, 1942, 8699, 8505, 9258, 9259, 7707
7532, 3683, 6831, 3673, 6848, 8585, 8892, 3967, 8085, 9830, 7384
7533, 6492, 6466, 6827, 6853, 6706, 7342, 7343, 9038, 9047, 9831
7534, 1682, 262, 261, 6823, 1684, 1685, 4654, 7972, 9814, 9787
7535, 261, 1678, 1682, 6823, 1680, 4653, 4654, 9787, 8026, 7972
7536, 6120, 1804, 1825, 6882, 9350, 5011, 6287, 9770, 9832, 9772
7537, 6418, 6472, 6484, 6828, 6517, 6620, 6619, 8503, 9833, 8504
7538, 6445, 6827, 6466, 6853, 7856, 7342, 6698, 9048, 9831, 9047
7539, 291, 295, 294, 4886, 4954, 1786, 1787, 4926, 9054, 9331
7540, 835, 2277, 557, 836, 9270, 2425, 2696, 842, 8151, 2694
7541, 2830, 3202, 2838, 2854, 7934, 7455, 2940, 3011, 7171, 2985
7542, 1001, 2751, 99, 3413, 7957, 2754, 2866, 3425, 8556, 9834
7543, 838, 839, 2292, 560, 845, 9696, 9695, 2699, 2701, 2320
7544, 6463, 6818, 6488, 6862, 8543, 8051, 6764, 7104, 9835, 8321
7545, 6447, 6839, 6449, 6861, 7997, 9554, 6744, 9198, 9794, 9200
7546, 280, 6090, 283, 6826, 6225, 6224, 1744, 9765, 8208, 8247
7547, 3404, 1130, 1075, 3409, 3430, 3622, 9836, 3464, 3462, 8639
7548, 2255, 879, 2297, 6888, 9130, 9168, 2488, 7835, 9170, 8126
7549, 4148, 1756, 4142, 4895, 9837, 9159, 9838, 9839, 4942, 8957
7550, 3668, 6848, 3670, 6892, 9279, 9280, 3951, 7832, 9840, 7834
7551, 796, 2856, 2857, 6901, 9802, 2912, 7308, 9586, 8492, 7803
7552, 2274, 2255, 2297, 6888, 2504, 2488, 2462, 8300, 7835, 8126
7553, 5871, 5608, 5609, 2073, 8285, 5640, 9106, 5921, 5753, 5750
7554, 270, 4888, 271, 4661, 4902, 7842, 1697, 4736, 7844, 4737
7555, 558, 557, 2277, 836, 564, 2425, 2424, 2695, 2694, 8151
7556, 3671, 3668, 6842, 6848, 3953, 7793, 7285, 8084, 9279, 9202
7557, 2302, 60, 98, 3151, 2372, 9662, 9642, 9643, 9576, 9020
7558, 5271, 1927, 298, 6815, 5279, 1929, 5277, 7557, 7555, 9614
7559, 1577, 1729, 5439, 5436, 4870, 5451, 7315, 7316, 5458, 5460
7560, 6139, 245, 6116, 6825, 7977, 9471, 6223, 7978, 7979, 8944
7561, 2271, 3715, 524, 649, 9142, 3825, 2415, 8104, 9143, 9225
7562, 1705, 1840, 4684, 6887, 5263, 9488, 4717, 9186, 9727, 8310
7563, 627, 797, 614, 67, 2634, 9841, 8750, 2533, 9842, 615
7564, 5604, 6047, 2108, 2060, 9288, 6069, 9087, 5728, 6066, 6067
7565, 5600, 5591, 5877, 6829, 5758, 9774, 9055, 8041, 9775, 9256
7566, 5605, 5604, 6047, 336, 5630, 9288, 8887, 5629, 5626, 8429
7567, 2751, 94, 99, 3413, 2753, 890, 2754, 8556, 9446, 9834
7568, 2298, 524, 3715, 523, 2413, 3825, 9141, 2412, 526, 3826
7569, 1171, 6785, 6137, 1454, 9595, 9843, 6265, 6268, 9597, 6269
7570, 6480, 6479, 2121, 6138, 6615, 6578, 6616, 9665, 7942, 6261
7571, 6132, 6786, 2120, 1833, 9844, 9703, 6297, 6292, 9704, 6298
7572, 772, 77, 1059, 6898, 773, 9376, 9845, 9626, 9377, 7710
7573, 1731, 1578, 1579, 5428, 4875, 1585, 4874, 5462, 9673, 9718
7574, 990, 1114, 3367, 2848, 3387, 3389, 3386, 2972, 8801, 9528
7575, 5589, 5618, 6852, 6890, 5776, 7754, 8670, 8654, 9117, 7472
7576, 5606, 5607, 335, 1413, 5657, 7440, 8394, 9846, 9387, 9388
7577, 2852, 3406, 1003, 2853, 8355, 3440, 2997, 2884, 9124, 2994
7578, 372, 1211, 5361, 6887, 6804, 8909, 9788, 8718, 8719, 7083
7579, 949, 98, 3156, 103, 2818, 9655, 3161, 955, 2817, 3160
7580, 1755, 5789, 5785, 1977, 9762, 5822, 9737, 5523, 5818, 5820
7581, 910, 95, 3033, 100, 2776, 8363, 3038, 916, 2775, 3037
7582, 1951, 2107, 5967, 6852, 7683, 9301, 8304, 7755, 7756, 8926
7583, 435, 426, 6807, 6828, 2188, 9847, 9620, 9622, 9848, 9624
7584, 3713, 126, 6831, 6842, 3800, 9096, 8587, 6905, 9405, 8883
7585, 2845, 2853, 2835, 6830, 2987, 3000, 3024, 8217, 8975, 9604
7586, 137, 1216, 6137, 1415, 1217, 9849, 9850, 9526, 9852, 9851
7587, 1949, 1212, 1948, 5356, 8844, 7874, 1955, 5401, 7876, 5402
7588, 6443, 6819, 6839, 6861, 7126, 8965, 7195, 9316, 9559, 9794
7589, 5602, 1412, 1800, 6836, 8908, 8213, 8313, 8316, 8215, 7086
7590, 1045, 6889, 6901, 6902, 7788, 7322, 7132, 8553, 7464, 9177
7591, 5601, 6041, 5609, 6829, 9659, 9221, 5743, 8489, 8724, 9222
7592, 6134, 6480, 2121, 6138, 9721, 6616, 6303, 6260, 9665, 6261
7593, 1581, 1734, 5435, 1582, 4880, 5471, 8812, 1588, 4871, 9767
7594, 648, 626, 649, 796, 2597, 2548, 654, 9355, 2632, 9358
7595, 2272, 849, 570, 2260, 8045, 2713, 2442, 2443, 7715, 2388
7596, 648, 626, 796, 625, 2597, 2632, 9355, 2596, 637, 2631
7597, 6116, 6825, 3665, 6858, 8944, 8966, 7529, 9547, 8267, 9219
7598, 880, 599, 2295, 2275, 2747, 2490, 9180, 9056, 2491, 2468
7599, 574, 854, 2274, 575, 2720, 9084, 2456, 581, 2709, 2455
7600, 854, 574, 2274, 853, 2720, 2456, 9084, 860, 2719, 9506
7601, 798, 1032, 6855, 6864, 9540, 8061, 9686, 9853, 8613, 8614
7602, 1757, 4136, 150, 4142, 8424, 4138, 8233, 8956, 9454, 4146
7603, 3659, 3719, 3694, 6876, 3923, 3933, 3932, 9652, 9310, 9311
7604, 3717, 3708, 3652, 6875, 3902, 3901, 3898, 9304, 9302, 9590
7605, 1938, 5332, 5331, 6833, 5336, 5341, 5340, 9473, 9260, 9429
7606, 1711, 1566, 1461, 4695, 4766, 4532, 8902, 4767, 4764, 8903
7607, 109, 1033, 1115, 3288, 1040, 8524, 8457, 9634, 7157, 8525
7608, 4178, 4184, 143, 6850, 9306, 4188, 4180, 8970, 9307, 9854
7609, 3491, 3498, 3508, 795, 3555, 3558, 3557, 9855, 8988, 9856
7610, 2110, 2111, 1753, 6904, 2117, 9570, 8881, 8695, 7996, 8882
7611, 280, 240, 4540, 279, 4866, 4568, 8660, 1727, 1726, 9669
7612, 2260, 63, 96, 2704, 2389, 848, 7328, 7558, 2707, 2706
7613, 3281, 114, 109, 3288, 3296, 3577, 9635, 3305, 3304, 9634
7614, 116, 1075, 3404, 1130, 3618, 9836, 3431, 1137, 3622, 3430
7615, 103, 882, 3151, 954, 2816, 9478, 3157, 961, 2820, 3162
7616, 267, 5332, 1938, 6833, 5333, 5336, 1939, 8894, 9260, 9473
7617, 928, 101, 3072, 854, 935, 3075, 3080, 2792, 2788, 8745
7618, 6451, 6450, 6448, 6862, 6750, 6749, 6751, 8322, 8280, 8624
7619, 1799, 2119, 6124, 1208, 9433, 6286, 9425, 9857, 9671, 9858
7620, 2262, 96, 63, 2278, 7677, 848, 2393, 2394, 8859, 2390
7621, 102, 868, 3110, 941, 2802, 9098, 3116, 948, 2806, 3121
7622, 5601, 1420, 5611, 6820, 9859, 9223, 5693, 8488, 8361, 8374
7623, 923, 96, 3074, 101, 2790, 7362, 3079, 929, 2789, 3078
7624, 936, 102, 97, 3115, 942, 2803, 2804, 3120, 3119, 8444
7625, 97, 588, 64, 2276, 2722, 595, 862, 7016, 2351, 2397
7626, 1642, 224, 225, 6822, 1643, 1525, 4625, 9434, 9860, 9531
7627, 6493, 6459, 6469, 6861, 6672, 6755, 6568, 9861, 9199, 9406
7628, 3670, 3672, 3718, 6848, 3960, 3963, 3962, 9280, 8658, 8835
7629, 4082, 159, 1300, 1804, 4084, 1301, 4085, 9160, 7691, 7692
7630, 362, 1801, 2106, 6044, 9049, 8078, 2112, 6051, 9034, 6054
7631, 4672, 4682, 4683, 6865, 4848, 4812, 4785, 7824, 7148, 9014
7632, 5604, 5598, 5440, 1961, 5696, 7013, 7566, 5627, 5697, 5454
7633, 4542, 1574, 4540, 6856, 4561, 4570, 4583, 8936, 7723, 8388
7634, 5271, 306, 5272, 4959, 5281, 5276, 5282, 8714, 5005, 8263
7635, 3494, 117, 110, 3503, 3511, 3591, 7505, 3520, 3519, 7506
7636, 113, 111, 3194, 3203, 3605, 9862, 3211, 3219, 9863, 3220
7637, 5608, 6044, 2058, 5603, 9061, 6052, 5637, 5720, 9513, 5721
7638, 1320, 156, 4106, 6841, 1322, 4110, 4109, 9864, 9683, 8950
7639, 3698, 3662, 3699, 6900, 3939, 3941, 3940, 8775, 8454, 9725
7640, 95, 62, 2268, 2269, 834, 2380, 7779, 7766, 2384, 2383
7641, 1592, 185, 6125, 4214, 6144, 6210, 6213, 9600, 4217, 9625
7642, 5444, 5432, 5435, 6897, 5489, 5508, 5473, 9524, 8418, 8621
7643, 100, 840, 3028, 915, 2774, 7964, 3034, 922, 2778, 3039
7644, 1056, 3199, 1083, 3193, 7122, 3239, 3607, 7128, 3241, 3217
7645, 1139, 1042, 3499, 3493, 3593, 9389, 3539, 3517, 9865, 3541
7646, 1028, 3286, 1097, 3280, 6968, 3324, 3579, 7380, 3326, 3302
7647, 1753, 1754, 5783, 6844, 1760, 9050, 8952, 9866, 8406, 9463
7648, 1987, 303, 5879, 338, 5529, 9498, 5891, 1993, 5528, 5890
7649, 346, 417, 1834, 6807, 9867, 8984, 8514, 9557, 9768, 9296
7650, 3660, 6825, 3659, 6876, 7673, 7674, 3921, 9125, 9805, 9652
7651, 4130, 1419, 1340, 6868, 9868, 9869, 4133, 8112, 9116, 8650
7652, 252, 1646, 253, 6821, 4627, 1648, 1649, 9870, 8409, 9606
7653, 1642, 1646, 252, 6821, 4626, 4627, 1644, 8410, 8409, 9870
7654, 373, 1833, 1211, 6887, 9871, 9390, 6796, 8717, 8728, 8719
7655, 5875, 5884, 1804, 1992, 5913, 9872, 9067, 5911, 5892, 5531
7656, 1799, 4966, 6468, 303, 4993, 9002, 9873, 1805, 4989, 9874
7657, 3365, 2852, 2847, 988, 8954, 2964, 9415, 3372, 2881, 2965
7658, 853, 573, 2296, 852, 2718, 2452, 8729, 859, 2716, 8932
7659, 1704, 1839, 1705, 1709, 5268, 5269, 1707, 4760, 9412, 4771
7660, 3150, 953, 881, 3153, 3177, 2827, 8827, 3179, 3175, 8656
7661, 5601, 1420, 6820, 6829, 9859, 8361, 8488, 8489, 9803, 8431
7662, 3412, 2844, 2835, 6830, 8982, 3002, 9603, 8974, 7629, 9604
7663, 2268, 2303, 574, 853, 2459, 2458, 2457, 8616, 9325, 2719
7664, 4100, 6106, 6115, 6882, 9630, 6161, 8947, 9875, 9771, 9697
7665, 98, 882, 3151, 103, 889, 9478, 9020, 2817, 2816, 3157
7666, 4142, 4136, 173, 4895, 9454, 4137, 4147, 8957, 9455, 9876
7667, 2851, 794, 110, 2850, 9439, 9440, 7857, 2901, 9877, 7065
7668, 1185, 136, 1208, 1412, 4019, 1210, 4018, 4246, 9448, 9826
7669, 303, 160, 4076, 1292, 9878, 4078, 9460, 9879, 1293, 4079
7670, 878, 597, 2270, 877, 2743, 2480, 7784, 884, 2741, 7036
7671, 975, 2863, 3287, 3277, 2946, 8377, 3298, 3307, 7537, 3308
7672, 97, 868, 588, 2276, 875, 2724, 2722, 7016, 9479, 2351
7673, 1046, 1113, 3501, 6860, 7620, 9361, 8588, 7199, 7619, 8971
7674, 6480, 6134, 6133, 6854, 9721, 6300, 7898, 7000, 9578, 8071
7675, 3031, 912, 837, 3029, 3048, 2781, 9684, 3050, 3046, 9744
7676, 5877, 5591, 2075, 2074, 9774, 5755, 5923, 5924, 5754, 2081
7677, 115, 3410, 1073, 1072, 9343, 8252, 8625, 9007, 8203, 1079
7678, 988, 1112, 3364, 2860, 3378, 3379, 3377, 2962, 8138, 7516
7679, 2058, 6045, 5616, 2106, 6057, 8067, 5718, 6058, 6059, 8223
7680, 1004, 3412, 1005, 2835, 3443, 3442, 1011, 2998, 9603, 2999
7681, 3657, 6892, 6845, 6895, 8006, 9400, 7423, 7272, 8962, 8821
7682, 866, 2294, 2289, 6898, 9719, 2479, 9239, 8402, 8818, 9240
7683, 279, 1723, 4854, 6816, 1725, 4865, 4857, 9670, 7735, 7736
7684, 3287, 2848, 2842, 975, 8802, 2948, 8164, 3298, 2876, 2949
7685, 193, 1462, 1562, 235, 1465, 4534, 1564, 9880, 4535, 1563
7686, 1923, 263, 1840, 310, 1924, 5264, 5265, 1925, 9073, 1843
7687, 2071, 5880, 5873, 4265, 5894, 5916, 5915, 7955, 8057, 7518
7688, 5600, 5591, 2075, 5877, 5758, 5755, 5757, 9055, 9774, 5923
7689, 4100, 156, 1315, 6882, 4102, 1316, 4103, 9875, 9882, 9881
7690, 111, 800, 2855, 2830, 9407, 9313, 7547, 9883, 9884, 2932
7691, 1420, 5601, 5600, 6829, 9859, 5691, 9386, 9803, 8489, 8041
7692, 2835, 3412, 1005, 2844, 9603, 3442, 2999, 3002, 8982, 3001
7693, 6842, 6892, 3655, 6895, 8961, 8682, 8331, 8467, 8962, 7860
7694, 3191, 1116, 1057, 6866, 9366, 7877, 8073, 8451, 7819, 7368
7695, 5020, 5021, 309, 6871, 5043, 5042, 5035, 9885, 7191, 9886
7696, 70, 730, 94, 92, 8751, 9887, 2621, 2545, 732, 9888
7697, 4963, 4960, 304, 6903, 5002, 5001, 5003, 8466, 8528, 9102
7698, 2856, 2862, 2833, 6901, 2914, 3020, 3021, 8492, 8864, 7864
7699, 6461, 6465, 6464, 6843, 6545, 6784, 6783, 9724, 9281, 9292
7700, 840, 100, 3028, 95, 2774, 3034, 7964, 847, 2775, 7669
7701, 2846, 3414, 2834, 6837, 9294, 9714, 2993, 9538, 9115, 9715
7702, 851, 3069, 925, 3070, 7376, 3089, 2795, 8391, 3091, 3087
7703, 239, 1582, 6104, 280, 4572, 9317, 6219, 1728, 9764, 6218
7704, 293, 4885, 5320, 5319, 4935, 9550, 5324, 5329, 9676, 5330
7705, 801, 2845, 2844, 6830, 9577, 2935, 9457, 9000, 8217, 7629
7706, 280, 240, 239, 4540, 4866, 1598, 1728, 8660, 4568, 4567
7707, 4965, 1804, 160, 303, 4994, 9723, 9318, 4988, 1811, 9878
7708, 586, 865, 2294, 866, 2729, 8896, 2473, 2732, 872, 9719
7709, 4291, 4290, 190, 6879, 4309, 4302, 4307, 8792, 9890, 9889
7710, 3113, 939, 866, 3111, 3133, 2811, 8397, 3135, 3131, 9447
7711, 1208, 6468, 1799, 2119, 7395, 9873, 9857, 9671, 6560, 9433
7712, 2285, 64, 97, 2267, 2399, 862, 7435, 2401, 2396, 8443
7713, 3155, 878, 950, 3154, 7785, 2821, 3166, 3170, 8668, 3168
7714, 6465, 36, 6439, 6843, 6544, 6549, 6548, 9281, 9891, 7850
7715, 3695, 3670, 6848, 6892, 3956, 9280, 8836, 8119, 7834, 9840
7716, 278, 1944, 1704, 5363, 1945, 9483, 4761, 5368, 5372, 9820
7717, 101, 96, 3072, 854, 2789, 8860, 3075, 2788, 861, 8745
7718, 1360, 148, 4154, 1756, 1362, 4158, 4157, 8991, 9892, 8840
7719, 102, 868, 97, 3110, 2802, 875, 2803, 3116, 9098, 7018
7720, 346, 1834, 2008, 5547, 8514, 6254, 5558, 5556, 9104, 5555
7721, 3153, 952, 880, 3152, 3174, 2825, 9179, 3176, 3172, 8480
7722, 3152, 951, 879, 3154, 3171, 2823, 9129, 3173, 3169, 9169
7723, 911, 836, 3029, 3032, 2779, 7772, 3045, 3043, 8152, 3047
7724, 5435, 1733, 1581, 5430, 5470, 4878, 8812, 5472, 5468, 9133
7725, 1752, 290, 295, 4891, 4927, 1788, 7561, 4923, 4921, 8806
7726, 5608, 5878, 5590, 2073, 8284, 9699, 5752, 5753, 5917, 5748
7727, 1610, 4589, 1453, 244, 4599, 9773, 6214, 4598, 4596, 8515
7728, 41, 2291, 2281, 6864, 2324, 2326, 2322, 9521, 8365, 9204
7729, 266, 4663, 6816, 6833, 4724, 7263, 8699, 9259, 7813, 7707
7730, 3068, 3071, 927, 853, 3097, 3093, 3095, 9248, 8617, 2799
7731, 137, 1216, 6785, 6137, 1217, 6802, 6801, 9850, 9849, 9843
7732, 6115, 6841, 4100, 6882, 8948, 8949, 8947, 9697, 9588, 9875
7733, 2858, 2832, 2861, 6894, 3018, 3015, 2923, 8423, 7929, 8833
7734, 245, 246, 6116, 5068, 1609, 6140, 9471, 5071, 5072, 8858
7735, 913, 838, 3030, 3031, 2783, 8276, 3051, 3049, 8273, 3053
7736, 852, 926, 3069, 3071, 2797, 3090, 8742, 8931, 3092, 3094
7737, 1801, 304, 4960, 6903, 4997, 5001, 5000, 7937, 9102, 8528
7738, 6362, 189, 188, 214, 7872, 1451, 8083, 6372, 9591, 9893
7739, 1826, 4082, 162, 4965, 9235, 4087, 6149, 4992, 9162, 9894
7740, 2269, 95, 62, 2299, 7766, 834, 2384, 2385, 7668, 2386
7741, 940, 3109, 3113, 867, 3136, 3138, 3134, 2813, 8680, 9712
7742, 346, 6807, 345, 6813, 9557, 9295, 2012, 9800, 9328, 9327
7743, 2298, 3715, 524, 2271, 9141, 3825, 2413, 2417, 9142, 2415
7744, 1804, 1803, 1825, 6882, 1810, 4985, 5011, 9832, 8734, 9772
7745, 924, 3073, 850, 3070, 3084, 8542, 2793, 3086, 3088, 8171
7746, 778, 798, 76, 6855, 9732, 9733, 780, 9895, 9686, 9896
7747, 864, 937, 3114, 3112, 2807, 3125, 8959, 8369, 3127, 3129
7748, 6472, 6437, 6484, 6828, 6712, 6710, 6620, 9833, 9897, 8504
7749, 839, 3027, 914, 3030, 9284, 3054, 2785, 9560, 3056, 3052
7750, 2260, 96, 63, 2262, 7328, 848, 2389, 2392, 7677, 2393
7751, 865, 586, 2294, 585, 2729, 2473, 8896, 2728, 592, 2474
7752, 881, 600, 2280, 2267, 2750, 2496, 8826, 8655, 2497, 2498
7753, 882, 59, 2302, 3151, 9477, 2371, 9641, 9478, 9382, 9643
7754, 6120, 4082, 164, 1826, 9351, 4083, 6154, 6155, 9235, 6150
7755, 3673, 6831, 3711, 6848, 8892, 9145, 3975, 7384, 9830, 7383
7756, 118, 6364, 3661, 1618, 6369, 7949, 3783, 1619, 6370, 7950
7757, 234, 235, 1686, 6824, 1565, 1687, 4655, 9810, 9080, 8011
7758, 865, 938, 3112, 3111, 2809, 3128, 8143, 8873, 3130, 3132
7759, 2834, 3414, 1003, 2852, 9714, 3436, 2992, 2996, 8357, 2997
7760, 4214, 132, 1580, 1579, 4216, 9898, 9599, 9601, 9899, 1586
7761, 281, 1582, 238, 5444, 4867, 1589, 4868, 5448, 9612, 9359
7762, 2277, 558, 836, 2271, 2424, 2695, 8151, 2431, 2430, 7774
7763, 262, 1686, 263, 6823, 4657, 1688, 1689, 9814, 7971, 9074
7764, 1947, 2032, 5968, 5962, 5575, 5979, 9821, 9411, 5984, 5986
7765, 1208, 136, 6786, 6132, 1210, 6797, 6798, 9825, 9824, 9844
7766, 853, 573, 574, 2296, 2718, 580, 2719, 8729, 2452, 2451
7767, 5362, 1713, 4679, 4678, 5390, 4783, 8009, 7356, 4779, 4784
7768, 1705, 4684, 4675, 6887, 4717, 4775, 4774, 9186, 8310, 8332
7769, 3203, 3196, 800, 3194, 3254, 9776, 9900, 3220, 3267, 9777
7770, 2072, 5878, 5590, 5602, 5918, 9699, 5747, 5746, 9215, 5749
7771, 1432, 5602, 5603, 6836, 5648, 5651, 5650, 9901, 8316, 8838
7772, 2852, 3365, 2847, 6837, 8954, 9415, 2964, 8955, 8351, 8509
7773, 1102, 1033, 114, 3288, 3580, 3576, 1109, 3303, 7157, 3304
7774, 1102, 3278, 1033, 3288, 3337, 7156, 3580, 3303, 3339, 7157
7775, 5589, 5612, 5618, 6890, 5777, 5670, 5776, 8654, 9094, 9117
7776, 3497, 795, 1044, 6902, 8987, 9902, 8560, 8554, 9903, 8561
7777, 221, 222, 1634, 6822, 1513, 1635, 4616, 9815, 9904, 9334
7778, 1634, 1630, 221, 6822, 4617, 1631, 4616, 9334, 9230, 9815
7779, 1634, 250, 249, 6821, 1636, 1637, 4618, 8294, 9906, 9905
7780, 249, 1630, 1634, 6821, 1632, 4617, 4618, 9905, 8295, 8294
7781, 117, 1047, 3503, 1144, 3590, 7165, 3519, 1151, 3594, 3518
7782, 113, 1061, 3203, 1088, 3604, 9907, 3219, 1095, 3608, 3218
7783, 1350, 149, 1756, 4142, 1351, 9908, 8414, 4145, 4144, 9159
7784, 118, 6364, 1153, 3716, 6369, 6368, 1155, 3780, 8918, 3781
7785, 2277, 2296, 573, 852, 2428, 2452, 2453, 9206, 8932, 2716
7786, 599, 600, 880, 2295, 606, 2748, 2747, 2490, 2489, 9180
7787, 2302, 59, 60, 3151, 2371, 550, 2372, 9643, 9382, 9576
7788, 2256, 851, 572, 2261, 7374, 2717, 2449, 2450, 7377, 2444
7789, 289, 1974, 5784, 1752, 5515, 5805, 7244, 1758, 5516, 7245
7790, 2121, 6491, 6480, 6133, 6613, 6617, 6616, 6302, 7006, 7898
7791, 1803, 6820, 1420, 6829, 7846, 8361, 9065, 8042, 8431, 9803
7792, 137, 1216, 1415, 1189, 1217, 9852, 9526, 4023, 4025, 4254
7793, 882, 600, 601, 2263, 2749, 607, 2739, 9568, 2494, 2493
7794, 882, 600, 2263, 881, 2749, 2494, 9568, 888, 2750, 9071
7795, 6106, 4094, 165, 6120, 9909, 4099, 6157, 6158, 9798, 6153
7796, 2127, 351, 6495, 6363, 2130, 6589, 6588, 6393, 6392, 8558
7797, 6112, 288, 6105, 4894, 6237, 6236, 6238, 9475, 4919, 8384
7798, 5591, 5601, 5609, 6829, 5780, 5743, 5756, 9775, 8489, 9222
7799, 864, 585, 2279, 584, 2727, 2469, 8631, 2726, 591, 2470
7800, 585, 864, 2279, 865, 2727, 8631, 2469, 2728, 871, 8262
7801, 4589, 1453, 6139, 1610, 9773, 6273, 9045, 4599, 6214, 6221
7802, 6813, 6839, 6819, 6861, 9093, 8965, 9092, 9711, 9794, 9559
7803, 4683, 4672, 5360, 1714, 4785, 8190, 9545, 4772, 4780, 5393
7804, 4542, 4540, 6816, 6856, 4583, 8389, 8261, 8936, 8388, 7695
7805, 270, 4884, 4892, 4661, 4896, 4904, 4903, 4736, 8500, 7986
7806, 3496, 3503, 1047, 1144, 3554, 7165, 7167, 3552, 3518, 3594
7807, 3196, 1088, 3203, 1061, 3252, 3218, 3254, 9629, 3608, 9907
7808, 347, 339, 6813, 6861, 2014, 9829, 9910, 8178, 8117, 9711
7809, 307, 6365, 248, 308, 8031, 6382, 9911, 1830, 9262, 9657
7810, 4685, 4675, 4684, 6887, 4852, 4775, 4770, 7188, 8332, 8310
7811, 308, 326, 325, 6870, 5029, 1859, 5031, 9264, 9913, 9912
7812, 2846, 3414, 1002, 2834, 9294, 3437, 2990, 2993, 9714, 2991
7813, 4693, 4884, 270, 4661, 8421, 4896, 4734, 4738, 8500, 4736
7814, 223, 224, 1642, 6822, 1521, 1643, 4622, 9914, 9860, 9434
7815, 1781, 1780, 174, 4895, 1784, 6182, 6180, 4945, 4943, 9915
7816, 208, 209, 189, 6878, 1481, 4294, 4298, 9916, 9917, 9592
7817, 176, 6127, 4160, 6126, 6187, 8633, 4165, 6183, 6188, 8635
7818, 2108, 2109, 6047, 238, 2115, 6074, 6069, 9208, 7466, 9360
7819, 4076, 4965, 160, 303, 9759, 9318, 4078, 9460, 4988, 9878
7820, 137, 1415, 1455, 6890, 9526, 9753, 9079, 9119, 9470, 9118
7821, 5788, 2050, 1439, 5800, 5839, 5632, 7197, 5842, 5809, 9918
7822, 867, 866, 586, 2304, 873, 2732, 2730, 9713, 8398, 2477
7823, 1753, 1976, 5783, 1754, 5521, 5815, 8952, 1760, 5520, 9050
7824, 6134, 345, 344, 5547, 9183, 2011, 6258, 9184, 5554, 5553
7825, 1642, 1638, 223, 6822, 4623, 1639, 4622, 9434, 9409, 9914
7826, 351, 350, 6424, 2018, 2021, 6586, 6585, 5566, 2020, 9760
7827, 1755, 1418, 1754, 6840, 9763, 9501, 1761, 9404, 8289, 9349
7828, 794, 3499, 3493, 3495, 9919, 3541, 9920, 9921, 3566, 3565
7829, 1825, 6130, 6106, 6882, 6290, 6289, 6288, 9772, 8735, 9771
7830, 5360, 4672, 1713, 1714, 8190, 4781, 5392, 5393, 4780, 1720
7831, 3680, 1170, 3687, 6858, 3835, 3833, 3836, 9012, 9922, 9011
7832, 1642, 252, 251, 6821, 1644, 1645, 4624, 8410, 9870, 9923
7833, 251, 1638, 1642, 6821, 1640, 4623, 4624, 9923, 8380, 8410
7834, 3289, 3279, 978, 895, 3319, 3318, 3312, 7665, 7250, 2915
7835, 849, 2293, 570, 850, 9006, 2441, 2713, 856, 8541, 2711
7836, 6786, 6132, 136, 1833, 9844, 9824, 6797, 9704, 6292, 9616
7837, 1952, 355, 5971, 335, 5572, 5976, 7923, 1959, 5573, 9924
7838, 344, 1834, 6134, 5547, 6257, 6259, 6258, 5553, 9104, 9184
7839, 279, 4854, 4538, 6816, 4857, 8209, 9925, 9670, 7736, 8020
7840, 3284, 1030, 3283, 797, 9926, 9511, 3342, 7253, 9928, 9927
7841, 3646, 119, 118, 1615, 3778, 1158, 3779, 8548, 1616, 4603
7842, 5609, 362, 357, 5871, 9220, 2105, 5639, 9106, 8847, 9811
7843, 3640, 3704, 3705, 6876, 3736, 3843, 3842, 9929, 9930, 9127
7844, 5609, 5591, 5877, 2074, 5756, 9774, 9105, 5751, 5754, 5924
7845, 106, 115, 3406, 2853, 1111, 8878, 9813, 2883, 9224, 9124
7846, 6421, 6818, 6463, 6853, 8705, 8543, 6636, 7448, 9931, 7447
7847, 2835, 1004, 3412, 2853, 2998, 3443, 9603, 3000, 2995, 8972
7848, 5603, 5608, 6044, 6836, 5720, 9061, 9513, 8838, 9062, 9035
7849, 4958, 4664, 276, 4959, 7452, 4752, 4969, 4972, 8191, 4970
7850, 6487, 6419, 6457, 6853, 6622, 6526, 6623, 9046, 9039, 9150
7851, 2734, 98, 61, 6477, 2736, 9619, 8472, 8473, 9544, 6551
7852, 1634, 222, 1638, 6822, 1635, 4619, 4620, 9334, 9904, 9409
7853, 222, 223, 1638, 6822, 1517, 1639, 4619, 9904, 9914, 9409
7854, 864, 2275, 584, 2299, 9172, 2464, 2726, 8367, 2472, 2471
7855, 6132, 1832, 136, 1833, 6293, 9537, 9824, 6292, 1836, 9616
7856, 250, 1634, 1638, 6821, 1636, 4620, 4621, 9906, 8294, 8380
7857, 1638, 251, 250, 6821, 1640, 1641, 4621, 8380, 9923, 9906
7858, 867, 586, 587, 2304, 2730, 593, 2731, 9713, 2477, 2344
7859, 646, 623, 110, 793, 2594, 9474, 8527, 8825, 2626, 9063
7860, 6472, 6497, 6437, 6828, 6713, 6705, 6712, 9833, 9932, 9897
7861, 3704, 6858, 3705, 6876, 9660, 9257, 3843, 9930, 9933, 9127
7862, 178, 177, 6110, 4166, 1368, 6190, 6189, 4167, 4171, 8128
7863, 6115, 6129, 6841, 6882, 6313, 8359, 8948, 9697, 8799, 9588
7864, 1602, 4538, 264, 242, 4579, 7009, 4853, 1604, 4580, 1690
7865, 1580, 1733, 5430, 1581, 4879, 5468, 9663, 1587, 4878, 9133
7866, 2838, 3195, 3202, 962, 7239, 3223, 7455, 2938, 3222, 3213
7867, 4214, 1580, 132, 1409, 9599, 9898, 4216, 4218, 9934, 1410
7868, 6808, 6814, 6811, 6874, 9935, 9738, 9936, 9937, 9939, 9938
7869, 2110, 5596, 2062, 6844, 9413, 5740, 6077, 9037, 7894, 9766
7870, 1989, 1801, 5868, 1800, 5534, 9028, 5902, 5535, 1807, 9761
7871, 345, 6819, 6807, 6854, 9329, 9330, 9295, 9297, 9167, 9299
7872, 6116, 130, 3658, 5068, 6141, 3812, 8941, 8858, 5070, 8942
7873, 109, 1114, 3367, 1115, 8619, 3389, 9940, 8457, 1121, 3394
7874, 6119, 6107, 6136, 6850, 6319, 6348, 6327, 9436, 8218, 8566
7875, 242, 4542, 4689, 4680, 4558, 7428, 4712, 4708, 8048, 4714
7876, 2850, 794, 110, 3493, 9877, 9440, 7065, 7064, 9920, 7066
7877, 6426, 6479, 6478, 6854, 6659, 6660, 6658, 8577, 9666, 8330
7878, 6811, 6875, 6874, 6900, 9789, 9579, 9938, 9741, 8513, 8776
7879, 524, 3700, 649, 1154, 3775, 9493, 9225, 3828, 3777, 6367
7880, 352, 6424, 2018, 6885, 6587, 9760, 5568, 9672, 8019, 8490
7881, 6455, 6862, 6843, 6885, 7031, 9647, 8669, 6931, 8049, 7853
7882, 4885, 4884, 269, 4659, 4900, 4897, 4898, 7633, 7712, 4731
7883, 596, 2270, 877, 552, 2420, 7036, 2742, 2378, 2421, 8024
7884, 6477, 645, 2126, 552, 9504, 6366, 6555, 6553, 9182, 6605
7885, 4136, 1781, 173, 4895, 8343, 6177, 4137, 9455, 4945, 9876
7886, 5363, 1704, 278, 1709, 9820, 4761, 5368, 5369, 4760, 1715
7887, 137, 6137, 6785, 1454, 9850, 9843, 6801, 9640, 6269, 9597
7888, 1755, 5789, 1977, 1754, 9762, 5818, 5523, 1761, 7344, 5522
7889, 5784, 1752, 1974, 5791, 7245, 5516, 5805, 5813, 7220, 5811
7890, 793, 645, 1070, 3155, 9287, 8895, 8494, 8133, 7989, 3182
7891, 1433, 5957, 2084, 5963, 9941, 5982, 5655, 7159, 6002, 6001
7892, 78, 772, 1059, 6898, 774, 9845, 9942, 9685, 9626, 7710
7893, 346, 347, 6807, 6813, 2013, 9943, 9557, 9800, 9910, 9328
7894, 186, 1208, 1185, 135, 9944, 4018, 4244, 4243, 4011, 1196
7895, 2264, 97, 64, 2276, 7015, 862, 2398, 2355, 7016, 2397
7896, 5957, 5606, 335, 1413, 9945, 8394, 9735, 9946, 9846, 9388
7897, 1335, 1194, 153, 6868, 9947, 4060, 1337, 9527, 7482, 9395
7898, 5021, 6821, 309, 6871, 7001, 7008, 5042, 7191, 7352, 9886
7899, 4196, 1417, 141, 6850, 9518, 9519, 4200, 8097, 9948, 9418
7900, 4136, 1345, 151, 1757, 4139, 1347, 4140, 8424, 9949, 9571
7901, 5018, 314, 5019, 6873, 5055, 5053, 5056, 9950, 9951, 9745
7902, 5590, 5602, 5878, 6836, 5749, 9215, 9699, 9700, 8316, 9112
7903, 155, 4112, 1325, 6841, 4116, 4115, 1327, 9952, 8182, 9399
7904, 346, 347, 6813, 6861, 2013, 9910, 9800, 9801, 8178, 9711
7905, 837, 2265, 3700, 3029, 9565, 8195, 9564, 9744, 7771, 7992
7906, 197, 4288, 4289, 6881, 4324, 4326, 4323, 9953, 9954, 9756
7907, 6814, 6874, 6848, 6891, 9939, 9828, 9955, 9956, 8749, 9137
7908, 3413, 1001, 2751, 3408, 3425, 7957, 8556, 3435, 3434, 7406
7909, 6137, 137, 1455, 1454, 9850, 9079, 6275, 6269, 9640, 1458
7910, 4214, 1592, 131, 1579, 9600, 6143, 4215, 9601, 4586, 9957
7911, 2086, 5966, 1434, 5961, 6007, 9791, 5660, 6003, 6008, 9793
7912, 95, 62, 2687, 2268, 834, 2690, 2689, 7779, 2380, 7780
7913, 3683, 6842, 6831, 6848, 6907, 8883, 8585, 8085, 9202, 9830
7914, 2109, 4544, 1582, 238, 7704, 4566, 7588, 7466, 4565, 1589
7915, 4888, 270, 4892, 4661, 4902, 4903, 4905, 7844, 4736, 7986
7916, 5868, 1800, 1801, 6836, 9761, 1807, 9028, 9394, 7086, 7936
7917, 1385, 143, 4184, 6850, 1387, 4188, 4187, 9958, 9854, 9307
7918, 116, 3415, 3404, 94, 3423, 3432, 3431, 8016, 6951, 6952
7919, 1803, 1804, 1420, 6882, 1810, 9064, 9065, 8734, 9832, 9959
7920, 1419, 4130, 1340, 1757, 9868, 4133, 9869, 9960, 8111, 9572
7921, 3717, 6874, 3678, 6875, 7174, 7706, 3998, 9304, 9579, 9303
7922, 1453, 6139, 6135, 6858, 6273, 6274, 6272, 9031, 8266, 9339
7923, 600, 2280, 2263, 881, 2496, 2495, 2494, 2750, 8826, 9071
7924, 6808, 6848, 6814, 6874, 9961, 9955, 9935, 9937, 9828, 9939
7925, 4962, 304, 305, 5023, 4995, 1815, 4996, 7807, 5025, 5024
7926, 3502, 794, 2850, 3493, 9962, 9877, 9636, 3516, 9920, 7064
7927, 3689, 3719, 6845, 6876, 3928, 7618, 7739, 9309, 9310, 9758
7928, 507, 515, 498, 516, 2250, 9963, 2244, 2253, 519, 9043
7929, 6044, 357, 362, 5608, 6050, 2105, 6051, 9061, 5636, 8848
7930, 6046, 2059, 2107, 6852, 6061, 6062, 6064, 8671, 8935, 7756
7931, 5283, 1930, 296, 6815, 5291, 1932, 5289, 8308, 8312, 9153
7932, 150, 1345, 4136, 1757, 1346, 4139, 4138, 8233, 9949, 8424
7933, 988, 3364, 2839, 2860, 3377, 7599, 2960, 2962, 7516, 2963
7934, 5595, 6045, 5616, 2058, 7639, 8067, 5719, 5716, 6057, 5718
7935, 2861, 2832, 2840, 6866, 3015, 2983, 3016, 7899, 8951, 9385
7936, 3681, 3695, 6835, 6892, 3856, 9238, 9416, 7915, 8119, 9964
7937, 1415, 1578, 6890, 6899, 9485, 8939, 9470, 9965, 9195, 8644
7938, 130, 3665, 6116, 3658, 3818, 7529, 6141, 3812, 3819, 8941
7939, 2841, 2833, 2862, 6860, 2970, 3020, 3019, 9132, 8819, 7870
7940, 1800, 304, 6124, 1812, 4998, 6251, 9101, 4999, 1814, 6252
7941, 497, 506, 516, 517, 2247, 2254, 9044, 9378, 2252, 520
7942, 506, 498, 516, 507, 2246, 9043, 2254, 510, 2244, 2253
7943, 2852, 115, 106, 3365, 8879, 1111, 2880, 8954, 3371, 3370
7944, 3714, 3659, 3694, 6876, 3931, 3932, 3840, 9651, 9652, 9311
7945, 800, 3196, 3203, 1061, 9776, 3254, 9900, 9966, 9629, 9907
7946, 766, 1060, 3113, 1059, 9967, 3146, 9426, 9968, 1066, 3147
7947, 2087, 5959, 2088, 5597, 6010, 6009, 2094, 5760, 7218, 5761
7948, 849, 570, 2293, 2272, 2713, 2441, 9006, 8045, 2442, 2408
7949, 1188, 1415, 137, 6890, 4253, 9526, 4022, 9969, 9470, 9119
7950, 505, 497, 517, 506, 2245, 9378, 2251, 509, 2247, 2252
7951, 497, 505, 517, 496, 2245, 2251, 9378, 500, 2242, 9397
7952, 506, 498, 497, 516, 2246, 501, 2247, 2254, 9043, 9044
7953, 1310, 1195, 158, 1420, 9970, 4071, 1312, 9971, 4247, 8243
7954, 1191, 1395, 140, 1417, 9972, 1396, 4031, 4258, 9520, 8242
7955, 837, 3700, 3031, 3029, 9564, 8905, 9684, 9744, 7992, 3050
7956, 4130, 1757, 1419, 6868, 8111, 9960, 9868, 8112, 8113, 9116
7957, 1180, 1216, 1172, 1179, 6793, 9973, 3839, 1182, 6805, 3838
7958, 1208, 2131, 2119, 2132, 6794, 6610, 9671, 6806, 2134, 6608
7959, 2264, 64, 97, 2285, 2398, 862, 7015, 2400, 2399, 7435
7960, 799, 1059, 77, 775, 9323, 9376, 9974, 9975, 8344, 777
7961, 4888, 291, 294, 4886, 4931, 1787, 9716, 4933, 4926, 9331
7962, 3659, 6845, 3719, 6876, 7425, 7618, 3923, 9652, 9758, 9310
7963, 3493, 3502, 794, 3495, 3516, 9962, 9920, 3565, 3523, 9921
7964, 45, 2289, 2259, 6898, 2336, 2338, 2334, 9627, 9240, 7960
7965, 1028, 109, 1114, 3280, 1034, 8619, 7604, 7380, 9976, 8167
7966, 3196, 1061, 760, 1060, 9629, 9977, 9978, 9507, 1067, 9979
7967, 562, 2300, 2279, 840, 2437, 2439, 2382, 2692, 7962, 7963
7968, 110, 1139, 3493, 1042, 3592, 3517, 7066, 1048, 3593, 9865
7969, 111, 1083, 3193, 1056, 3606, 3217, 9980, 1062, 3607, 7128
7970, 109, 1028, 1097, 3280, 1034, 3579, 3578, 9976, 7380, 3302
7971, 1832, 1944, 1839, 5023, 8601, 9523, 5063, 5026, 8766, 5027
7972, 2046, 5792, 2047, 5596, 5831, 5830, 2053, 5711, 7050, 5712
7973, 324, 309, 325, 6870, 5040, 5032, 1858, 9981, 9370, 9912
7974, 191, 6123, 1591, 1578, 6215, 6217, 1594, 4547, 8938, 4551
7975, 1417, 1437, 5617, 5614, 4284, 5674, 9678, 9816, 5678, 5679
7976, 1154, 1153, 649, 3715, 1156, 6405, 6367, 3829, 3830, 9143
7977, 1710, 1711, 5357, 4695, 1717, 5384, 5383, 4777, 4767, 7954
7978, 190, 207, 208, 6878, 4306, 1480, 4297, 9982, 9983, 9916
7979, 381, 1833, 365, 6887, 9984, 9985, 2146, 9734, 8728, 9812
7980, 111, 800, 1061, 3110, 9407, 9966, 1068, 3117, 9986, 3123
7981, 6453, 6832, 6486, 6862, 8795, 8779, 6663, 8279, 9593, 7115
7982, 5271, 298, 4959, 6815, 5277, 9987, 8714, 7557, 9614, 8192
7983, 1753, 5783, 2110, 6844, 8952, 9462, 8881, 9866, 9463, 9037
7984, 307, 328, 462, 6813, 1862, 8028, 8032, 9709, 9989, 9988
7985, 596, 2270, 597, 877, 2420, 2480, 603, 2742, 7036, 2741
7986, 373, 1833, 136, 1211, 9871, 9616, 6795, 6796, 9390, 1213
7987, 1212, 1454, 137, 371, 8234, 9640, 1215, 6800, 8235, 6799
7988, 2127, 2126, 645, 6494, 2129, 6366, 6395, 6618, 6606, 9583
7989, 4664, 4662, 4958, 276, 4756, 7108, 7452, 4752, 4754, 4969
7990, 3708, 3697, 3652, 6875, 3900, 3793, 3901, 9302, 9451, 9590
7991, 837, 836, 2265, 3029, 843, 7773, 9565, 9744, 7772, 7771
7992, 41, 42, 2291, 6864, 532, 2325, 2324, 9521, 8814, 8365
7993, 1208, 186, 134, 135, 9944, 9990, 1209, 4011, 4243, 1184
7994, 5589, 5618, 5597, 6852, 5776, 5775, 5726, 8670, 7754, 7541
7995, 1390, 142, 4190, 6850, 1392, 4194, 4193, 9417, 9991, 9419
7996, 238, 1729, 281, 5439, 4869, 1735, 4868, 9752, 5451, 5450
7997, 335, 2032, 355, 5968, 5574, 2038, 5573, 9736, 5979, 5978
7998, 6483, 6839, 6447, 6861, 7394, 7997, 6733, 9567, 9794, 9198
7999, 2297, 2255, 598, 879, 2488, 2487, 2481, 9168, 9130, 2745
8000, 406, 415, 1453, 6812, 2172, 9441, 9442, 9992, 9808, 9030
8001, 373, 365, 1833, 6887, 2139, 9985, 9871, 8717, 9812, 8728
8002, 417, 6807, 426, 6828, 9768, 9847, 2181, 9993, 9624, 9848
8003, 2267, 2295, 583, 863, 2467, 2466, 2395, 8768, 8767, 2723
8004, 200, 4454, 1534, 6877, 4456, 4459, 1536, 9994, 9996, 9995
8005, 218, 487, 496, 6811, 9997, 2235, 9998, 9999, 10000, 9740
8006, 1417, 5615, 5614, 6897, 8259, 5677, 9816, 10001, 8420, 9078
8007, 1767, 5305, 292, 4888, 5313, 5314, 1769, 4932, 9628, 4934
8008, 264, 241, 4855, 4538, 1722, 4860, 4859, 7009, 4578, 7379
8009, 574, 2303, 2274, 853, 2458, 2460, 2456, 2719, 9325, 9506
8010, 6445, 6839, 6827, 6853, 7387, 8551, 7856, 9048, 9631, 9831
8011, 5366, 4683, 5360, 1714, 8823, 9545, 5395, 5370, 4772, 5393
8012, 1781, 174, 173, 4895, 6180, 1348, 6177, 4945, 9915, 9876
8013, 6479, 6480, 6438, 6854, 6615, 6715, 6714, 9666, 7000, 8850
8014, 1944, 1704, 1839, 5023, 9483, 5268, 9523, 8766, 8320, 5027
8015, 571, 850, 2293, 2286, 2712, 8541, 2440, 2447, 8173, 2410
8016, 347, 339, 453, 6813, 2014, 10002, 10003, 9910, 9829, 10004
8017, 3363, 1116, 992, 6866, 3399, 3397, 3390, 7820, 7819, 9384
8018, 3696, 120, 1615, 6875, 3786, 4606, 8598, 7818, 10005, 8599
8019, 218, 217, 487, 6811, 1499, 10006, 9997, 9999, 10007, 10000
8020, 1113, 3366, 989, 6860, 3384, 3381, 3382, 7619, 7906, 8004
8021, 5619, 5613, 5598, 6899, 5700, 5781, 5698, 8435, 9649, 7959
8022, 3700, 3031, 3029, 1030, 8905, 3050, 7992, 7994, 3063, 3060
8023, 2110, 2062, 6042, 6844, 6077, 6070, 6078, 9037, 9766, 7594
8024, 4540, 4538, 4542, 6816, 4577, 4581, 4583, 8389, 8020, 8261
8025, 317, 1902, 5186, 6869, 1904, 5195, 5193, 10008, 10010, 10009
8026, 469, 213, 210, 6811, 10011, 1489, 10012, 10013, 10015, 10014
8027, 1416, 1405, 138, 1580, 8647, 1406, 8648, 10016, 10018, 10017
8028, 293, 268, 5320, 4885, 1937, 5321, 5324, 4935, 8260, 9550
8029, 6827, 6839, 6807, 6853, 8551, 9799, 9345, 9831, 9631, 10019
8030, 308, 307, 462, 6813, 1830, 8032, 10020, 9710, 9709, 9988
8031, 6134, 2121, 6480, 6133, 6303, 6616, 9721, 6300, 6302, 7898
8032, 1802, 1801, 362, 5874, 1808, 9049, 7565, 8578, 9029, 9502
8033, 6785, 6137, 1216, 1179, 9843, 9849, 6802, 6792, 10021, 6805
8034, 1417, 5614, 6826, 6897, 9816, 9449, 9677, 10001, 9078, 8993
8035, 408, 1834, 417, 6854, 8983, 8984, 2174, 10022, 9298, 9769
8036, 867, 47, 3113, 2304, 10023, 9427, 9712, 9713, 2340, 8399
8037, 5020, 5018, 5021, 6869, 5060, 5067, 5043, 10024, 10025, 7189
8038, 2841, 3492, 1017, 1018, 8417, 3533, 3004, 3005, 3532, 1024
8039, 5353, 1461, 4293, 1455, 8777, 4313, 7970, 7967, 4335, 4312
8040, 1799, 6124, 1412, 1208, 9425, 9420, 9694, 9857, 9858, 9826
8041, 478, 487, 216, 6811, 2228, 10026, 10027, 10028, 10000, 10029
8042, 6137, 1172, 1179, 1171, 6266, 3838, 10021, 6265, 1175, 3837
8043, 217, 216, 487, 6811, 1498, 10026, 10006, 10007, 10029, 10000
8044, 2295, 583, 863, 2275, 2466, 2723, 8767, 2468, 2465, 9275
8045, 4148, 1756, 149, 4142, 9837, 9908, 4152, 9838, 9159, 4144
8046, 37, 3700, 3031, 837, 3774, 8905, 8906, 9566, 9564, 9684
8047, 3498, 1016, 3505, 893, 3529, 3524, 3531, 10030, 2904, 10031
8048, 4288, 4290, 4291, 6877, 4330, 4309, 4337, 10032, 10033, 8790
8049, 6819, 6827, 6807, 6854, 8224, 9345, 9330, 9167, 9193, 9299
8050, 1172, 6123, 1216, 1180, 6270, 9692, 9973, 3839, 10034, 6793
8051, 298, 1927, 5283, 6815, 1929, 5292, 5290, 9614, 7555, 8308
8052, 6467, 6497, 6472, 6828, 6709, 6713, 6520, 10035, 9932, 9833
8053, 5608, 5609, 357, 5871, 5640, 5639, 5636, 8285, 9106, 9811
8054, 155, 1320, 4106, 6841, 1321, 4109, 4108, 9952, 9864, 8950
8055, 5021, 5020, 6869, 6871, 5043, 10024, 7189, 7191, 9885, 7193
8056, 93, 112, 1070, 6477, 9541, 1076, 10036, 6552, 9543, 9505
8057, 1060, 3109, 81, 763, 3149, 8917, 10037, 10038, 8679, 765
8058, 4542, 264, 242, 4689, 8516, 1690, 4558, 7428, 4713, 4712
8059, 5594, 2045, 2046, 5787, 5708, 2052, 5709, 7433, 5828, 5827
8060, 2861, 2858, 798, 896, 2923, 9495, 9364, 2918, 2922, 2769
8061, 2132, 6132, 1208, 6786, 10039, 9825, 6806, 6789, 9844, 6798
8062, 5271, 1822, 306, 4959, 5280, 1823, 5281, 8714, 4978, 5005
8063, 6422, 6471, 361, 6819, 6602, 6600, 6580, 7507, 7177, 9817
8064, 2132, 2119, 6132, 2120, 6608, 6301, 10039, 6609, 2123, 6297
8065, 796, 6901, 6889, 6902, 9586, 7322, 8335, 8567, 9177, 7464
8066, 4291, 6877, 4290, 6879, 8790, 10033, 4309, 8792, 8793, 9890
8067, 15, 17, 6812, 6845, 441, 10040, 9490, 9757, 10041, 8853
8068, 5618, 5612, 1435, 1415, 5670, 5669, 5658, 9469, 9675, 4279
8069, 6138, 6479, 348, 6436, 7942, 6577, 6255, 10042, 6579, 6576
8070, 106, 3406, 2852, 2853, 9813, 8355, 2880, 2883, 9124, 2884
8071, 1419, 1757, 4894, 6868, 9960, 4924, 10043, 9116, 8113, 8114
8072, 5598, 5613, 5612, 6899, 5781, 5668, 5778, 7959, 9649, 9398
8073, 44, 45, 2259, 6898, 535, 2334, 2333, 8979, 9627, 7960
8074, 213, 6811, 216, 6875, 10015, 10029, 1497, 8148, 9789, 8150
8075, 5596, 5617, 5588, 6844, 5772, 5771, 5739, 7894, 8425, 7595
8076, 3204, 3192, 965, 897, 3234, 3233, 3227, 10044, 10045, 2926
8077, 1776, 4885, 293, 5319, 4908, 4935, 1777, 5328, 9676, 5329
8078, 40, 41, 2281, 6864, 531, 2322, 2321, 9024, 9521, 9204
8079, 4966, 302, 163, 4076, 4990, 6148, 8830, 9459, 9458, 4081
8080, 4142, 174, 4148, 4895, 4143, 4153, 9838, 8957, 9915, 9839
8081, 1415, 6890, 5612, 6899, 9470, 9094, 9675, 9965, 8644, 9398
8082, 3644, 128, 3693, 6817, 3810, 3806, 3811, 7549, 9822, 7551
8083, 3497, 3498, 3491, 795, 3556, 3555, 3547, 8987, 8988, 9855
8084, 306, 275, 5272, 4959, 1926, 5273, 5276, 5005, 8146, 8263
8085, 6106, 6130, 6115, 6882, 6289, 6354, 6161, 9771, 8735, 9697
8086, 3714, 3640, 3705, 6876, 3841, 3842, 3844, 9651, 9929, 9127
8087, 211, 188, 460, 6808, 1484, 8079, 8080, 10046, 10048, 10047
8088, 1839, 1704, 1944, 5363, 5268, 9483, 9523, 9352, 9820, 5372
8089, 6495, 351, 6439, 6363, 6589, 6590, 6550, 8558, 6392, 7839
8090, 359, 2089, 5971, 5587, 2096, 5983, 5977, 5644, 5643, 9356
8091, 325, 309, 308, 6870, 5032, 1831, 5031, 9912, 9370, 9264
8092, 46, 2289, 45, 6898, 2337, 2336, 536, 8829, 9240, 9627
8093, 4130, 171, 172, 6105, 4135, 1338, 4131, 8383, 6175, 6174
8094, 6808, 6811, 6831, 6874, 9936, 10049, 10050, 9937, 9938, 10051
8095, 190, 208, 189, 6878, 4297, 4298, 1452, 9982, 9916, 9592
8096, 6808, 6811, 211, 6831, 9936, 10052, 10046, 10050, 10049, 7897
8097, 1941, 5342, 282, 6816, 5351, 5349, 1943, 8505, 8502, 9371
8098, 5342, 1723, 279, 6816, 5350, 1725, 5348, 8502, 7735, 9670
8099, 781, 798, 6855, 6864, 9783, 9686, 10053, 9701, 9853, 8614
8100, 6459, 6428, 6483, 6861, 6671, 6668, 6670, 9199, 9315, 9567
8101, 1300, 186, 160, 1804, 7693, 8470, 1302, 7692, 7689, 9723
8102, 1192, 1370, 145, 6840, 10054, 1371, 4042, 8288, 10055, 9617
8103, 1075, 116, 3404, 112, 3618, 3431, 9836, 1082, 3619, 10056
8104, 471, 327, 334, 6809, 10057, 1871, 10058, 10059, 10061, 10060
8105, 5429, 5604, 5440, 336, 7567, 7566, 5457, 5446, 5626, 5455
8106, 212, 243, 6808, 6831, 1606, 10062, 10063, 9095, 9618, 10050
8107, 350, 352, 6424, 2018, 2026, 6587, 6586, 2020, 5568, 9760
8108, 3156, 1070, 112, 6477, 3163, 1076, 3159, 9009, 9505, 9543
8109, 6808, 6831, 6848, 6874, 10050, 9830, 9961, 9937, 10051, 9828
8110, 2838, 3195, 962, 963, 7239, 3222, 2938, 2939, 3221, 969
8111, 487, 496, 6811, 6814, 2235, 9740, 10000, 10064, 9739, 9738
8112, 332, 480, 333, 6809, 9391, 10065, 1869, 10066, 10068, 10067
8113, 5353, 1566, 1461, 1711, 9517, 4532, 8777, 5386, 4766, 8902
8114, 120, 119, 3646, 1615, 1159, 3778, 3784, 4606, 1616, 8548
8115, 289, 1974, 337, 5784, 5515, 1980, 5514, 7244, 5805, 5802
8116, 5966, 2087, 2086, 5593, 6006, 2093, 6007, 7613, 5759, 5662
8117, 837, 836, 559, 2265, 843, 2697, 2700, 9565, 7773, 2316
8118, 5612, 5613, 1435, 6899, 5668, 5667, 5669, 9398, 9649, 10069
8119, 4100, 6841, 156, 6882, 8949, 9683, 4102, 9875, 9588, 9882
8120, 280, 239, 1582, 4544, 1728, 4572, 9764, 9689, 4571, 4566
8121, 4965, 162, 302, 4076, 9894, 6147, 4987, 9759, 4077, 9458
8122, 559, 836, 558, 2265, 2697, 2695, 565, 2316, 7773, 2429
8123, 162, 164, 4082, 1826, 1298, 4083, 4087, 6149, 6150, 9235
8124, 188, 189, 460, 6808, 1451, 8886, 8079, 10048, 10070, 10047
8125, 362, 6041, 5609, 357, 6048, 9221, 9220, 2105, 6049, 5639
8126, 115, 106, 3361, 2853, 1111, 3369, 3368, 9224, 2883, 9032
8127, 2086, 5966, 5593, 1434, 6007, 7613, 5662, 5660, 9791, 5661
8128, 5018, 5021, 6869, 6873, 5067, 7189, 10025, 9950, 10072, 10071
8129, 2297, 575, 854, 2278, 2461, 2709, 8744, 2463, 2391, 8746
8130, 332, 489, 480, 6809, 9392, 2230, 9391, 10066, 10073, 10068
8131, 2048, 5786, 5592, 2047, 5833, 7601, 5683, 2054, 5834, 5714
8132, 6124, 1832, 1412, 6132, 6253, 8808, 9420, 6294, 6293, 9827
8133, 2300, 585, 865, 2294, 2475, 2728, 8142, 2476, 2474, 8896
8134, 6481, 12, 6418, 6828, 6510, 6512, 6514, 7412, 10074, 8503
8135, 3686, 6835, 3695, 6848, 8663, 9238, 3859, 8834, 10075, 8836
8136, 6135, 6139, 6116, 6858, 6274, 6223, 6264, 9339, 8266, 9547
8137, 4854, 4538, 4855, 241, 8209, 7379, 4862, 4861, 4578, 4860
8138, 4288, 6877, 4291, 6881, 10032, 8790, 4337, 9954, 10077, 10076
8139, 1832, 136, 1412, 6132, 9537, 9448, 8808, 6293, 9824, 9827
8140, 268, 4885, 269, 4659, 8260, 4898, 1695, 4730, 7633, 4731
8141, 5602, 2071, 5873, 4265, 5649, 5915, 8584, 7956, 7955, 7518
8142, 331, 332, 6356, 1875, 1868, 9393, 8221, 5083, 5084, 6384
8143, 1709, 5355, 4675, 1710, 5380, 7535, 4773, 1716, 5381, 4776
8144, 2852, 2847, 2834, 6837, 2964, 3023, 2996, 8955, 8509, 9715
8145, 3150, 89, 736, 801, 7222, 737, 8701, 9535, 10079, 10078
8146, 1966, 336, 5605, 5444, 1973, 5629, 5628, 5456, 5449, 8889
8147, 5599, 5615, 5620, 6897, 5782, 5704, 5707, 7982, 8420, 9207
8148, 3668, 6842, 6848, 6892, 7793, 9202, 9279, 7832, 8961, 9840
8149, 850, 2293, 570, 571, 8541, 2441, 2711, 2712, 2440, 577
8150, 118, 6364, 3716, 3661, 6369, 8918, 3780, 3783, 7949, 3771
8151, 68, 3030, 614, 1031, 9664, 8275, 616, 10080, 3065, 8456
8152, 175, 4154, 1780, 6126, 4159, 9354, 6181, 6184, 8841, 6185
8153, 897, 2861, 2836, 799, 2917, 2929, 2928, 2772, 8861, 9164
8154, 649, 3715, 524, 1154, 9143, 3825, 9225, 6367, 3829, 3828
8155, 6484, 6828, 6437, 6854, 8504, 9897, 6710, 8268, 7413, 8851
8156, 6438, 6478, 6479, 6854, 6703, 6660, 6714, 8850, 8330, 9666
8157, 2072, 5590, 5878, 2073, 5747, 9699, 5918, 2079, 5748, 5917
8158, 1385, 4184, 142, 6850, 4187, 4186, 1386, 9958, 9307, 9991
8159, 839, 561, 2266, 2281, 2702, 2434, 9285, 9602, 2436, 2435
8160, 212, 451, 189, 6808, 10081, 8885, 1487, 10063, 10082, 10070
8161, 5788, 1439, 1419, 5800, 7197, 4285, 8154, 5842, 9918, 8155
8162, 1961, 1962, 5619, 5433, 1968, 5695, 5694, 5475, 5474, 7904
8163, 327, 6809, 6813, 6832, 10061, 10083, 10084, 8610, 9580, 10085
8164, 5603, 5590, 5608, 6836, 5779, 5752, 5720, 8838, 9700, 9062
8165, 3699, 6891, 6874, 6900, 9804, 8749, 7791, 9725, 9661, 8776
8166, 6494, 2126, 645, 552, 6606, 6366, 9583, 6604, 6605, 9182
8167, 793, 891, 2851, 2847, 2759, 2891, 8978, 9267, 2894, 2896
8168, 1432, 5603, 5607, 1412, 5650, 5652, 5647, 4273, 9546, 8555
8169, 1033, 109, 114, 3288, 1040, 3577, 3576, 7157, 9634, 3304
8170, 6116, 6139, 246, 245, 6223, 6222, 6140, 9471, 7977, 1609
8171, 6825, 6845, 3659, 6876, 8852, 7425, 7674, 9805, 9758, 9652
8172, 6458, 6491, 2121, 6133, 6614, 6613, 6611, 9201, 7006, 6302
8173, 1061, 113, 3203, 111, 3604, 3219, 9907, 1068, 3605, 9863
8174, 117, 1047, 110, 3503, 3590, 1054, 3591, 3519, 7165, 7506
8175, 193, 4292, 1453, 6824, 4314, 4318, 4316, 10086, 8575, 7888
8176, 979, 2864, 3285, 980, 2954, 7281, 3321, 986, 2955, 3320
8177, 1713, 5362, 1712, 4678, 5390, 5389, 1719, 4779, 7356, 4768
8178, 964, 2840, 963, 3205, 2942, 2941, 970, 3224, 8611, 3225
8179, 310, 1834, 5022, 6823, 5046, 5048, 5045, 9075, 7227, 8597
8180, 451, 460, 189, 6808, 2208, 8886, 8885, 10082, 10047, 10070
8181, 835, 557, 2277, 2296, 2696, 2425, 9270, 8803, 2426, 2428
8182, 111, 631, 85, 748, 9430, 2578, 7656, 8517, 9432, 749
8183, 3277, 975, 2863, 976, 3307, 2946, 7537, 3306, 982, 2947
8184, 6137, 6123, 1455, 1415, 6271, 6216, 6275, 9851, 9484, 9753
8185, 868, 50, 3109, 867, 9795, 8716, 9099, 874, 10087, 8680
8186, 195, 4509, 1554, 6824, 4511, 4514, 1556, 10088, 10090, 10089
8187, 1418, 1755, 1370, 6840, 9763, 8784, 10091, 8289, 9404, 10055
8188, 6362, 188, 211, 214, 8083, 1484, 8082, 6372, 9893, 10092
8189, 6137, 1172, 1216, 1179, 6266, 9973, 9849, 10021, 3838, 6805
8190, 3414, 1003, 1002, 2834, 3436, 1009, 3437, 9714, 2992, 2991
8191, 3662, 3702, 3699, 6900, 3772, 3942, 3941, 8454, 9158, 9725
8192, 312, 1917, 5241, 6823, 1919, 5250, 5248, 10093, 10095, 10094
8193, 4538, 4540, 279, 6816, 4577, 9669, 9925, 8020, 8389, 9670
8194, 1455, 137, 6137, 1415, 9079, 9850, 6275, 9753, 9526, 9851
8195, 6493, 6428, 6459, 6861, 6565, 6671, 6672, 9861, 9315, 9199
8196, 88, 801, 739, 6857, 9785, 10096, 740, 8900, 9001, 10097
8197, 5294, 296, 1930, 6838, 5301, 1932, 5303, 9324, 9155, 9004
8198, 3109, 760, 1061, 1060, 8715, 9977, 3148, 3149, 9979, 1067
8199, 517, 496, 6814, 6900, 9397, 9739, 10098, 8703, 9742, 9743
8200, 4100, 1315, 157, 6882, 4103, 1317, 4104, 9875, 9881, 10099
8201, 3031, 66, 1031, 1030, 8907, 10100, 3062, 3063, 10101, 1037
8202, 1340, 1419, 152, 6868, 9869, 10102, 1342, 8650, 9116, 8649
8203, 3408, 1001, 2751, 2846, 3434, 7957, 7406, 8485, 2893, 7958
8204, 5606, 5607, 1413, 1433, 5657, 9387, 9846, 5656, 5646, 4275
8205, 794, 2851, 892, 2850, 9439, 2890, 2760, 9877, 2901, 2900
8206, 2279, 585, 865, 2300, 2469, 2728, 8262, 2439, 2475, 8142
8207, 6808, 6812, 6835, 6892, 9188, 10103, 10104, 8960, 10105, 9964
8208, 6449, 6861, 6839, 6862, 9200, 9794, 9554, 7113, 9512, 8264
8209, 5432, 5620, 1966, 1965, 8291, 5703, 5486, 5487, 5702, 1972
8210, 2299, 584, 864, 2279, 2471, 2726, 8367, 2387, 2470, 8631
8211, 1417, 6826, 1581, 6897, 9677, 8600, 10106, 10001, 8993, 8813
8212, 5618, 5593, 1414, 1434, 5663, 9123, 9121, 5659, 5661, 4276
8213, 5601, 1420, 1440, 5611, 9859, 4270, 5692, 5693, 9223, 5686
8214, 287, 1754, 285, 6109, 4911, 7945, 1750, 6230, 9212, 6231
8215, 4541, 192, 191, 4293, 4545, 1460, 4546, 7283, 4311, 4310
8216, 1412, 5602, 1432, 6836, 8908, 5648, 4273, 8215, 8316, 9901
8217, 3, 2132, 6786, 6458, 2135, 6789, 6788, 6503, 6502, 9702
8218, 302, 1826, 162, 4965, 1829, 6149, 6147, 4987, 4992, 9894
8219, 5592, 1418, 1438, 5617, 9135, 4282, 5684, 5685, 9136, 5673
8220, 1461, 1566, 5353, 4293, 4532, 9517, 8777, 4313, 8319, 7970
8221, 3031, 67, 1031, 610, 9211, 9555, 3062, 9015, 612, 10107
8222, 2301, 59, 2302, 882, 2369, 2371, 2373, 9476, 9477, 9641
8223, 1083, 111, 3193, 113, 3606, 9980, 3217, 1089, 3605, 3210
8224, 1139, 110, 3493, 117, 3592, 7066, 3517, 1145, 3591, 3510
8225, 114, 109, 1097, 3280, 3577, 3578, 1103, 3295, 9976, 3302
8226, 2294, 586, 866, 2289, 2473, 2732, 9719, 2479, 2478, 9239
8227, 1, 3680, 5, 6858, 3721, 3723, 387, 9236, 9012, 8563
8228, 1801, 4967, 1802, 362, 5008, 5007, 1808, 9049, 7420, 7565
8229, 277, 4958, 4662, 276, 4968, 7108, 4755, 1703, 4969, 4754
8230, 1059, 3113, 79, 769, 3147, 9503, 10108, 10109, 9646, 771
8231, 328, 6365, 248, 307, 8030, 6382, 10110, 1862, 8031, 9911
8232, 1070, 69, 93, 6477, 10111, 726, 10036, 9505, 6554, 6552
8233, 3504, 1016, 2837, 1017, 3528, 2906, 8646, 3527, 1023, 3003
8234, 4958, 4683, 277, 4662, 9243, 4757, 4968, 7108, 4759, 4755
8235, 4, 6785, 1179, 3682, 6790, 6792, 1181, 3724, 9337, 3725
8236, 1413, 335, 5957, 5968, 9388, 9735, 9946, 10112, 9736, 5981
8237, 4884, 269, 4659, 4693, 4897, 4731, 7712, 8421, 4733, 4735
8238, 1005, 3407, 1006, 2844, 3446, 3445, 1012, 3001, 8495, 2933
8239, 790, 3030, 68, 1031, 9658, 9664, 791, 9819, 3065, 10080
8240, 2274, 575, 854, 2297, 2455, 2709, 9084, 2462, 2461, 8744
8241, 3640, 3714, 3694, 6876, 3841, 3840, 3739, 9929, 9651, 9311
8242, 1061, 83, 757, 3110, 10113, 759, 9809, 3123, 9674, 8997
8243, 5615, 5599, 5614, 6897, 5782, 5773, 5677, 8420, 7982, 9078
8244, 5020, 316, 5018, 6869, 5059, 5057, 5060, 10024, 10114, 10025
8245, 1208, 2119, 6132, 2132, 9671, 6301, 9825, 6806, 6608, 10039
8246, 4118, 169, 170, 6095, 4123, 1328, 4119, 8180, 6169, 6168
8247, 6479, 6436, 6138, 6854, 6579, 10042, 7942, 9666, 9166, 9667
8248, 199, 4290, 4288, 6877, 4328, 4330, 4327, 10115, 10033, 10032
8249, 2132, 6786, 6458, 2120, 6789, 9702, 6502, 6609, 9703, 6612
8250, 1042, 794, 3499, 3493, 8582, 9919, 9389, 9865, 9920, 3541
8251, 2072, 5602, 2071, 5873, 5746, 5649, 2078, 5914, 8584, 5915
8252, 4589, 246, 6139, 245, 4600, 6222, 9045, 4597, 1609, 7977
8253, 1016, 3498, 2837, 893, 3529, 8986, 2906, 2904, 10030, 2905
8254, 3502, 892, 794, 3495, 9648, 2760, 9962, 3523, 7255, 9921
8255, 6813, 6818, 6807, 6839, 10116, 10117, 9328, 9093, 10118, 9799
8256, 277, 4962, 4683, 4958, 4974, 8822, 4757, 4968, 4975, 9243
8257, 3203, 800, 111, 3194, 9900, 9407, 9863, 3220, 9777, 9862
8258, 3677, 6831, 3649, 6875, 9146, 9147, 3881, 9453, 10119, 9452
8259, 1566, 5353, 1712, 1711, 9517, 5387, 4765, 4766, 5386, 1718
8260, 6427, 342, 6469, 6832, 6570, 6566, 6571, 8781, 8609, 8780
8261, 891, 793, 2846, 2847, 2759, 9203, 2892, 2894, 9267, 2895
8262, 3641, 3681, 19, 6892, 3748, 3747, 3743, 7914, 7915, 10120
8263, 1799, 186, 5879, 303, 10121, 8884, 9499, 1805, 10122, 9498
8264, 317, 316, 5020, 6869, 1850, 5059, 5058, 10008, 10114, 10024
8265, 5872, 5600, 2076, 2075, 8352, 5689, 5926, 5927, 5757, 2082
8266, 6462, 26, 6420, 6818, 6531, 6533, 6535, 8050, 10123, 8052
8267, 6832, 6861, 6469, 6862, 10124, 9406, 8780, 9593, 9512, 7114
8268, 1019, 3500, 2839, 1018, 3535, 7260, 3008, 1025, 3536, 3007
8269, 173, 172, 1781, 4136, 1343, 6178, 6177, 4137, 4141, 8343
8270, 345, 344, 5559, 6138, 2011, 5561, 5560, 10125, 6256, 9450
8271, 647, 3073, 1042, 1043, 8539, 3100, 7733, 8773, 3099, 1049
8272, 1219, 138, 1409, 1190, 1221, 1411, 4242, 4010, 4026, 10126
8273, 1292, 135, 160, 1288, 10127, 4017, 1293, 4075, 4013, 1289
8274, 1243, 146, 1370, 1192, 1245, 1372, 4234, 4043, 4044, 10054
8275, 1279, 1195, 158, 1310, 4070, 4071, 1281, 4222, 9970, 1312
8276, 1390, 1231, 142, 1191, 4238, 1233, 1392, 10128, 4034, 4035
8277, 152, 1194, 1264, 1335, 4058, 4059, 1265, 1336, 9947, 4227
8278, 154, 1330, 1267, 1194, 1332, 4226, 1269, 4062, 7481, 4061
8279, 1228, 1395, 140, 1191, 4239, 1396, 1229, 4032, 9972, 4031
8280, 1315, 1195, 156, 1276, 10129, 4067, 1316, 4223, 4068, 1277
8281, 144, 1240, 1375, 1192, 1241, 4235, 1376, 4040, 4041, 9227
8282, 1255, 150, 1350, 1193, 1257, 1352, 4230, 4052, 4053, 9444
8283, 148, 1252, 1355, 1193, 1253, 4231, 1356, 4049, 4050, 10130
8284, 478, 6811, 469, 6814, 10028, 10013, 2221, 10131, 9738, 10132
8285, 1412, 1432, 5603, 6836, 4273, 5650, 9546, 8215, 9901, 8838
8286, 899, 801, 2855, 2845, 2756, 8999, 2930, 2936, 9577, 2937
8287, 200, 4290, 199, 6877, 4329, 4328, 1472, 9994, 10033, 10115
8288, 1061, 82, 3196, 760, 10133, 10134, 9629, 9977, 762, 9978
8289, 6430, 354, 6475, 6832, 6596, 6572, 6598, 8857, 8534, 8856
8290, 289, 1419, 4894, 6868, 8371, 10043, 4920, 7752, 9116, 8114
8291, 3031, 3700, 66, 1030, 8905, 3773, 8907, 3063, 7994, 10101
8292, 313, 5230, 312, 6873, 5237, 5236, 1846, 9747, 10135, 9746
8293, 1418, 146, 1370, 1755, 10136, 1372, 10091, 9763, 8783, 8784
8294, 1001, 3408, 1002, 2846, 3434, 3433, 1008, 2893, 8485, 2990
8295, 5964, 2089, 2088, 5595, 6012, 2095, 6013, 7348, 5764, 5763
8296, 1949, 1414, 5956, 1948, 8911, 9464, 9480, 1955, 8709, 8211
8297, 1061, 754, 83, 3110, 10137, 755, 10113, 3123, 9688, 9674
8298, 964, 3204, 965, 2836, 3228, 3227, 971, 2944, 9269, 2927
8299, 195, 4498, 196, 6881, 4501, 4500, 1468, 9755, 10138, 9754
8300, 462, 453, 6813, 6818, 2209, 10004, 9988, 10139, 10140, 10116
8301, 5600, 1420, 1440, 5601, 9386, 4270, 5690, 5691, 9859, 5692
8302, 965, 3192, 966, 897, 3233, 3232, 972, 2926, 10045, 2924
8303, 1419, 1439, 5611, 5586, 4285, 5687, 8373, 9707, 5633, 5688
8304, 800, 898, 2855, 2830, 2770, 2931, 9313, 9884, 2872, 2932
8305, 3201, 1059, 1060, 799, 9375, 1066, 9486, 10141, 9323, 10142
8306, 4148, 1756, 148, 1355, 9837, 9892, 4150, 4151, 10143, 1356
8307, 487, 6811, 478, 6814, 10000, 10028, 2228, 10064, 9738, 10131
8308, 4100, 166, 167, 6115, 4105, 1313, 4101, 8947, 6160, 6159
8309, 3680, 3664, 7, 6858, 3730, 3729, 3727, 9012, 9010, 8562
8310, 71, 66, 3700, 1030, 656, 3773, 3776, 10144, 10101, 7994
8311, 795, 3491, 1044, 1043, 9855, 9516, 9902, 8772, 9414, 1050
8312, 1016, 1015, 3505, 893, 1022, 3525, 3524, 2904, 2897, 10031
8313, 149, 1756, 4148, 1355, 9908, 9837, 4152, 1357, 10143, 4151
8314, 332, 2018, 331, 6809, 10145, 5567, 1868, 10066, 8092, 9308
8315, 282, 5331, 1941, 6833, 5337, 5339, 1943, 9372, 9429, 9258
8316, 838, 37, 38, 3031, 10146, 528, 9668, 8273, 8906, 9083
8317, 3641, 19, 6845, 6892, 3743, 10147, 7737, 7914, 10120, 9400
8318, 1335, 152, 1419, 6868, 1336, 10102, 10148, 9527, 8649, 9116
8319, 1061, 757, 82, 3109, 9809, 758, 10133, 3148, 8994, 8927
8320, 145, 1375, 1192, 6840, 1377, 9227, 4042, 9617, 9228, 8288
8321, 1335, 1419, 1194, 6868, 10148, 4263, 9947, 9527, 9116, 7482
8322, 6463, 6853, 6818, 6862, 7447, 9931, 8543, 7104, 9113, 9835
8323, 4538, 279, 240, 4854, 9925, 1726, 4575, 8209, 4857, 4856
8324, 6123, 6137, 1172, 1216, 6271, 6266, 6270, 9692, 9849, 9973
8325, 1187, 1948, 1414, 1212, 8708, 8709, 4251, 4074, 7874, 10149
8326, 197, 4487, 1546, 6881, 4489, 4492, 1548, 9953, 10151, 10150
8327, 4190, 181, 182, 6094, 4195, 1388, 4191, 9515, 6202, 6201
8328, 180, 181, 4184, 6119, 1383, 4185, 4189, 6199, 6198, 9435
8329, 6091, 168, 167, 4106, 6162, 1318, 6163, 9059, 4107, 4111
8330, 296, 6815, 1930, 6838, 9153, 8312, 1932, 9155, 8069, 9004
8331, 835, 910, 3033, 3032, 2777, 3038, 8804, 9178, 3042, 3044
8332, 797, 3292, 3282, 3276, 10152, 3341, 10153, 10154, 3340, 3335
8333, 112, 69, 93, 1070, 10155, 726, 9541, 1076, 10111, 10036
8334, 308, 248, 326, 6870, 9657, 10156, 5029, 9264, 9110, 9913
8335, 189, 209, 214, 6878, 4294, 10157, 9591, 9592, 9917, 9108
8336, 170, 171, 4124, 6128, 1333, 4125, 4129, 6172, 6171, 8486
8337, 3691, 3713, 125, 6831, 3802, 3801, 3797, 8586, 8587, 7896
8338, 2836, 3204, 965, 897, 9269, 3227, 2927, 2928, 10044, 2926
8339, 4178, 179, 180, 6093, 4183, 1378, 4179, 7740, 6196, 6195
8340, 923, 849, 3073, 3074, 2791, 8044, 3083, 3079, 7716, 3085
8341, 5968, 5957, 1413, 5958, 5981, 9946, 10112, 6023, 6021, 10158
8342, 6826, 6840, 1417, 6850, 9271, 8290, 9677, 9346, 8737, 9948
8343, 3151, 954, 882, 3150, 3162, 2820, 9478, 3180, 3178, 9569
8344, 303, 4076, 161, 1292, 9460, 4080, 10159, 9879, 4079, 1294
8345, 877, 3156, 3155, 949, 7035, 3167, 7034, 2819, 3161, 3165
8346, 6809, 6818, 6813, 6862, 10160, 10116, 10083, 10161, 9835, 10162
8347, 801, 899, 2844, 2845, 2756, 2934, 9457, 9577, 2936, 2935
8348, 3113, 48, 47, 867, 9428, 538, 9427, 9712, 9466, 10023
8349, 6835, 6848, 3686, 6891, 10075, 8834, 8663, 9722, 9137, 7933
8350, 5601, 5591, 5600, 6829, 5780, 5758, 5691, 8489, 9775, 8041
8351, 314, 1911, 5219, 6873, 1913, 5228, 5226, 9951, 10164, 10163
8352, 801, 88, 742, 6857, 9785, 744, 9784, 9001, 8900, 8899
8353, 138, 1580, 4214, 1409, 10017, 9599, 4219, 1411, 9934, 4218
8354, 3491, 1044, 3497, 795, 9516, 8560, 3547, 9855, 9902, 8987
8355, 312, 5230, 1917, 6823, 5236, 5238, 1919, 10093, 10165, 10095
8356, 838, 837, 37, 3031, 844, 9566, 10146, 8273, 9684, 8906
8357, 4172, 178, 179, 6131, 4177, 1373, 4173, 8685, 6193, 6192
8358, 928, 3072, 3068, 854, 3080, 3098, 3096, 2792, 8745, 9085
8359, 1454, 6785, 137, 371, 9597, 6801, 9640, 8235, 6791, 6799
8360, 136, 6786, 1833, 373, 6797, 9704, 9616, 6795, 6787, 9871
8361, 1554, 4498, 195, 6824, 4502, 4501, 1556, 10089, 10166, 10088
8362, 294, 5305, 4888, 6838, 5312, 9628, 9716, 9332, 9368, 7847
8363, 941, 3110, 3109, 868, 3121, 3139, 3137, 2806, 9098, 9099
8364, 212, 6808, 189, 6831, 10063, 10070, 1487, 9095, 10050, 8820
8365, 1060, 3113, 80, 766, 3146, 9482, 10167, 9967, 9426, 768
8366, 1803, 1420, 6820, 6882, 9065, 8361, 7846, 8734, 9959, 9226
8367, 1216, 1578, 6123, 1415, 9690, 8938, 9692, 9852, 9485, 9484
8368, 778, 75, 798, 6855, 779, 10168, 9732, 9895, 10169, 9686
8369, 863, 936, 3115, 3114, 2805, 3120, 8769, 9274, 3124, 3126
8370, 868, 587, 588, 50, 2733, 594, 2724, 9795, 2346, 2348
8371, 868, 587, 50, 867, 2733, 2346, 9795, 874, 2731, 10087
8372, 561, 839, 2292, 2281, 2702, 9696, 2432, 2436, 9602, 2323
8373, 5961, 1434, 2086, 2085, 9793, 5660, 6003, 6004, 5653, 2092
8374, 1438, 2049, 5793, 2048, 5680, 5836, 10170, 5682, 2055, 5837
8375, 1581, 6826, 1417, 6850, 8600, 9677, 10106, 8519, 9346, 9948
8376, 298, 300, 5271, 4959, 1796, 5278, 5277, 9987, 4979, 8714
8377, 241, 4854, 4538, 1599, 4861, 8209, 4578, 1601, 4858, 4576
8378, 2834, 2847, 2846, 6837, 3023, 2895, 2993, 9715, 8509, 9538
8379, 2835, 2844, 2845, 6830, 3002, 2935, 3024, 9604, 7629, 8217
8380, 6785, 1179, 3682, 1171, 6792, 3725, 9337, 9595, 3837, 3831
8381, 3113, 79, 766, 1059, 9503, 767, 9426, 3147, 10108, 9968
8382, 915, 840, 3028, 3027, 2778, 7964, 3039, 3055, 8683, 3057
8383, 242, 4538, 264, 4542, 4580, 7009, 1690, 4558, 4581, 8516
8384, 6138, 345, 6134, 6854, 10125, 9183, 6260, 9667, 9297, 9578
8385, 6121, 169, 168, 4112, 6165, 1323, 6166, 8187, 4113, 4117
8386, 177, 176, 6127, 4160, 1363, 6187, 6186, 4161, 4165, 8633
8387, 313, 5219, 1914, 6873, 5225, 5227, 1916, 9747, 10163, 10171
8388, 6116, 1170, 6135, 6858, 6142, 6262, 6264, 9547, 9922, 9339
8389, 29, 6891, 3684, 6900, 10172, 8305, 3758, 10173, 9661, 9157
8390, 2119, 6132, 6124, 1208, 6301, 6294, 6286, 9671, 9825, 9858
8391, 1917, 1914, 5231, 6873, 5240, 5234, 5235, 10174, 10171, 10175
8392, 1908, 5209, 1911, 6873, 5212, 5213, 5218, 10176, 10177, 10164
8393, 797, 3283, 3284, 3276, 9927, 3342, 7253, 10154, 3332, 3343
8394, 4499, 1550, 1554, 6881, 4506, 4508, 4507, 10178, 10180, 10179
8395, 4477, 1542, 1546, 6881, 4484, 4486, 4485, 10181, 10182, 10150
8396, 1917, 5230, 1914, 6873, 5238, 5239, 5240, 10174, 10135, 10171
8397, 1908, 1911, 5208, 6873, 5218, 5216, 5217, 10176, 10164, 10183
8398, 29, 3684, 3702, 6900, 3758, 3763, 3762, 10173, 9157, 9158
8399, 1179, 6785, 6137, 1171, 6792, 9843, 10021, 3837, 9595, 6265
8400, 1412, 6124, 6132, 1208, 9420, 6294, 9827, 9826, 9858, 9825
8401, 5434, 5430, 5442, 1416, 5469, 5499, 5498, 10184, 10186, 10185
8402, 1755, 1418, 1360, 1756, 9763, 10187, 8990, 1762, 10188, 8991
8403, 1550, 4498, 1554, 6881, 4503, 4502, 4508, 10180, 10138, 10179
8404, 1542, 4476, 1546, 6881, 4481, 4480, 4486, 10182, 10189, 10150
8405, 270, 4888, 1770, 271, 4902, 4901, 1772, 1697, 7842, 5317
8406, 373, 6133, 1833, 365, 9250, 6296, 9871, 2139, 9251, 9985
8407, 6812, 6825, 6858, 6876, 7980, 8267, 8265, 8872, 9805, 9933
8408, 6809, 6813, 6832, 6862, 10083, 10085, 9580, 10161, 10162, 9593
8409, 4142, 173, 174, 4895, 4147, 1348, 4143, 8957, 9876, 9915
8410, 77, 1059, 799, 772, 9376, 9323, 9974, 773, 9845, 10190
8411, 75, 781, 798, 6855, 783, 9783, 10168, 10169, 10053, 9686
8412, 6786, 2132, 6132, 2120, 6789, 10039, 9844, 9703, 6609, 6297
8413, 311, 5241, 1920, 6823, 5247, 5249, 1922, 10191, 10094, 10192
8414, 1550, 4487, 196, 6881, 4491, 4490, 1552, 10180, 10151, 9754
8415, 6123, 6137, 1216, 1415, 6271, 9849, 9692, 9484, 9851, 9852
8416, 9, 3664, 3704, 6858, 3728, 3733, 3732, 10193, 9010, 9660
8417, 6809, 6843, 6862, 6885, 8193, 9647, 10161, 8194, 7853, 8049
8418, 5434, 5445, 5428, 1416, 5491, 5490, 5466, 10184, 10195, 10194
8419, 6811, 6874, 6814, 6900, 9938, 9939, 9738, 9741, 8776, 9743
8420, 1390, 141, 1417, 6850, 1391, 9519, 10196, 9417, 9418, 9948
8421, 730, 1075, 92, 3151, 10197, 10198, 732, 9575, 3164, 9654
8422, 1558, 4509, 194, 6824, 4513, 4512, 1560, 10199, 10090, 10200
8423, 3677, 6874, 6831, 6875, 7614, 10051, 9146, 9453, 9579, 10119
8424, 1418, 1755, 5785, 1756, 9763, 9737, 10201, 10188, 1762, 9563
8425, 6814, 6808, 6835, 6848, 9935, 10104, 10202, 9955, 9961, 10075
8426, 10, 12, 6481, 6828, 413, 6510, 6509, 8570, 10074, 7412
8427, 4959, 298, 300, 6815, 9987, 1796, 4979, 8192, 9614, 9272
8428, 4094, 165, 166, 6106, 4099, 1308, 4095, 9909, 6157, 6156
8429, 6809, 6862, 6832, 6885, 10161, 9593, 9580, 8194, 8049, 9582
8430, 801, 742, 87, 6857, 9784, 743, 10203, 9001, 8899, 8934
8431, 240, 279, 4538, 4540, 1726, 9925, 4575, 4568, 9669, 4577
8432, 91, 1075, 730, 3151, 10204, 10197, 731, 9632, 3164, 9575
8433, 1419, 289, 4894, 1757, 8371, 4920, 10043, 9960, 1764, 4924
8434, 517, 496, 505, 6814, 9397, 2242, 2251, 10098, 9739, 10205
8435, 630, 3196, 82, 760, 10206, 10134, 2571, 10207, 9978, 762
8436, 5800, 2050, 1439, 356, 5809, 5632, 9918, 5804, 2057, 5631
8437, 276, 4664, 275, 4959, 4752, 4751, 1702, 4970, 8191, 8146
8438, 6118, 184, 183, 4202, 6207, 1398, 6208, 7659, 4203, 4207
8439, 587, 47, 867, 2304, 2342, 10023, 2731, 2344, 2340, 9713
8440, 629, 799, 77, 775, 2638, 9974, 2560, 10208, 9975, 777
8441, 5603, 5602, 5590, 6836, 5651, 5749, 5779, 8838, 8316, 9700
8442, 2301, 601, 2263, 882, 2499, 2493, 2370, 9476, 2739, 9568
8443, 4539, 4665, 236, 4678, 7913, 4702, 4557, 7644, 4706, 4705
8444, 6468, 161, 134, 303, 6556, 1291, 6557, 9874, 10159, 10209
8445, 282, 1941, 6816, 6833, 1943, 8505, 9371, 9372, 9258, 7707
8446, 6814, 6848, 6835, 6891, 9955, 10075, 10202, 9956, 9137, 9722
8447, 4154, 175, 176, 6126, 4159, 1358, 4155, 8841, 6184, 6183
8448, 6818, 6807, 6839, 6853, 10117, 9799, 10118, 9931, 10019, 9631
8449, 311, 1920, 5252, 6823, 1922, 5261, 5259, 10191, 10192, 10210
8450, 24, 6462, 6421, 6818, 6530, 6532, 6528, 10211, 8050, 8705
8451, 194, 4520, 1558, 6824, 4522, 4525, 1560, 10200, 10212, 10199
8452, 344, 345, 6134, 6138, 2011, 9183, 6258, 6256, 10125, 6260
8453, 838, 559, 37, 837, 2698, 2315, 10146, 844, 2700, 9566
8454, 5884, 186, 1804, 1992, 7314, 7689, 9872, 5892, 10213, 5531
8455, 125, 3713, 126, 6831, 3801, 3800, 1165, 7896, 8587, 9096
8456, 838, 559, 560, 37, 2698, 566, 2699, 10146, 2315, 2312
8457, 328, 327, 6813, 6832, 1861, 10084, 9989, 8667, 8610, 10085
8458, 5022, 5019, 312, 6823, 5052, 5051, 5049, 8597, 10214, 10093
8459, 289, 5800, 337, 1419, 10215, 5803, 5514, 8371, 8155, 10216
8460, 5319, 1776, 4885, 286, 5328, 4908, 9676, 5326, 1778, 4909
8461, 3702, 3662, 35, 6900, 3772, 3769, 3765, 9158, 8454, 9265
8462, 4289, 4292, 195, 6824, 4322, 4319, 4320, 10217, 8575, 10088
8463, 209, 188, 189, 214, 4295, 1451, 4294, 10157, 9893, 9591
8464, 307, 248, 326, 308, 9911, 10156, 5028, 1830, 9657, 5029
8465, 188, 6808, 211, 6831, 10048, 10046, 1484, 7895, 10050, 7897
8466, 1192, 1418, 1370, 6840, 4261, 10091, 10054, 8288, 8289, 10055
8467, 1436, 1964, 5437, 5431, 5672, 5484, 7120, 9682, 5480, 5485
8468, 190, 6822, 6879, 6880, 10218, 9530, 9889, 10219, 9533, 9534
8469, 5800, 1439, 1419, 356, 9918, 4285, 8155, 5804, 5631, 10220
8470, 3662, 3661, 35, 6900, 3768, 3770, 3769, 8454, 7953, 9265
8471, 3502, 108, 2850, 1014, 3514, 2885, 9636, 3513, 1020, 2886
8472, 204, 4410, 1518, 6880, 4412, 4415, 1520, 10221, 10223, 10222
8473, 5438, 1963, 1436, 5431, 5477, 5664, 7831, 5482, 5481, 9682
8474, 6125, 185, 184, 4208, 6210, 1403, 6211, 10224, 4209, 4213
8475, 5602, 1412, 1432, 4265, 8908, 4273, 5648, 7956, 4269, 4271
8476, 793, 2846, 2751, 891, 9203, 7958, 2755, 2759, 2892, 2757
8477, 294, 1933, 5305, 6838, 1935, 5316, 5312, 9332, 9367, 9368
8478, 1804, 186, 160, 303, 7689, 8470, 9723, 1811, 10122, 9878
8479, 1979, 5800, 1419, 337, 5806, 8155, 10225, 1986, 5803, 10216
8480, 1365, 146, 1418, 1755, 1366, 10136, 10226, 9362, 8783, 9763
8481, 110, 623, 646, 794, 9474, 2594, 8527, 9440, 2628, 8581
8482, 69, 94, 1070, 112, 10227, 10228, 10111, 10155, 10229, 1076
8483, 183, 182, 6113, 4196, 1393, 6205, 6204, 4197, 4201, 8093
8484, 1920, 1917, 5242, 6823, 5251, 5245, 5246, 10192, 10095, 10230
8485, 1920, 5241, 1917, 6823, 5249, 5250, 5251, 10192, 10094, 10095
8486, 3282, 1031, 797, 3276, 9410, 10231, 10153, 3335, 9556, 10154
8487, 189, 6808, 188, 6831, 10070, 10048, 1451, 8820, 10050, 7895
8488, 1385, 1417, 143, 6850, 10232, 10233, 1387, 9958, 9948, 9854
8489, 23, 3643, 3685, 6835, 3749, 3754, 3753, 10234, 8664, 8662
8490, 3642, 3684, 27, 6891, 3760, 3759, 3755, 8347, 8305, 10235
8491, 6808, 6831, 6842, 6848, 10050, 8883, 8692, 9961, 9830, 9202
8492, 797, 1030, 3283, 3276, 9928, 9511, 9927, 10154, 9539, 3332
8493, 1558, 4510, 1554, 6824, 4518, 4517, 4519, 10199, 10236, 10089
8494, 1558, 1554, 4509, 6824, 4519, 4514, 4513, 10199, 10089, 10090
8495, 309, 6871, 6821, 6872, 9886, 7352, 7008, 10237, 9609, 9607
8496, 348, 5559, 6138, 6436, 5562, 9450, 6255, 6576, 10238, 10042
8497, 5019, 314, 313, 6873, 5053, 1847, 5050, 9745, 9951, 9747
8498, 1890, 5142, 321, 6872, 5151, 5149, 1892, 10239, 10241, 10240
8499, 5586, 1419, 1439, 356, 9707, 4285, 5633, 5634, 10220, 5631
8500, 312, 5241, 311, 6823, 5248, 5247, 1845, 10093, 10094, 10191
8501, 197, 4289, 196, 6881, 4323, 4321, 1469, 9953, 9756, 9754
8502, 242, 4542, 4680, 237, 4558, 8048, 4708, 1605, 4559, 4707
8503, 1938, 284, 5319, 6833, 1940, 5325, 5327, 9473, 9402, 9472
8504, 50, 49, 3109, 867, 540, 8681, 8716, 10087, 8677, 8680
8505, 309, 6821, 5546, 6870, 7008, 6982, 5550, 9370, 10243, 10242
8506, 196, 4498, 1550, 6881, 4500, 4503, 1552, 9754, 10138, 10180
8507, 194, 4509, 195, 6824, 4512, 4511, 1467, 10200, 10090, 10088
8508, 781, 74, 798, 6864, 782, 9782, 9783, 9701, 9656, 9853
8509, 334, 333, 6809, 6832, 1870, 10067, 10060, 8536, 8711, 9580
8510, 897, 2836, 3204, 799, 2928, 9269, 10044, 2772, 9164, 10244
8511, 5208, 1911, 314, 6873, 5216, 1913, 5214, 10183, 10164, 9951
8512, 123, 3697, 3649, 6875, 3791, 3796, 3795, 8189, 9451, 9452
8513, 489, 6809, 498, 6843, 10073, 9751, 2237, 7347, 8193, 7339
8514, 327, 334, 6809, 6832, 1871, 10060, 10061, 8610, 8536, 9580
8515, 5019, 312, 6823, 6873, 5051, 10093, 10214, 9745, 9746, 10245
8516, 164, 165, 4088, 6120, 1303, 4089, 4093, 6154, 6153, 9797
8517, 893, 3498, 2837, 795, 10030, 8986, 2905, 2764, 8988, 8989
8518, 313, 1914, 5230, 6873, 1916, 5239, 5237, 9747, 10171, 10135
8519, 1360, 147, 1418, 1755, 1361, 10246, 10187, 8990, 9369, 9763
8520, 25, 3685, 3642, 6891, 3752, 3757, 3756, 10247, 7931, 8347
8521, 290, 288, 6117, 4891, 1765, 6235, 6234, 4921, 4918, 7116
8522, 1420, 1320, 155, 6841, 10248, 1321, 10249, 10250, 9864, 9952
8523, 1893, 320, 5142, 6872, 1895, 5148, 5150, 10251, 10252, 10241
8524, 4289, 6824, 195, 6881, 10217, 10088, 4320, 9756, 10253, 9755
8525, 5186, 316, 317, 6869, 5192, 1850, 5193, 10009, 10114, 10008
8526, 1437, 1417, 5615, 5614, 4284, 8259, 5675, 5678, 9816, 5677
8527, 211, 6811, 210, 6831, 10052, 10014, 1483, 7897, 10049, 7930
8528, 5132, 1890, 1887, 6872, 5136, 5141, 5135, 10254, 10239, 10255
8529, 6818, 6853, 6839, 6862, 9931, 9631, 10118, 9835, 9113, 8264
8530, 3203, 111, 800, 1061, 9863, 9407, 9900, 9907, 1068, 9966
8531, 315, 314, 5018, 6869, 1848, 5055, 5054, 10256, 10257, 10025
8532, 1518, 4400, 1514, 6880, 4408, 4407, 4409, 10222, 10259, 10258
8533, 1546, 4476, 197, 6881, 4480, 4479, 1548, 10150, 10189, 9953
8534, 1890, 5131, 1887, 6872, 5139, 5140, 5141, 10239, 10260, 10255
8535, 5612, 1435, 1415, 6899, 5669, 4279, 9675, 9398, 10069, 9965
8536, 6475, 343, 6427, 6832, 6573, 6569, 6574, 8856, 8535, 8781
8537, 199, 4454, 200, 6877, 4457, 4456, 1472, 10115, 9996, 9994
8538, 5442, 1436, 5431, 1416, 9681, 9682, 5504, 10185, 4280, 10261
8539, 5431, 1436, 5445, 1416, 9682, 9706, 5505, 10261, 4280, 10195
8540, 335, 1413, 1947, 5968, 9388, 10262, 1953, 9736, 10112, 9821
8541, 1518, 1514, 4399, 6880, 4409, 4404, 4403, 10222, 10258, 10263
8542, 198, 4288, 197, 6877, 4325, 4324, 1470, 10264, 10032, 10265
8543, 303, 186, 160, 1292, 10122, 8470, 9878, 9879, 10266, 1293
8544, 2831, 3494, 108, 2850, 7849, 3512, 2888, 2889, 7084, 2885
8545, 480, 6809, 489, 6843, 10068, 10073, 2230, 10267, 8193, 7347
8546, 3695, 6848, 6835, 6892, 8836, 10075, 9238, 8119, 9840, 9964
8547, 1822, 5271, 300, 4959, 5280, 5278, 1824, 4978, 8714, 4979
8548, 1522, 4410, 203, 6880, 4414, 4413, 1524, 10268, 10223, 10269
8549, 6420, 28, 6460, 6843, 6534, 6536, 6538, 8629, 10270, 9247
8550, 6461, 32, 6465, 6843, 6540, 6543, 6545, 9724, 7341, 9281
8551, 1310, 157, 1420, 6882, 1311, 10271, 9971, 10272, 10099, 9959
8552, 6428, 360, 6471, 6861, 6564, 6599, 6601, 9315, 10273, 9314
8553, 3689, 3641, 17, 6845, 3745, 3744, 3740, 7739, 7737, 10041
8554, 3502, 2850, 892, 1014, 9636, 2900, 9648, 3513, 2886, 2899
8555, 1420, 6841, 6820, 6882, 10250, 8620, 8361, 9959, 9588, 9226
8556, 337, 1757, 1419, 1979, 5513, 9960, 10216, 1986, 5517, 10225
8557, 349, 6422, 361, 6819, 6581, 6580, 2103, 9615, 7507, 9817
8558, 760, 1061, 82, 3109, 9977, 10133, 762, 8715, 3148, 8927
8559, 112, 94, 3404, 1075, 10229, 6952, 10056, 1082, 10274, 9836
8560, 4854, 240, 4538, 1599, 4856, 4575, 8209, 4858, 1600, 4576
8561, 206, 4388, 1510, 6822, 4390, 4393, 1512, 10275, 10277, 10276
8562, 6839, 6861, 6813, 6862, 9794, 9711, 9093, 8264, 9512, 10162
8563, 90, 736, 632, 801, 738, 10278, 2589, 9731, 10078, 2625
8564, 72, 798, 628, 787, 9729, 2637, 2549, 788, 10280, 10279
8565, 23, 6835, 3685, 6891, 10234, 8662, 3753, 10281, 9722, 7931
8566, 3405, 107, 94, 3413, 3421, 8014, 8015, 3428, 3426, 9446
8567, 129, 128, 3644, 6817, 1168, 3810, 3809, 9633, 9822, 7549
8568, 2858, 798, 896, 2859, 9495, 2769, 2922, 2921, 8426, 2919
8569, 894, 796, 2856, 2857, 2762, 9802, 2913, 2911, 7308, 2912
8570, 323, 1884, 5120, 6821, 1886, 5129, 5127, 10282, 10284, 10283
8571, 2304, 866, 586, 2289, 8398, 2732, 2477, 2341, 9239, 2478
8572, 124, 3649, 3691, 6831, 3794, 3799, 3798, 7905, 9147, 8586
8573, 3109, 81, 760, 1060, 8917, 761, 8715, 3149, 10037, 9979
8574, 1418, 147, 1365, 1755, 10246, 1367, 10226, 9763, 9369, 9362
8575, 309, 319, 5020, 6871, 5034, 5036, 5035, 9886, 10285, 9885
8576, 190, 4290, 202, 6879, 4302, 4301, 4299, 9889, 9890, 10286
8577, 6812, 6845, 6825, 6876, 8853, 8852, 7980, 8872, 9758, 9805
8578, 339, 309, 5546, 6870, 5548, 5550, 5549, 9263, 9370, 10242
8579, 67, 614, 1031, 797, 615, 8456, 9555, 9842, 9841, 10231
8580, 1757, 337, 1419, 289, 5513, 10216, 9960, 1764, 5514, 8371
8581, 353, 354, 6430, 6832, 2030, 6596, 6595, 10287, 8534, 8857
8582, 6813, 6818, 6839, 6862, 10116, 10118, 9093, 10162, 9835, 8264
8583, 5283, 296, 298, 6815, 5289, 1793, 5290, 8308, 9153, 9614
8584, 3031, 1031, 66, 610, 3062, 10100, 8907, 9015, 10107, 611
8585, 152, 1194, 1335, 1419, 4058, 9947, 1336, 10102, 4263, 10148
8586, 318, 5020, 319, 6871, 5061, 5036, 1852, 10288, 9885, 10285
8587, 202, 4290, 201, 6879, 4301, 4331, 1474, 10286, 9890, 10289
8588, 5972, 1414, 1434, 5961, 10290, 4276, 9792, 6037, 10291, 9793
8589, 128, 127, 3693, 6817, 1167, 3807, 3806, 9822, 10292, 7551
8590, 1340, 151, 1419, 1757, 1341, 10293, 9869, 9572, 9571, 9960
8591, 1418, 1438, 5793, 5796, 4282, 10170, 10294, 10295, 10296, 5858
8592, 795, 648, 1044, 6902, 8770, 9209, 9902, 9903, 8727, 8561
8593, 3658, 130, 129, 5068, 3812, 1169, 3813, 8942, 5070, 5069
8594, 1414, 1949, 1212, 1948, 8911, 8844, 10149, 8709, 1955, 7874
8595, 365, 6133, 1833, 381, 9251, 6296, 9985, 2146, 10297, 9984
8596, 6117, 295, 290, 4891, 6240, 1788, 6234, 7116, 8806, 4921
8597, 5175, 317, 318, 6871, 5181, 1851, 5182, 10298, 10299, 10288
8598, 200, 4443, 201, 6879, 4446, 4445, 1473, 10300, 10301, 10289
8599, 108, 1019, 3494, 2831, 1026, 3515, 3512, 2888, 2887, 7849
8600, 186, 135, 160, 1292, 4243, 4017, 8470, 10266, 10127, 1293
8601, 94, 1125, 116, 3405, 10302, 1131, 8016, 8015, 3429, 3422
8602, 225, 6822, 224, 6880, 9531, 9860, 1525, 9532, 9533, 10303
8603, 314, 5219, 313, 6873, 5226, 5225, 1847, 9951, 10163, 9747
8604, 237, 4665, 236, 4539, 4703, 4702, 1590, 4556, 7913, 4557
8605, 2850, 892, 794, 3502, 2900, 2760, 9877, 9636, 9648, 9962
8606, 1933, 294, 5294, 6838, 1935, 5300, 5302, 9367, 9332, 9324
8607, 196, 4487, 197, 6881, 4490, 4489, 1469, 9754, 10151, 9953
8608, 359, 5606, 5957, 2084, 5641, 9945, 5974, 2090, 5642, 5982
8609, 3696, 3652, 121, 6875, 3790, 3789, 3785, 7818, 9590, 10304
8610, 5305, 291, 294, 4888, 5311, 1787, 5312, 9628, 4931, 9716
8611, 1416, 5434, 5430, 1580, 10184, 5469, 10186, 10016, 9779, 9663
8612, 50, 867, 587, 49, 10087, 2731, 2346, 540, 8677, 2345
8613, 6832, 6813, 6861, 6862, 10085, 9711, 10124, 9593, 10162, 9512
8614, 341, 6493, 6469, 6861, 6561, 6568, 6567, 8163, 9861, 9406
8615, 73, 787, 798, 6864, 789, 10280, 10305, 9525, 9549, 9853
8616, 146, 1370, 1192, 1418, 1372, 10054, 4044, 10136, 10091, 4261
8617, 98, 61, 65, 2734, 9619, 2374, 876, 2736, 8472, 2737
8618, 1890, 321, 5131, 6872, 1892, 5137, 5139, 10239, 10240, 10260
8619, 284, 1938, 5331, 6833, 1940, 5340, 5338, 9402, 9473, 9429
8620, 6809, 6843, 6818, 6862, 8193, 10306, 10160, 10161, 9647, 9835
8621, 1992, 186, 1804, 338, 10213, 7689, 5531, 1999, 7444, 5527
8622, 1893, 5153, 320, 6872, 5162, 5160, 1895, 10251, 10307, 10252
8623, 252, 6821, 253, 6872, 9870, 9606, 1649, 10308, 9607, 9608
8624, 318, 317, 5020, 6871, 1851, 5058, 5061, 10288, 10299, 9885
8625, 156, 1420, 1315, 6882, 10309, 10310, 1316, 9882, 9959, 9881
8626, 794, 1042, 110, 3493, 8582, 1048, 9440, 9920, 9865, 7066
8627, 1420, 156, 1320, 6841, 10309, 1322, 10248, 10250, 9683, 9864
8628, 5208, 314, 315, 6869, 5214, 1848, 5215, 10311, 10257, 10256
8629, 5342, 279, 282, 6816, 5348, 1743, 5349, 8502, 9670, 9371
8630, 201, 4290, 200, 6879, 4331, 4329, 1473, 10289, 9890, 10300
8631, 1433, 5957, 5606, 2084, 9941, 9945, 5656, 5655, 5982, 5642
8632, 112, 1125, 94, 1070, 3620, 10302, 10229, 1076, 3621, 10228
8633, 1518, 4399, 204, 6880, 4403, 4402, 1520, 10222, 10263, 10221
8634, 197, 4476, 198, 6877, 4479, 4478, 1470, 10265, 10312, 10264
8635, 2302, 601, 2301, 882, 2402, 2499, 2373, 9641, 2739, 9476
8636, 1409, 138, 1416, 1190, 1411, 8648, 10313, 10126, 4026, 4255
8637, 322, 5120, 1887, 6821, 5126, 5128, 1889, 10314, 10283, 10315
8638, 2849, 105, 3281, 980, 2878, 3297, 8748, 2877, 987, 3300
8639, 338, 186, 1804, 303, 7444, 7689, 5527, 5528, 10122, 1811
8640, 1514, 4388, 205, 6822, 4392, 4391, 1516, 10316, 10277, 10317
8641, 318, 5164, 1899, 6871, 5170, 5172, 1901, 10288, 10319, 10318
8642, 5109, 1884, 323, 6821, 5117, 1886, 5115, 10320, 10284, 10282
8643, 133, 132, 3690, 1579, 1178, 3820, 3823, 10321, 9899, 9053
8644, 5176, 1902, 1899, 6871, 5180, 5185, 5179, 10322, 10323, 10318
8645, 5154, 1896, 1893, 6871, 5158, 5163, 5157, 10324, 10326, 10325
8646, 1538, 199, 4465, 6877, 1540, 4467, 4470, 10327, 10115, 10328
8647, 1510, 4377, 206, 6822, 4381, 4380, 1512, 10276, 10329, 10275
8648, 21, 3681, 3643, 6835, 3746, 3751, 3750, 10330, 9416, 8664
8649, 4444, 1530, 1534, 6879, 4451, 4453, 4452, 10331, 10333, 10332
8650, 4422, 1522, 1526, 6879, 4429, 4431, 4430, 10334, 10336, 10335
8651, 138, 1416, 1580, 1409, 8648, 10016, 10017, 1411, 10313, 9934
8652, 5131, 321, 322, 6821, 5137, 1855, 5138, 10337, 10338, 10314
8653, 5305, 1767, 291, 4888, 5313, 1768, 5311, 9628, 4932, 4931
8654, 587, 47, 48, 867, 2342, 538, 2343, 2731, 10023, 9466
8655, 1902, 5175, 1899, 6871, 5183, 5184, 5185, 10323, 10298, 10318
8656, 1896, 5153, 1893, 6871, 5161, 5162, 5163, 10326, 10339, 10325
8657, 204, 4399, 205, 6822, 4402, 4401, 1477, 10340, 10341, 10317
8658, 162, 163, 302, 4076, 1295, 6148, 6147, 4077, 4081, 9458
8659, 766, 1060, 1059, 799, 9967, 1066, 9968, 10342, 10142, 9323
8660, 121, 120, 3696, 6875, 1160, 3786, 3785, 10304, 10005, 7818
8661, 1530, 4443, 1534, 6879, 4448, 4447, 4453, 10333, 10301, 10332
8662, 1522, 4421, 1526, 6879, 4426, 4425, 4431, 10336, 10343, 10335
8663, 205, 4399, 1514, 6822, 4401, 4404, 1516, 10317, 10341, 10316
8664, 6461, 6460, 30, 6843, 6541, 6537, 6539, 9724, 9247, 7340
8665, 316, 1905, 5197, 6869, 1907, 5206, 5204, 10114, 10345, 10344
8666, 1887, 5131, 322, 6821, 5140, 5138, 1889, 10315, 10337, 10314
8667, 868, 2276, 51, 588, 9479, 2349, 9097, 2724, 2351, 2347
8668, 1530, 4432, 201, 6879, 4436, 4435, 1532, 10333, 10346, 10289
8669, 311, 5022, 312, 6823, 5044, 5049, 1845, 10191, 8597, 10093
8670, 195, 4292, 194, 6824, 4319, 4315, 1467, 10088, 8575, 10200
8671, 202, 4432, 1526, 6879, 4434, 4437, 1528, 10286, 10346, 10335
8672, 6457, 22, 6421, 6853, 6525, 6527, 6529, 9150, 10347, 7448
8673, 6420, 6818, 26, 6843, 8052, 10123, 6533, 8629, 10306, 10348
8674, 2045, 5794, 5586, 356, 5807, 7485, 5635, 2051, 5808, 5634
8675, 4539, 236, 1571, 4678, 4557, 1572, 4553, 7644, 4705, 10349
8676, 74, 784, 798, 6864, 786, 10350, 9782, 9656, 9522, 9853
8677, 1908, 315, 5197, 6869, 1910, 5203, 5205, 10351, 10256, 10344
8678, 5187, 1905, 1902, 6869, 5191, 5196, 5190, 10352, 10345, 10010
8679, 29, 27, 3684, 6891, 495, 3759, 3758, 10172, 10235, 8305
8680, 319, 1896, 5164, 6871, 1898, 5173, 5171, 10285, 10326, 10319
8681, 60, 98, 65, 2302, 9662, 876, 2375, 2372, 9642, 2376
8682, 1905, 5186, 1902, 6869, 5194, 5195, 5196, 10345, 10009, 10010
8683, 1534, 1538, 4455, 6877, 4464, 4463, 4462, 9995, 10327, 10353
8684, 5957, 5606, 1413, 1433, 9945, 9846, 9946, 9941, 5656, 4275
8685, 6436, 348, 5559, 349, 6576, 5562, 10238, 6575, 2016, 5563
8686, 1534, 4454, 1538, 6877, 4459, 4458, 4464, 9995, 9996, 10327
8687, 112, 94, 116, 3404, 10229, 8016, 3619, 10056, 6952, 3431
8688, 560, 838, 39, 2292, 2699, 9069, 2317, 2320, 9695, 2318
8689, 31, 6814, 29, 6900, 10354, 10355, 504, 10356, 9743, 10173
8690, 29, 6814, 6891, 6900, 10355, 9956, 10172, 10173, 9743, 9661
8691, 269, 4885, 268, 1773, 4898, 8260, 1695, 1774, 4899, 5318
8692, 198, 1542, 4465, 6877, 1544, 4469, 4468, 10264, 10357, 10328
8693, 1075, 92, 94, 730, 10198, 9888, 10274, 10197, 732, 9887
8694, 321, 5142, 320, 6872, 5149, 5148, 1854, 10240, 10241, 10252
8695, 1887, 1884, 5121, 6821, 5130, 5124, 5125, 10315, 10284, 10358
8696, 1887, 5120, 1884, 6821, 5128, 5129, 5130, 10315, 10283, 10284
8697, 203, 4410, 204, 6880, 4413, 4412, 1476, 10269, 10223, 10221
8698, 4389, 1510, 1514, 6822, 4396, 4398, 4397, 10359, 10276, 10316
8699, 1510, 4388, 1514, 6822, 4393, 4392, 4398, 10276, 10277, 10316
8700, 1390, 1417, 142, 6850, 10196, 10360, 1392, 9417, 9948, 9991
8701, 156, 6841, 1420, 6882, 9683, 10250, 10309, 9882, 9588, 9959
8702, 1125, 112, 94, 116, 3620, 10229, 10302, 1131, 3619, 8016
8703, 799, 1059, 78, 772, 9323, 9942, 10361, 10190, 9845, 774
8704, 187, 5880, 5869, 358, 9823, 5897, 10362, 5621, 5895, 5886
8705, 1884, 1881, 5110, 6870, 5119, 5113, 5114, 10363, 10365, 10364
8706, 6874, 6891, 6814, 6900, 8749, 9956, 9939, 8776, 9661, 9743
8707, 1510, 4378, 1506, 6878, 4386, 4385, 4387, 10366, 10368, 10367
8708, 317, 6869, 5020, 6871, 10008, 10024, 5058, 10299, 7193, 9885
8709, 6827, 6828, 6807, 6854, 10369, 9624, 9345, 9193, 7413, 9299
8710, 316, 315, 5018, 6869, 1849, 5054, 5057, 10114, 10256, 10025
8711, 1884, 5109, 1881, 6870, 5117, 5118, 5119, 10363, 10370, 10365
8712, 3284, 3292, 797, 3276, 3344, 10152, 7253, 3343, 3340, 10154
8713, 1510, 1506, 4377, 6878, 4387, 4382, 4381, 10366, 10367, 10371
8714, 141, 1395, 1191, 1417, 1397, 9972, 4033, 9519, 9520, 4258
8715, 1310, 157, 1195, 1420, 1311, 4069, 9970, 9971, 10271, 4247
8716, 4290, 6877, 200, 6879, 10033, 9994, 4329, 9890, 8793, 10300
8717, 199, 4288, 198, 6877, 4327, 4325, 1471, 10115, 10032, 10264
8718, 1872, 326, 248, 6870, 1874, 10156, 1873, 10372, 9913, 9110
8719, 214, 209, 1494, 6878, 10157, 1496, 1495, 9108, 9917, 10373
8720, 338, 5879, 186, 303, 5890, 8884, 7444, 5528, 9498, 10122
8721, 798, 784, 73, 6864, 10350, 785, 10305, 9853, 9522, 9525
8722, 201, 4443, 1530, 6879, 4445, 4448, 1532, 10289, 10301, 10333
8723, 294, 296, 5294, 6838, 1790, 5301, 5300, 9332, 9155, 9324
8724, 1315, 1420, 157, 6882, 10310, 10271, 1317, 9881, 9959, 10099
8725, 1992, 5884, 186, 338, 5892, 7314, 10213, 1999, 5888, 7444
8726, 323, 5120, 322, 6821, 5127, 5126, 1856, 10282, 10283, 10314
8727, 4962, 4683, 1816, 277, 8822, 10374, 4973, 4974, 4757, 1818
8728, 131, 185, 1592, 4214, 1408, 6144, 6143, 4215, 4217, 9600
8729, 1385, 142, 1417, 6850, 1386, 10360, 10232, 9958, 9991, 9948
8730, 25, 23, 3685, 6891, 477, 3753, 3752, 10247, 10281, 7931
8731, 3287, 105, 2848, 975, 3299, 2875, 8802, 3298, 981, 2876
8732, 205, 4388, 206, 6822, 4391, 4390, 1478, 10317, 10277, 10275
8733, 1899, 5175, 318, 6871, 5184, 5182, 1901, 10318, 10298, 10288
8734, 1961, 5440, 5604, 336, 5454, 7566, 5627, 1967, 5455, 5626
8735, 7, 5, 3680, 6858, 396, 3723, 3727, 8562, 8563, 9012
8736, 5230, 6823, 312, 6873, 10165, 10093, 5236, 10135, 10245, 9746
8737, 1917, 5231, 6823, 6873, 5235, 10375, 10095, 10174, 10175, 10245
8738, 104, 3202, 962, 2830, 3214, 3213, 968, 2873, 7934, 2874
8739, 1315, 156, 1195, 1420, 1316, 4067, 10129, 10310, 10309, 4247
8740, 1191, 142, 1390, 1417, 4035, 1392, 10128, 4258, 10360, 10196
8741, 9, 7, 3664, 6858, 405, 3729, 3728, 10193, 8562, 9010
8742, 195, 6824, 4498, 6881, 10088, 10166, 4501, 9755, 10253, 10138
8743, 4499, 1554, 6824, 6881, 4507, 10089, 10376, 10178, 10179, 10253
8744, 1917, 6823, 5230, 6873, 10095, 10165, 5238, 10174, 10245, 10135
8745, 4498, 6824, 1554, 6881, 10166, 10089, 4502, 10138, 10253, 10179
8746, 1914, 5219, 1911, 6873, 5227, 5228, 5229, 10171, 10163, 10164
8747, 1914, 1911, 5220, 6873, 5229, 5223, 5224, 10171, 10164, 10377
8748, 6831, 6874, 6811, 6875, 10051, 9938, 10049, 10119, 9579, 9789
8749, 198, 4476, 1542, 6877, 4478, 4481, 1544, 10264, 10312, 10357
8750, 1546, 4487, 1550, 6881, 4492, 4491, 4497, 10150, 10151, 10180
8751, 772, 799, 77, 629, 10190, 9974, 773, 10378, 2638, 2560
8752, 4488, 1546, 1550, 6881, 4495, 4497, 4496, 10379, 10150, 10180
8753, 5186, 1905, 316, 6869, 5194, 1907, 5192, 10009, 10345, 10114
8754, 315, 1908, 5208, 6869, 1910, 5217, 5215, 10256, 10351, 10311
8755, 282, 284, 5331, 6833, 1746, 5338, 5337, 9372, 9402, 9429
8756, 5879, 186, 5869, 338, 8884, 7445, 5893, 5890, 7444, 5887
8757, 6472, 6418, 14, 6828, 6517, 6513, 6515, 9833, 8503, 10380
8758, 25, 27, 6814, 6891, 486, 10381, 10382, 10247, 10235, 9956
8759, 199, 1538, 4454, 6877, 1540, 4458, 4457, 10115, 10327, 9996
8760, 5018, 6869, 314, 6873, 10025, 10257, 5055, 9950, 10071, 9951
8761, 5109, 323, 324, 6870, 5115, 1857, 5116, 10370, 10383, 9981
8762, 206, 4377, 207, 6878, 4380, 4379, 1479, 10384, 10371, 9983
8763, 197, 6877, 4288, 6881, 10265, 10032, 4324, 9953, 10077, 9954
8764, 1896, 319, 5153, 6871, 1898, 5159, 5161, 10326, 10285, 10339
8765, 3694, 3689, 15, 6876, 3742, 3741, 3737, 9311, 9309, 9491
8766, 5884, 2076, 187, 358, 5896, 5623, 7312, 5889, 2083, 5621
8767, 3652, 3697, 122, 6875, 3793, 3792, 3788, 9590, 9451, 8149
8768, 36, 6465, 32, 6843, 6544, 6543, 6542, 9891, 9281, 7341
8769, 1526, 4421, 202, 6879, 4425, 4424, 1528, 10335, 10343, 10286
8770, 17, 3641, 19, 6845, 3744, 3743, 450, 10041, 7737, 10147
8771, 324, 5098, 1881, 6870, 5104, 5106, 1883, 9981, 10385, 10365
8772, 3704, 3640, 11, 6876, 3736, 3735, 3731, 9930, 9929, 8871
8773, 343, 342, 6427, 6832, 2006, 6570, 6569, 8535, 8609, 8781
8774, 354, 343, 6475, 6832, 2031, 6573, 6572, 8534, 8535, 8856
8775, 28, 6420, 26, 6843, 6534, 6533, 485, 10270, 8629, 10348
8776, 1506, 4366, 207, 6878, 4370, 4369, 1508, 10367, 10386, 9983
8777, 276, 275, 1819, 4959, 1702, 5270, 1820, 4970, 8146, 4971
8778, 1059, 78, 769, 799, 9942, 770, 10109, 9323, 10361, 10387
8779, 70, 92, 727, 723, 2545, 728, 10388, 2540, 724, 2598
8780, 610, 618, 67, 627, 2530, 620, 612, 10389, 2532, 2533
8781, 678, 78, 772, 629, 680, 774, 2613, 2561, 2562, 10378
8782, 90, 736, 714, 632, 738, 2601, 716, 2589, 10278, 2588
8783, 784, 666, 74, 628, 2617, 668, 786, 10390, 2552, 2553
8784, 84, 631, 699, 751, 2576, 2577, 700, 752, 10391, 2606
8785, 748, 702, 86, 631, 2605, 704, 750, 9432, 2579, 2580
8786, 663, 72, 628, 787, 664, 2549, 2550, 2618, 788, 10279
8787, 88, 632, 711, 739, 2585, 2586, 712, 740, 10392, 2602
8788, 775, 629, 76, 675, 10208, 2558, 776, 2614, 2559, 676
8789, 760, 690, 82, 630, 2609, 692, 762, 10207, 2570, 2571
8790, 687, 80, 630, 763, 688, 2567, 2568, 2610, 764, 10393
8791, 6807, 6828, 6827, 6853, 9624, 10369, 9345, 10019, 10394, 9831
8792, 228, 1534, 4455, 6877, 1535, 4462, 4461, 9233, 9995, 10353
8793, 316, 5197, 315, 6869, 5204, 5203, 1849, 10114, 10344, 10256
8794, 24, 26, 6462, 6818, 476, 6531, 6530, 10211, 10123, 8050
8795, 256, 5187, 1902, 6869, 5188, 5190, 1903, 9552, 10352, 10010
8796, 29, 6814, 27, 6891, 10355, 10381, 495, 10172, 9956, 10235
8797, 209, 4355, 1494, 6878, 4357, 4360, 1496, 9917, 10395, 10373
8798, 1059, 79, 766, 799, 10108, 767, 9968, 9323, 10396, 10342
8799, 198, 4465, 199, 6877, 4468, 4467, 1471, 10264, 10328, 10115
8800, 1893, 5142, 1890, 6872, 5150, 5151, 5152, 10251, 10241, 10239
8801, 5143, 1893, 1890, 6872, 5147, 5152, 5146, 10397, 10251, 10239
8802, 124, 3691, 125, 6831, 3798, 3797, 1164, 7905, 8586, 7896
8803, 1518, 4410, 1522, 6880, 4415, 4414, 4420, 10222, 10223, 10268
8804, 4411, 1518, 1522, 6880, 4418, 4420, 4419, 10398, 10222, 10268
8805, 1872, 5087, 326, 6870, 5096, 5094, 1874, 10372, 10399, 9913
8806, 319, 5164, 318, 6871, 5171, 5170, 1852, 10285, 10319, 10288
8807, 3689, 6845, 15, 6876, 7739, 9757, 3741, 9309, 9758, 9491
8808, 201, 4432, 202, 6879, 4435, 4434, 1474, 10289, 10346, 10286
8809, 186, 358, 187, 5869, 7443, 5621, 1431, 7445, 5886, 10362
8810, 207, 4377, 1506, 6878, 4379, 4382, 1508, 9983, 10371, 10367
8811, 320, 309, 321, 6872, 5033, 5037, 1854, 10252, 10237, 10240
8812, 190, 203, 204, 6880, 4300, 1476, 4303, 10219, 10269, 10221
8813, 769, 79, 1059, 799, 771, 10108, 10109, 10387, 10396, 9323
8814, 1502, 208, 4366, 6878, 1504, 4368, 4371, 10400, 9916, 10386
8815, 94, 107, 99, 3413, 8014, 2865, 890, 9446, 3426, 9834
8816, 324, 1881, 5109, 6870, 1883, 5118, 5116, 9981, 10365, 10370
8817, 340, 6428, 6493, 6861, 6563, 6565, 6562, 8116, 9315, 9861
8818, 3415, 99, 107, 1006, 7238, 2865, 3424, 3427, 2867, 1013
8819, 31, 29, 3702, 6900, 504, 3762, 3761, 10356, 10173, 9158
8820, 325, 1878, 5098, 6870, 1880, 5107, 5105, 9912, 10401, 10385
8821, 25, 3642, 27, 6891, 3756, 3755, 486, 10247, 8347, 10235
8822, 186, 358, 5884, 187, 7443, 5889, 7314, 1431, 5621, 7312
8823, 84, 631, 751, 800, 2576, 10391, 752, 10402, 2641, 10403
8824, 14, 6418, 12, 6828, 6513, 6512, 422, 10380, 8503, 10074
8825, 6457, 6419, 20, 6853, 6526, 6522, 6524, 9150, 9039, 10404
8826, 610, 67, 797, 627, 612, 9842, 10405, 10389, 2533, 2634
8827, 323, 322, 309, 6821, 1856, 5038, 5039, 10282, 10314, 7008
8828, 205, 206, 190, 6822, 1478, 4305, 4304, 10317, 10275, 10218
8829, 772, 78, 799, 629, 774, 10361, 10190, 10378, 2562, 2638
8830, 5208, 314, 6869, 6873, 5214, 10257, 10311, 10183, 9951, 10071
8831, 35, 31, 3702, 6900, 3764, 3761, 3765, 9265, 10356, 9158
8832, 4476, 6877, 197, 6881, 10312, 10265, 4479, 10189, 10077, 9953
8833, 94, 107, 3415, 99, 8014, 3424, 6951, 890, 2865, 7238
8834, 3289, 977, 3284, 895, 3313, 3314, 3315, 7665, 2909, 7254
8835, 6467, 6472, 16, 6828, 6520, 6516, 6518, 10035, 9833, 10406
8836, 261, 5242, 1917, 6823, 5243, 5245, 1918, 9787, 10230, 10095
8837, 233, 1554, 4510, 6824, 1555, 4517, 4516, 9780, 10089, 10236
8838, 92, 94, 70, 727, 9888, 2621, 2545, 728, 10407, 10388
8839, 194, 4292, 193, 6824, 4315, 4314, 1466, 10200, 8575, 10086
8840, 311, 310, 5022, 6823, 1844, 5045, 5044, 10191, 9075, 8597
8841, 797, 1031, 67, 610, 10231, 9555, 9842, 10405, 10107, 612
8842, 1896, 1899, 5164, 6871, 5174, 5172, 5173, 10326, 10318, 10319
8843, 1896, 5165, 1899, 6871, 5168, 5169, 5174, 10326, 10408, 10318
8844, 1526, 4432, 1530, 6879, 4437, 4436, 4442, 10335, 10346, 10333
8845, 4433, 1526, 1530, 6879, 4440, 4442, 4441, 10409, 10335, 10333
8846, 99, 107, 1001, 3413, 2865, 1007, 2866, 9834, 3426, 3425
8847, 32, 6461, 30, 6843, 6540, 6539, 503, 7341, 9724, 7340
8848, 754, 83, 800, 1061, 755, 10410, 10411, 10137, 10113, 9966
8849, 1908, 5197, 1905, 6869, 5205, 5206, 5207, 10351, 10344, 10345
8850, 5198, 1908, 1905, 6869, 5202, 5207, 5201, 10412, 10351, 10345
8851, 23, 21, 3643, 6835, 468, 3750, 3749, 10234, 10330, 8664
8852, 1538, 4465, 1542, 6877, 4470, 4469, 4475, 10327, 10328, 10357
8853, 1538, 1542, 4466, 6877, 4475, 4474, 4473, 10327, 10357, 10413
8854, 1872, 5088, 1878, 6870, 5092, 5091, 5097, 10372, 10414, 10401
8855, 1315, 1195, 157, 1420, 10129, 4069, 1317, 10310, 4247, 10271
8856, 1191, 1390, 141, 1417, 10128, 1391, 4033, 4258, 10196, 9519
8857, 4356, 1494, 1502, 6878, 4363, 4365, 4364, 10415, 10373, 10400
8858, 187, 2071, 5880, 358, 5622, 5894, 9823, 5621, 2077, 5895
8859, 5087, 1878, 325, 6870, 5095, 1880, 5093, 10399, 10401, 9912
8860, 28, 30, 6460, 6843, 494, 6537, 6536, 10270, 7340, 9247
8861, 1872, 1878, 5087, 6870, 5097, 5095, 5096, 10372, 10401, 10399
8862, 303, 161, 134, 1292, 10159, 1291, 10209, 9879, 1294, 10416
8863, 1494, 4355, 1502, 6878, 4360, 4359, 4365, 10373, 10395, 10400
8864, 122, 3697, 123, 6875, 3792, 3791, 1162, 8149, 9451, 8189
8865, 261, 1917, 5231, 6823, 1918, 5235, 5233, 9787, 10095, 10375
8866, 1554, 233, 4499, 6824, 1555, 4504, 4507, 10089, 9780, 10376
8867, 1502, 4355, 208, 6878, 4359, 4358, 1504, 10400, 10395, 9916
8868, 1908, 6869, 5209, 6873, 10351, 10417, 5212, 10176, 10071, 10177
8869, 321, 6821, 5131, 6872, 10338, 10337, 5137, 10240, 9607, 10260
8870, 868, 51, 50, 588, 9097, 541, 9795, 2724, 2347, 2348
8871, 4399, 6822, 204, 6880, 10341, 10340, 4402, 10263, 9533, 10221
8872, 1908, 5208, 6869, 6873, 5217, 10311, 10351, 10176, 10183, 10071
8873, 4477, 6877, 1542, 6881, 10418, 10357, 4484, 10181, 10077, 10182
8874, 1878, 1881, 5098, 6870, 5108, 5106, 5107, 10401, 10365, 10385
8875, 39, 38, 838, 560, 529, 9668, 9069, 2317, 2311, 2699
8876, 15, 3689, 17, 6845, 3741, 3740, 441, 9757, 7739, 10041
8877, 1878, 5099, 1881, 6870, 5102, 5103, 5108, 10401, 10419, 10365
8878, 1542, 6877, 4476, 6881, 10357, 10312, 4481, 10182, 10077, 10189
8879, 1502, 4366, 1506, 6878, 4371, 4370, 4376, 10400, 10386, 10367
8880, 4367, 1502, 1506, 6878, 4374, 4376, 4375, 10420, 10400, 10367
8881, 1920, 5242, 262, 6823, 5246, 5244, 1921, 10192, 10230, 9814
8882, 628, 798, 73, 787, 2637, 10305, 2551, 10279, 10280, 789
8883, 632, 736, 89, 801, 10278, 737, 2587, 2625, 10078, 10079
8884, 838, 38, 37, 560, 9668, 528, 10146, 2699, 2311, 2312
8885, 4510, 1558, 234, 6824, 4518, 1559, 4515, 10236, 10199, 9810
8886, 5132, 1887, 6821, 6872, 5135, 10315, 10421, 10254, 10255, 9607
8887, 204, 205, 190, 6822, 1477, 4304, 4303, 10340, 10317, 10218
8888, 322, 321, 309, 6821, 1855, 5037, 5038, 10314, 10338, 7008
8889, 341, 340, 6493, 6861, 2002, 6562, 6561, 8163, 8116, 9861
8890, 4400, 6822, 1514, 6880, 10422, 10316, 4407, 10259, 9533, 10258
8891, 1494, 4356, 214, 6878, 4363, 4362, 1495, 10373, 10415, 9108
8892, 5131, 6821, 1887, 6872, 10337, 10315, 5140, 10260, 9607, 10255
8893, 5088, 1872, 248, 6870, 5092, 1873, 5089, 10414, 10372, 9110
8894, 1884, 5110, 6821, 6870, 5114, 10423, 10284, 10363, 10364, 10243
8895, 303, 134, 186, 1292, 10209, 9990, 10122, 9879, 10416, 10266
8896, 1514, 6822, 4399, 6880, 10316, 10341, 4404, 10258, 9533, 10263
8897, 1893, 5154, 6871, 6872, 5157, 10324, 10325, 10251, 10424, 9609
8898, 1522, 6879, 4422, 6880, 10336, 10334, 4429, 10268, 9534, 10425
8899, 1510, 6822, 4378, 6878, 10276, 10426, 4386, 10366, 10427, 10368
8900, 1893, 6871, 5153, 6872, 10325, 10339, 5162, 10251, 9609, 10307
8901, 1884, 6821, 5109, 6870, 10284, 10320, 5117, 10363, 10243, 10370
8902, 5253, 1920, 262, 6823, 5256, 1921, 5254, 10428, 10192, 9814
8903, 234, 1558, 4521, 6824, 1559, 4528, 4527, 9810, 10199, 10429
8904, 326, 5087, 325, 6870, 5094, 5093, 1859, 9913, 10399, 9912
8905, 1510, 4377, 6822, 6878, 4381, 10329, 10276, 10366, 10371, 10427
8906, 208, 4355, 209, 6878, 4358, 4357, 1481, 9916, 10395, 9917
8907, 88, 632, 739, 801, 2585, 10392, 740, 9785, 2625, 10096
8908, 784, 74, 798, 628, 786, 9782, 10350, 10390, 2553, 2637
8909, 5121, 1884, 250, 6821, 5124, 1885, 5122, 10358, 10284, 9906
8910, 1510, 4389, 222, 6822, 4396, 4395, 1511, 10276, 10359, 9904
8911, 5109, 6821, 323, 6870, 10320, 10282, 5115, 10370, 10243, 10383
8912, 6428, 340, 360, 6861, 6563, 2100, 6564, 9315, 8116, 10273
8913, 3652, 122, 121, 6875, 3788, 1161, 3789, 9590, 8149, 10304
8914, 206, 6822, 4377, 6878, 10275, 10329, 4380, 10384, 10427, 10371
8915, 193, 4520, 194, 6824, 4523, 4522, 1466, 10086, 10212, 10200
8916, 311, 5252, 310, 6823, 5259, 5258, 1844, 10191, 10210, 9075
8917, 1546, 4488, 231, 6881, 4495, 4494, 1547, 10150, 10379, 9246
8918, 3640, 3694, 13, 6876, 3739, 3738, 3734, 9929, 9311, 8870
8919, 260, 1914, 5220, 6873, 1915, 5224, 5222, 10430, 10171, 10377
8920, 259, 5220, 1911, 6873, 5221, 5223, 1912, 9254, 10377, 10164
8921, 232, 4488, 1550, 6881, 4493, 4496, 1551, 10431, 10379, 10180
8922, 65, 61, 98, 60, 2374, 9619, 876, 2375, 551, 9662
8923, 5110, 250, 1884, 6821, 5112, 1885, 5114, 10423, 9906, 10284
8924, 4378, 1510, 222, 6822, 4386, 1511, 4383, 10426, 10276, 9904
8925, 224, 1518, 4411, 6880, 1519, 4418, 4417, 10303, 10222, 10398
8926, 1893, 5143, 253, 6872, 5147, 5145, 1894, 10251, 10397, 9608
8927, 5121, 251, 1887, 6821, 5123, 1888, 5125, 10358, 9923, 10315
8928, 1890, 252, 5143, 6872, 1891, 5144, 5146, 10239, 10308, 10397
8929, 325, 5098, 324, 6870, 5105, 5104, 1858, 9912, 10385, 9981
8930, 4389, 1514, 223, 6822, 4397, 1515, 4394, 10359, 10316, 9914
8931, 207, 4366, 208, 6878, 4369, 4368, 1480, 9983, 10386, 9916
8932, 1522, 225, 4411, 6880, 1523, 4416, 4419, 10268, 9532, 10398
8933, 1887, 251, 5132, 6821, 1888, 5133, 5135, 10315, 9923, 10421
8934, 4400, 223, 1514, 6822, 4406, 1515, 4407, 10422, 9914, 10316
8935, 232, 1550, 4499, 6881, 1551, 4506, 4505, 10431, 10180, 10178
8936, 260, 5231, 1914, 6873, 5232, 5234, 1915, 10430, 10175, 10171
8937, 1546, 231, 4477, 6881, 1547, 4482, 4485, 10150, 9246, 10181
8938, 259, 1911, 5209, 6873, 1912, 5213, 5211, 9254, 10164, 10177
8939, 48, 49, 587, 867, 539, 2345, 2343, 9466, 8677, 2731
8940, 4433, 226, 1526, 6879, 4439, 1527, 4440, 10409, 9613, 10335
8941, 309, 6821, 321, 6872, 7008, 10338, 5037, 10237, 9607, 10240
8942, 190, 204, 6822, 6880, 4303, 10340, 10218, 10219, 10221, 9533
8943, 1899, 5165, 255, 6871, 5169, 5167, 1900, 10318, 10408, 9496
8944, 5165, 1896, 254, 6871, 5168, 1897, 5166, 10408, 10326, 9610
8945, 227, 4433, 1530, 6879, 4438, 4441, 1531, 9487, 10409, 10333
8946, 1522, 4422, 225, 6880, 4429, 4428, 1523, 10268, 10425, 9532
8947, 1893, 253, 5154, 6872, 1894, 5155, 5157, 10251, 9608, 10424
8948, 20, 22, 6457, 6853, 458, 6525, 6524, 10404, 10347, 9150
8949, 1538, 4466, 229, 6877, 4473, 4472, 1539, 10327, 10413, 9548
8950, 1908, 5198, 258, 6869, 5202, 5200, 1909, 10351, 10412, 9644
8951, 1518, 224, 4400, 6880, 1519, 4405, 4408, 10222, 10303, 10259
8952, 1890, 5132, 252, 6872, 5136, 5134, 1891, 10239, 10254, 10308
8953, 257, 5198, 1905, 6869, 5199, 5201, 1906, 9553, 10412, 10345
8954, 1542, 230, 4466, 6877, 1543, 4471, 4474, 10357, 9650, 10413
8955, 1502, 4367, 220, 6878, 4374, 4373, 1503, 10400, 10420, 9589
8956, 249, 1881, 5099, 6870, 1882, 5103, 5101, 10432, 10365, 10419
8957, 5099, 1878, 247, 6870, 5102, 1879, 5100, 10419, 10401, 9587
8958, 1506, 221, 4367, 6878, 1507, 4372, 4375, 10367, 10433, 10420
8959, 6467, 16, 18, 6828, 6518, 440, 6519, 10035, 10406, 10434
8960, 14, 16, 6472, 6828, 431, 6516, 6515, 10380, 10406, 9833
8961, 186, 134, 135, 1292, 9990, 1184, 4243, 10266, 10416, 10127
8962, 1530, 4444, 227, 6879, 4451, 4450, 1531, 10333, 10331, 9487
8963, 1899, 255, 5176, 6871, 1900, 5177, 5179, 10318, 9496, 10322
8964, 258, 5209, 6869, 6873, 5210, 10417, 9644, 9253, 10177, 10071
8965, 1409, 1416, 133, 1190, 10313, 10435, 10436, 10126, 4255, 4008
8966, 230, 6877, 4477, 6881, 9650, 10418, 4483, 9244, 10077, 10181
8967, 254, 1896, 5154, 6871, 1897, 5158, 5156, 9610, 10326, 10324
8968, 1526, 226, 4422, 6879, 1527, 4427, 4430, 10335, 9613, 10334
8969, 739, 632, 89, 801, 10392, 2587, 741, 10096, 2625, 10079
8970, 784, 798, 73, 628, 10350, 10305, 785, 10390, 2637, 2551
8971, 230, 1542, 4477, 6877, 1543, 4484, 4483, 9650, 10357, 10418
8972, 5209, 1908, 258, 6869, 5212, 1909, 5210, 10417, 10351, 9644
8973, 5075, 1875, 334, 333, 5078, 10437, 5081, 5086, 5085, 1870
8974, 216, 4343, 1491, 213, 4348, 4350, 4352, 1497, 4347, 10438
8975, 257, 1905, 5187, 6869, 1906, 5191, 5189, 9553, 10345, 10352
8976, 253, 6871, 5154, 6872, 9605, 10324, 5155, 9608, 9609, 10424
8977, 4422, 6879, 225, 6880, 10334, 9529, 4428, 10425, 9534, 9532
8978, 4455, 1538, 229, 6877, 4463, 1539, 4460, 10353, 10327, 9548
8979, 221, 1506, 4378, 6878, 1507, 4385, 4384, 10433, 10367, 10368
8980, 5110, 1881, 249, 6870, 5113, 1882, 5111, 10364, 10365, 10432
8981, 247, 1878, 5088, 6870, 1879, 5091, 5090, 9587, 10401, 10414
8982, 4356, 1502, 220, 6878, 4364, 1503, 4361, 10415, 10400, 9589
8983, 230, 4477, 231, 6881, 4483, 4482, 1549, 9244, 10181, 9246
8984, 258, 259, 5209, 6873, 1673, 5211, 5210, 9253, 9254, 10177
8985, 94, 112, 69, 727, 10229, 10155, 10227, 10407, 9016, 10439
8986, 5132, 6821, 251, 6872, 10421, 9923, 5133, 10254, 9607, 10440
8987, 4400, 223, 6822, 6880, 4406, 9914, 10422, 10259, 10441, 9533
8988, 3640, 13, 11, 6876, 3734, 423, 3735, 9929, 8870, 8871
8989, 3694, 15, 13, 6876, 3737, 432, 3738, 9311, 9491, 8870
8990, 4400, 224, 223, 6880, 4405, 1521, 4406, 10259, 10303, 10441
8991, 5132, 251, 252, 6872, 5133, 1645, 5134, 10254, 10440, 10308
8992, 228, 227, 4444, 6879, 1537, 4450, 4449, 9234, 9487, 10331
8993, 256, 5176, 255, 6871, 5178, 5177, 1661, 9497, 10322, 9496
8994, 234, 4521, 235, 6824, 4527, 4526, 1565, 9810, 10429, 9080
8995, 262, 263, 5253, 6823, 1689, 5255, 5254, 9814, 9074, 10428
8996, 5154, 253, 254, 6871, 5155, 1653, 5156, 10324, 9605, 9610
8997, 4422, 226, 225, 6879, 4427, 1529, 4428, 10334, 9613, 9529
8998, 4455, 229, 228, 6877, 4460, 1541, 4461, 10353, 9548, 9233
8999, 5187, 256, 257, 6869, 5188, 1665, 5189, 10352, 9552, 9553
9000, 262, 5242, 261, 6823, 5244, 5243, 1685, 9814, 10230, 9787
9001, 4510, 234, 233, 6824, 4515, 1561, 4516, 10236, 9810, 9780
9002, 1963, 1964, 1436, 5431, 1970, 5672, 5664, 5481, 5480, 9682
9003, 5088, 248, 247, 6870, 5089, 1626, 5090, 10414, 9110, 9587
9004, 214, 4356, 220, 6878, 4362, 4361, 1505, 9108, 10415, 9589
9005, 93, 69, 112, 727, 726, 10155, 9541, 729, 10439, 9016
9006, 797, 71, 610, 627, 10442, 10443, 10405, 2634, 2546, 10389
9007, 94, 69, 70, 727, 10227, 621, 2621, 10407, 10439, 10388
9008, 3289, 978, 977, 895, 3312, 984, 3313, 7665, 2915, 2909
9009, 1243, 1370, 145, 1192, 4234, 1371, 1244, 4043, 10054, 4042
9010, 141, 1231, 1390, 1191, 1232, 4238, 1391, 4033, 4034, 10128
9011, 1279, 157, 1195, 1310, 1280, 4069, 4070, 4222, 1311, 9970
9012, 1267, 1330, 153, 1194, 4226, 1331, 1268, 4061, 7481, 4060
9013, 1264, 1194, 153, 1335, 4059, 4060, 1266, 4227, 9947, 1337
9014, 141, 1395, 1228, 1191, 1397, 4239, 1230, 4033, 9972, 4032
9015, 157, 1195, 1315, 1276, 4069, 10129, 1317, 1278, 4068, 4223
9016, 1375, 1240, 145, 1192, 4235, 1242, 1377, 9227, 4041, 4042
9017, 1255, 1350, 149, 1193, 4230, 1351, 1256, 4052, 9444, 4051
9018, 1355, 1252, 149, 1193, 4231, 1254, 1357, 10130, 4050, 4051
9019, 250, 251, 5121, 6821, 1641, 5123, 5122, 9906, 9923, 10358
9020, 222, 4389, 223, 6822, 4395, 4394, 1517, 9904, 10359, 9914
9021, 232, 231, 4488, 6881, 1553, 4494, 4493, 10431, 9246, 10379
9022, 5220, 259, 260, 6873, 5221, 1677, 5222, 10377, 9254, 10430
9023, 225, 224, 4411, 6880, 1525, 4417, 4416, 9532, 10303, 10398
9024, 5143, 252, 253, 6872, 5144, 1649, 5145, 10397, 10308, 9608
9025, 224, 6822, 223, 6880, 9860, 9914, 1521, 10303, 9533, 10441
9026, 251, 6821, 252, 6872, 9923, 9870, 1645, 10440, 9607, 10308
9027, 5165, 254, 255, 6871, 5166, 1657, 5167, 10408, 9610, 9496
9028, 226, 4433, 227, 6879, 4439, 4438, 1533, 9613, 10409, 9487
9029, 257, 258, 5198, 6869, 1669, 5200, 5199, 9553, 9644, 10412
9030, 4466, 230, 229, 6877, 4471, 1545, 4472, 10413, 9650, 9548
9031, 247, 249, 5099, 6870, 1633, 5101, 5100, 9587, 10432, 10419
9032, 4367, 221, 220, 6878, 4372, 1509, 4373, 10420, 10433, 9589
9033, 1219, 1409, 133, 1190, 4242, 10436, 4007, 4010, 10126, 4008
9034, 1292, 134, 135, 1288, 10416, 1184, 10127, 4075, 4012, 4013
9035, 161, 134, 1292, 1288, 1291, 10416, 1294, 1290, 4012, 4075
9036, 1409, 133, 132, 1219, 10436, 1178, 1410, 4242, 4007, 1220
9037, 678, 772, 77, 629, 2613, 773, 679, 2561, 10378, 2560
9038, 784, 73, 666, 628, 785, 667, 2617, 10390, 2551, 2552
9039, 714, 736, 89, 632, 2601, 737, 715, 2588, 10278, 2587
9040, 748, 85, 702, 631, 749, 703, 2605, 9432, 2578, 2579
9041, 699, 631, 85, 751, 2577, 2578, 701, 2606, 10391, 753
9042, 663, 628, 73, 787, 2550, 2551, 665, 2618, 10279, 789
9043, 711, 632, 89, 739, 2586, 2587, 713, 2602, 10392, 741
9044, 81, 690, 760, 630, 691, 2609, 761, 2569, 2570, 10207
9045, 77, 629, 775, 675, 2560, 10208, 777, 677, 2559, 2614
9046, 630, 81, 687, 763, 2569, 689, 2568, 10393, 765, 2610
9047, 71, 618, 610, 627, 2531, 2530, 10443, 2546, 2532, 10389
9048, 727, 69, 70, 723, 10439, 621, 10388, 2598, 2539, 2540
9049, 727, 93, 69, 723, 729, 726, 10439, 2598, 725, 2539
9050, 66, 71, 618, 610, 656, 2531, 619, 611, 10443, 2530
9051, 180, 143, 4178, 4184, 1379, 4180, 4179, 4189, 4188, 9306
9052, 236, 1571, 4678, 1566, 1572, 10349, 4705, 1568, 4533, 4704
9053, 169, 154, 4112, 4118, 1324, 4114, 4113, 4123, 4122, 8181
9054, 171, 152, 4124, 4130, 1334, 4126, 4125, 4135, 4134, 8476
9055, 4148, 149, 174, 4142, 4152, 1349, 4153, 9838, 4144, 4143
9056, 135, 1300, 159, 186, 6961, 1301, 4015, 4243, 7693, 7690
9057, 1419, 151, 1194, 1193, 10293, 4056, 4263, 4262, 4055, 1205
9058, 801, 3404, 3409, 3417, 6953, 3464, 8638, 10444, 3476, 3475
9059, 1300, 135, 159, 1285, 6961, 4015, 1301, 4220, 4016, 1286
9060, 1405, 139, 1190, 1222, 1407, 4028, 6960, 4241, 1224, 4027
9061, 143, 1380, 1192, 1237, 1381, 6965, 4038, 1238, 4236, 4039
9062, 1417, 5442, 5430, 1416, 10445, 5499, 10446, 1426, 10185, 10186
9063, 798, 75, 629, 628, 10168, 2556, 2636, 2637, 2555, 640
9064, 1193, 1418, 147, 1192, 4260, 10246, 4047, 1204, 4261, 4046
9065, 1195, 1305, 159, 1282, 6962, 1307, 4014, 4072, 4221, 1284
9066, 186, 159, 135, 1195, 7690, 4015, 4243, 4245, 4014, 1207
9067, 5789, 5592, 5786, 5795, 6920, 7601, 9187, 5844, 6921, 5856
9068, 1325, 155, 1194, 1270, 1327, 4064, 6964, 4225, 1272, 4063
9069, 5965, 5969, 5966, 5593, 6038, 6030, 9481, 6924, 6925, 7613
9070, 139, 1191, 1416, 1190, 4029, 4257, 10447, 4028, 1202, 4255
9071, 1434, 5963, 1414, 1433, 10448, 10449, 4276, 1443, 7159, 4274
9072, 4088, 165, 158, 4094, 4089, 1304, 4090, 9796, 4099, 4098
9073, 155, 1420, 1194, 1195, 10249, 4264, 4064, 4065, 4247, 1206
9074, 799, 79, 630, 629, 10396, 2565, 2639, 2638, 2564, 641
9075, 1419, 1418, 5790, 1193, 1428, 10450, 8153, 4262, 4260, 9445
9076, 1418, 5790, 5785, 5799, 10450, 5825, 10201, 10451, 5854, 5853
9077, 172, 151, 4130, 4136, 1339, 4132, 4131, 4141, 4140, 8342
9078, 1419, 5788, 1418, 1439, 8154, 10452, 1428, 4285, 7197, 4286
9079, 4136, 173, 150, 4142, 4137, 1344, 4138, 9454, 4147, 4146
9080, 5963, 1413, 5958, 5973, 10453, 10158, 6022, 6026, 10454, 6025
9081, 4683, 1704, 1816, 277, 4758, 5266, 10374, 4757, 1706, 1818
9082, 2071, 1432, 187, 4265, 5624, 1441, 5622, 7955, 4271, 4268
9083, 1413, 5963, 1414, 5973, 10453, 10449, 1423, 10454, 6026, 9465
9084, 1414, 1188, 1187, 1212, 4252, 1199, 4251, 10149, 4024, 4074
9085, 5963, 1413, 1414, 1433, 10453, 1423, 10449, 7159, 4275, 4274
9086, 849, 96, 2704, 3074, 855, 2706, 2710, 7716, 7362, 7559
9087, 331, 352, 2018, 332, 2025, 5568, 5567, 1868, 5569, 10145
9088, 1001, 99, 2751, 891, 2866, 2754, 7957, 2868, 900, 2757
9089, 596, 65, 61, 2734, 602, 2374, 2377, 2738, 2737, 8472
9090, 61, 596, 2734, 552, 2377, 2738, 8472, 554, 2378, 8474
9091, 87, 801, 631, 632, 10203, 2642, 2582, 2583, 2625, 643
9092, 91, 632, 733, 717, 2542, 8752, 735, 719, 2590, 2600
9093, 730, 70, 91, 720, 8751, 2543, 731, 2599, 2544, 721
9094, 94, 91, 70, 632, 10455, 2543, 2621, 2623, 2542, 644
9095, 3404, 801, 3409, 1075, 6953, 8638, 3464, 9836, 8640, 8639
9096, 70, 730, 91, 94, 8751, 731, 2543, 2621, 9887, 10455
9097, 87, 631, 745, 705, 2582, 8755, 747, 707, 2581, 2604
9098, 897, 3200, 898, 799, 10456, 7181, 907, 2772, 10457, 2771
9099, 800, 3200, 799, 898, 9778, 10457, 809, 2770, 7181, 2771
9100, 897, 3200, 966, 898, 10456, 3236, 2924, 907, 7181, 2925
9101, 570, 63, 2260, 2704, 576, 2389, 2388, 2708, 2707, 7558
9102, 557, 2687, 62, 2268, 2691, 2690, 563, 2379, 7780, 2380
9103, 1875, 330, 6356, 329, 1877, 6385, 6384, 5082, 1866, 8222
9104, 893, 3495, 795, 892, 10458, 10459, 2764, 902, 7255, 2761
9105, 893, 3495, 892, 1015, 10458, 7255, 902, 2897, 3521, 2898
9106, 3207, 800, 3196, 3200, 10460, 9776, 3271, 3260, 9778, 3268
9107, 800, 799, 3207, 3196, 809, 10461, 10460, 9776, 10462, 3271
9108, 799, 3196, 3201, 3207, 10462, 3253, 10141, 10461, 3271, 3272
9109, 629, 75, 778, 672, 2556, 779, 8757, 2557, 673, 2615
9110, 3200, 800, 799, 3207, 9778, 809, 10457, 3260, 10460, 10461
9111, 800, 799, 3196, 630, 809, 10462, 9776, 2640, 2639, 10206
9112, 75, 629, 778, 798, 2556, 8757, 779, 10168, 2636, 9732
9113, 628, 68, 790, 660, 2536, 791, 8753, 2537, 661, 2619
9114, 1191, 139, 1400, 1225, 4029, 1401, 6963, 4030, 1226, 4240
9115, 614, 68, 627, 657, 616, 2535, 8750, 2620, 659, 2534
9116, 627, 797, 68, 614, 2634, 10463, 2535, 8750, 9841, 616
9117, 3293, 3290, 2857, 1029, 3349, 7061, 6910, 7089, 7309, 7088
9118, 798, 3292, 3279, 3282, 10464, 3356, 7251, 10465, 3341, 6916
9119, 3284, 1030, 797, 796, 9926, 9928, 7253, 7252, 10466, 806
9120, 800, 83, 631, 630, 10410, 2574, 2641, 2640, 2573, 642
9121, 215, 1491, 6355, 219, 1493, 6375, 6374, 1501, 4351, 9437
9122, 795, 3495, 794, 892, 10459, 9921, 804, 2761, 7255, 2760
9123, 794, 1043, 1042, 3499, 10467, 1049, 8582, 9919, 9494, 9389
9124, 1434, 5963, 1433, 2085, 10448, 7159, 1443, 5653, 6000, 5654
9125, 1414, 1413, 5973, 1948, 1423, 10454, 9465, 8709, 8710, 8210
9126, 801, 3404, 3417, 3415, 6953, 3476, 10444, 6950, 3432, 3477
9127, 143, 1417, 1191, 1192, 10233, 4258, 4037, 4038, 4259, 1203
9128, 1190, 1416, 139, 1405, 4255, 10447, 4028, 6960, 8647, 1407
9129, 186, 1420, 5884, 1804, 1430, 7313, 7314, 7689, 9064, 9872
9130, 797, 68, 628, 627, 10463, 2536, 2635, 2634, 2535, 639
9131, 798, 3292, 3282, 797, 10464, 3341, 10465, 807, 10152, 10153
9132, 281, 6047, 5429, 336, 8427, 9289, 5447, 1960, 8429, 5446
9133, 167, 156, 4100, 4106, 1314, 4102, 4101, 4111, 4110, 8946
9134, 1412, 5879, 186, 4265, 6995, 8884, 1421, 4269, 6996, 4267
9135, 15, 424, 13, 6812, 427, 2178, 432, 9490, 10468, 8868
9136, 433, 424, 15, 6812, 2186, 427, 2185, 10469, 10468, 9490
9137, 415, 13, 424, 6812, 418, 2178, 2179, 9808, 8868, 10468
9138, 433, 15, 17, 6812, 2185, 441, 436, 10469, 9490, 10040
9139, 442, 433, 17, 6812, 2193, 436, 2192, 10470, 10469, 10040
9140, 442, 17, 19, 6812, 2192, 450, 445, 10470, 10040, 10471
9141, 13, 415, 11, 6812, 418, 2171, 423, 8868, 9808, 8869
9142, 19, 21, 442, 6812, 459, 2199, 445, 10471, 10472, 10470
9143, 415, 406, 11, 6812, 2172, 409, 2171, 9808, 9992, 8869
9144, 21, 451, 442, 6812, 454, 2202, 2199, 10472, 10473, 10470
9145, 9, 11, 406, 6812, 414, 409, 2164, 10474, 8869, 9992
9146, 478, 25, 27, 6814, 2220, 486, 481, 10131, 10382, 10381
9147, 487, 478, 27, 6814, 2228, 481, 2227, 10064, 10131, 10381
9148, 29, 487, 27, 6814, 490, 2227, 495, 10355, 10064, 10381
9149, 478, 469, 25, 6814, 2221, 472, 2220, 10131, 10132, 10382
9150, 487, 29, 496, 6814, 490, 2234, 2235, 10064, 10355, 9739
9151, 25, 469, 460, 6814, 472, 2216, 2213, 10382, 10132, 10475
9152, 31, 496, 29, 6814, 499, 2234, 504, 10354, 9739, 10355
9153, 25, 460, 23, 6814, 2213, 463, 477, 10382, 10475, 10476
9154, 505, 496, 31, 6814, 2242, 499, 2241, 10205, 9739, 10354
9155, 505, 31, 33, 6814, 2241, 513, 508, 10205, 10354, 10477
9156, 453, 24, 22, 6818, 2207, 467, 457, 10140, 10211, 10478
9157, 453, 462, 24, 6818, 2209, 466, 2207, 10140, 10139, 10211
9158, 24, 471, 26, 6818, 2214, 475, 476, 10211, 10479, 10123
9159, 24, 462, 471, 6818, 466, 2215, 2214, 10211, 10139, 10479
9160, 16, 435, 18, 6828, 2187, 439, 440, 10406, 9622, 10434
9161, 14, 426, 16, 6828, 2180, 430, 431, 10380, 9848, 10406
9162, 435, 16, 426, 6828, 2187, 430, 2188, 9622, 10406, 9848
9163, 417, 426, 14, 6828, 2181, 2180, 421, 9993, 9848, 10380
9164, 18, 435, 444, 6828, 439, 2195, 2194, 10434, 9622, 9623
9165, 408, 14, 12, 6828, 2173, 422, 412, 10480, 10380, 10074
9166, 408, 417, 14, 6828, 2174, 421, 2173, 10480, 9993, 10380
9167, 10, 408, 12, 6828, 2166, 412, 413, 8570, 10480, 10074
9168, 10, 399, 408, 6828, 403, 2167, 2166, 8570, 9508, 10480
9169, 1188, 1414, 1415, 6890, 4252, 1424, 4253, 9969, 8913, 9470
9170, 5610, 5797, 5784, 5794, 7027, 5848, 7243, 7486, 5850, 5810
9171, 5784, 5797, 5610, 1752, 5848, 7027, 7243, 7245, 7028, 7026
9172, 1417, 1400, 1581, 140, 8241, 8707, 10106, 8242, 1402, 8706
9173, 2849, 3367, 105, 2848, 9680, 10481, 2878, 2879, 9528, 2875
9174, 1799, 186, 1412, 5879, 10121, 1421, 9694, 9499, 8884, 6995
9175, 3069, 3070, 648, 1044, 3091, 10482, 8606, 3104, 3101, 9209
9176, 3200, 3192, 897, 966, 3237, 10045, 10456, 3236, 3232, 2924
9177, 3032, 3029, 2271, 836, 3047, 7775, 8122, 8152, 7772, 7774
9178, 2271, 3029, 3032, 1029, 7775, 3047, 8122, 8101, 3061, 3058
9179, 3070, 3073, 647, 1043, 3088, 8539, 8169, 3102, 3099, 8773
9180, 3070, 647, 3073, 850, 8169, 8539, 3088, 8171, 8170, 8542
9181, 4685, 5357, 1454, 4695, 7186, 8378, 7624, 4769, 7954, 8904
9182, 4685, 1454, 5357, 5356, 7624, 8378, 7186, 7187, 7623, 5415
9183, 151, 1340, 1194, 1261, 1341, 10483, 4056, 1262, 4228, 4057
9184, 151, 1194, 1340, 1419, 4056, 10483, 1341, 10293, 4263, 9869
9185, 152, 1194, 1340, 1261, 4058, 10483, 1342, 1263, 4057, 4228
9186, 152, 1340, 1194, 1419, 1342, 10483, 4058, 10102, 9869, 4263
9187, 5610, 5797, 5594, 6043, 7027, 7431, 5741, 7024, 6941, 7789
9188, 5594, 5797, 5610, 5794, 7431, 7027, 5741, 7432, 5850, 7486
9189, 6851, 4543, 5359, 4541, 7386, 7067, 6946, 6945, 4552, 6942
9190, 6851, 5359, 4543, 6846, 6946, 7067, 7386, 7474, 7068, 6978
9191, 216, 6875, 121, 122, 8150, 10304, 4609, 1614, 8149, 1161
9192, 6832, 333, 353, 354, 8711, 5570, 10287, 8534, 2029, 2030
9193, 159, 1804, 1420, 186, 7691, 9064, 10484, 7690, 7689, 1430
9194, 159, 1195, 1420, 1305, 4014, 4247, 10484, 1307, 6962, 8244
9195, 1420, 1195, 159, 186, 4247, 4014, 10484, 1430, 4245, 7690
9196, 5963, 1434, 5961, 2085, 10448, 9793, 6005, 6000, 5653, 6004
9197, 3207, 3206, 799, 3192, 3264, 10485, 10461, 3261, 3262, 10486
9198, 3207, 799, 3206, 3201, 10461, 10485, 3264, 3272, 10141, 3275
9199, 6894, 3028, 1115, 3112, 7459, 7475, 7400, 7183, 7458, 7399
9200, 6894, 1115, 3028, 1033, 7400, 7475, 7459, 7745, 8524, 3041
9201, 742, 87, 632, 801, 743, 2583, 8756, 9784, 10203, 2625
9202, 742, 632, 87, 708, 8756, 2583, 743, 2603, 2584, 709
9203, 75, 781, 628, 798, 783, 8754, 2555, 10168, 9783, 2637
9204, 75, 628, 781, 669, 2555, 8754, 783, 671, 2554, 2616
9205, 147, 1365, 1192, 1418, 1367, 10487, 4046, 10246, 10226, 4261
9206, 147, 1192, 1365, 1246, 4046, 10487, 1367, 1248, 4045, 4233
9207, 146, 1192, 1365, 1418, 4044, 10487, 1366, 10136, 4261, 10226
9208, 146, 1365, 1192, 1246, 1366, 10487, 4044, 1247, 4233, 4045
9209, 6843, 489, 28, 30, 7347, 2229, 10270, 7340, 493, 494
9210, 6901, 3033, 6867, 1028, 7321, 7728, 7180, 7607, 3040, 7606
9211, 6901, 6867, 3033, 3071, 7180, 7728, 7321, 7134, 7178, 7318
9212, 6849, 5546, 339, 347, 6986, 5549, 10488, 7004, 5552, 2014
9213, 895, 3292, 798, 797, 7664, 10464, 2767, 2765, 10152, 807
9214, 895, 798, 3292, 3279, 2767, 10464, 7664, 7250, 7251, 3356
9215, 1075, 94, 91, 730, 10274, 10455, 10204, 10197, 9887, 731
9216, 6843, 480, 28, 489, 10267, 484, 10270, 7347, 2230, 2229
9217, 757, 83, 630, 693, 759, 2573, 8758, 2608, 695, 2572
9218, 1073, 1074, 1117, 3153, 1080, 10489, 7461, 3188, 3187, 7353
9219, 1073, 1117, 1074, 6830, 7461, 10489, 1080, 8257, 7306, 7630
9220, 1117, 1074, 1056, 3153, 10489, 10490, 7303, 7353, 3187, 7069
9221, 1117, 1056, 1074, 6830, 7303, 10490, 10489, 7306, 7202, 7630
9222, 1056, 1074, 6857, 3153, 10490, 9131, 7204, 7069, 3187, 7225
9223, 1056, 6857, 1074, 6830, 7204, 9131, 10490, 7202, 7206, 7630
9224, 1417, 1436, 5442, 1416, 4281, 9681, 10445, 1426, 4280, 10185
9225, 1417, 5442, 1436, 5437, 10445, 9681, 4281, 7121, 5503, 7120
9226, 797, 1031, 68, 614, 10231, 10080, 10463, 9841, 8456, 616
9227, 1436, 1435, 5445, 1416, 1445, 10491, 9706, 4280, 4278, 10195
9228, 1436, 5445, 1435, 5438, 9706, 10491, 1445, 7831, 5506, 7370
9229, 309, 5546, 1834, 2008, 5550, 6981, 1838, 2009, 5551, 6254
9230, 1834, 5546, 309, 6821, 6981, 5550, 1838, 6983, 6982, 7008
9231, 630, 766, 79, 799, 8759, 767, 2565, 2639, 10342, 10396
9232, 79, 766, 630, 684, 767, 8759, 2565, 685, 2611, 2566
9233, 6884, 4963, 6859, 4961, 7048, 7298, 7078, 7062, 5015, 7434
9234, 6884, 6859, 4963, 6865, 7078, 7298, 7048, 6955, 7075, 7045
9235, 798, 2859, 3282, 3279, 8426, 10492, 10465, 7251, 7023, 6916
9236, 798, 3282, 2859, 1032, 10465, 10492, 8426, 9540, 9510, 7256
9237, 3291, 3282, 2859, 3279, 3352, 10492, 6918, 3355, 6916, 7023
9238, 5971, 359, 335, 355, 5977, 10493, 9924, 5976, 2104, 5573
9239, 5957, 359, 335, 5606, 5974, 10493, 9735, 9945, 5641, 8394
9240, 5957, 335, 359, 355, 9735, 10493, 5974, 5975, 5573, 2104
9241, 1416, 1580, 139, 1405, 10016, 8637, 10447, 8647, 10018, 1407
9242, 1029, 6901, 3032, 6889, 7804, 10494, 3058, 9585, 7322, 8125
9243, 1029, 3032, 6901, 1028, 3058, 10494, 7804, 1035, 3059, 7607
9244, 3033, 3032, 6901, 6889, 3044, 10494, 7321, 7320, 8125, 7322
9245, 3033, 6901, 3032, 1028, 7321, 10494, 3044, 3040, 7607, 3059
9246, 5882, 5883, 6829, 5870, 5942, 8043, 8722, 5939, 5940, 9181
9247, 6829, 5883, 5882, 5877, 8043, 5942, 8722, 9256, 5950, 5943
9248, 977, 3284, 894, 3290, 3314, 10495, 2908, 3309, 3316, 7366
9249, 977, 894, 3284, 895, 2908, 10495, 3314, 2909, 904, 7254
9250, 796, 894, 3284, 3290, 2762, 10495, 7252, 7307, 7366, 3316
9251, 796, 3284, 894, 895, 7252, 10495, 2762, 2766, 7254, 904
9252, 139, 1400, 1416, 1191, 1401, 10496, 10447, 4029, 6963, 4257
9253, 1417, 1416, 1400, 1191, 1426, 10496, 8241, 4258, 4257, 6963
9254, 6834, 4661, 4884, 4676, 7610, 8500, 7714, 7609, 4803, 8422
9255, 6834, 4884, 4661, 4892, 7714, 8500, 7610, 7718, 4904, 7986
9256, 2842, 3280, 3277, 1028, 8168, 3345, 7415, 7414, 7380, 6970
9257, 3277, 3280, 2842, 3287, 3345, 8168, 7415, 3308, 3301, 8164
9258, 6840, 1192, 1380, 144, 8288, 6965, 9192, 9191, 4040, 1382
9259, 6903, 1800, 1832, 5364, 6913, 7467, 10497, 6914, 6912, 7469
9260, 1832, 1800, 6903, 304, 7467, 6913, 10497, 1835, 4998, 9102
9261, 1832, 5023, 6903, 5364, 5026, 7812, 10497, 7469, 8175, 6914
9262, 6903, 5023, 1832, 304, 7812, 5026, 10497, 9102, 5025, 1835
9263, 5793, 5788, 1418, 5799, 5841, 10452, 10294, 5867, 5866, 10451
9264, 498, 34, 515, 507, 2243, 2249, 9963, 2244, 511, 2250
9265, 6856, 4680, 237, 4666, 8462, 4707, 8498, 7577, 4711, 4710
9266, 6856, 237, 4680, 4542, 8498, 4707, 8462, 8936, 4559, 8048
9267, 3416, 1074, 801, 2844, 7627, 8641, 10498, 7626, 7628, 9457
9268, 3416, 3407, 801, 3417, 3485, 9456, 10498, 3488, 3487, 10444
9269, 801, 3407, 3416, 2844, 9456, 3485, 10498, 9457, 8495, 7626
9270, 1208, 186, 1412, 1799, 9944, 1421, 9826, 9857, 10121, 9694
9271, 1208, 1412, 186, 1185, 9826, 1421, 9944, 4018, 4246, 4244
9272, 4112, 6095, 169, 4118, 8179, 6169, 4113, 8181, 8180, 4123
9273, 169, 6095, 4112, 6121, 6169, 8179, 4113, 6165, 6170, 8187
9274, 6869, 1666, 6849, 1662, 9645, 9196, 7190, 9551, 4641, 9189
9275, 5430, 5443, 1417, 1581, 5500, 10499, 10446, 9133, 8811, 10106
9276, 5615, 5443, 1417, 5437, 7426, 10499, 8259, 7049, 5510, 7121
9277, 6863, 1112, 2851, 1047, 7587, 8137, 7859, 7290, 7586, 7858
9278, 6863, 2851, 1112, 6837, 7859, 8137, 7587, 7511, 8508, 7866
9279, 289, 5610, 6820, 1752, 7242, 8160, 7751, 1758, 7026, 8159
9280, 6820, 5610, 289, 5611, 8160, 7242, 7751, 8374, 5768, 8372
9281, 1043, 648, 1044, 795, 8774, 9209, 1050, 8772, 8770, 9902
9282, 1043, 1044, 648, 3070, 1050, 9209, 8774, 3102, 3101, 10482
9283, 4891, 6868, 6820, 289, 7703, 7484, 7778, 4917, 7752, 7751
9284, 6820, 6868, 4891, 6101, 7484, 7703, 7778, 7777, 7297, 7118
9285, 3409, 801, 3416, 1074, 8638, 10498, 3471, 8201, 8641, 7627
9286, 3409, 3416, 801, 3417, 3471, 10498, 8638, 3475, 3488, 10444
9287, 6887, 1840, 310, 1834, 9727, 1843, 10500, 7437, 5047, 5046
9288, 310, 1840, 6887, 4684, 1843, 9727, 10500, 9072, 9488, 8310
9289, 310, 6823, 6887, 1834, 9075, 7438, 10500, 5046, 7227, 7437
9290, 6887, 6823, 310, 4684, 7438, 9075, 10500, 8310, 9076, 9072
9291, 6860, 2837, 3506, 2862, 9726, 10501, 7869, 7870, 2907, 7059
9292, 3497, 3506, 2837, 2862, 3574, 10501, 8985, 7058, 7059, 2907
9293, 452, 339, 6849, 6365, 10502, 10488, 7302, 7300, 9261, 7154
9294, 453, 461, 339, 452, 2212, 10503, 10002, 456, 2210, 10502
9295, 6365, 461, 339, 308, 7867, 10503, 9261, 9262, 10504, 2000
9296, 6365, 339, 461, 452, 9261, 10503, 7867, 7300, 10502, 2210
9297, 6855, 1058, 775, 1059, 7698, 10505, 8345, 7696, 1065, 8344
9298, 799, 775, 1058, 1059, 9975, 10505, 8862, 9323, 8344, 1065
9299, 6856, 4673, 4691, 4677, 7573, 4851, 7694, 7574, 4837, 4815
9300, 6856, 4691, 4673, 6834, 7694, 4851, 7573, 7768, 7267, 7939
9301, 3407, 801, 3415, 899, 9456, 6950, 3448, 7602, 2756, 7237
9302, 3407, 3415, 801, 3417, 3448, 6950, 9456, 3487, 3477, 10444
9303, 389, 379, 4685, 380, 2154, 10506, 8107, 2155, 383, 8106
9304, 2108, 6047, 5439, 238, 6069, 10507, 8875, 9208, 9360, 9752
9305, 2108, 5439, 6047, 5429, 8875, 10507, 6069, 8464, 5453, 9289
9306, 281, 5439, 6047, 238, 5450, 10507, 8427, 4868, 9752, 9360
9307, 281, 6047, 5439, 5429, 8427, 10507, 5450, 5447, 9289, 5453
9308, 6820, 6111, 299, 1803, 7037, 6248, 8537, 7846, 7041, 8688
9309, 6820, 299, 6111, 6096, 8537, 6248, 7037, 7039, 6244, 6249
9310, 6887, 1686, 6823, 4684, 8311, 7971, 7438, 8310, 4716, 9076
9311, 6887, 6823, 1686, 6849, 7438, 7971, 8311, 7439, 7228, 7973
9312, 6867, 2296, 835, 3033, 7727, 8803, 10508, 7728, 7726, 8804
9313, 835, 2296, 6867, 2268, 8803, 7727, 10508, 10509, 2427, 7782
9314, 6867, 2687, 835, 2268, 7781, 2693, 10508, 7782, 7780, 10509
9315, 1662, 6849, 256, 1658, 9189, 10510, 4639, 4638, 7909, 1660
9316, 1662, 256, 6849, 6869, 4639, 10510, 9189, 9551, 9552, 7190
9317, 6871, 256, 6849, 1658, 9497, 10510, 7192, 7910, 1660, 7909
9318, 6871, 6849, 256, 6869, 7192, 10510, 9497, 7193, 7190, 9552
9319, 6867, 2274, 853, 3068, 8298, 9506, 8618, 8139, 8299, 9248
9320, 6867, 853, 2274, 2303, 8618, 9506, 8298, 7568, 9325, 2460
9321, 308, 6365, 462, 307, 9262, 8029, 10020, 1830, 8031, 8032
9322, 462, 6365, 308, 461, 8029, 9262, 10020, 465, 7867, 10504
9323, 3074, 6357, 646, 2272, 7125, 6396, 8604, 7985, 7984, 8712
9324, 3074, 646, 6357, 1042, 8604, 6396, 7125, 3081, 7732, 7123
9325, 6900, 517, 1615, 1618, 8703, 10511, 8550, 7952, 8702, 4604
9326, 6850, 6113, 1581, 6114, 8095, 7765, 8519, 8245, 6279, 7647
9327, 1419, 5790, 1979, 1757, 8153, 5824, 10225, 9960, 8231, 5517
9328, 1419, 1979, 5790, 5800, 10225, 5824, 8153, 8155, 5806, 5826
9329, 189, 6362, 460, 461, 7872, 8081, 8886, 8089, 7922, 464
9330, 460, 6362, 189, 188, 8081, 7872, 8886, 8079, 8083, 1451
9331, 6833, 6883, 6834, 6816, 8283, 7643, 7708, 7707, 7769, 7709
9332, 6834, 6883, 6833, 4887, 7643, 8283, 7708, 7796, 8225, 7797
9333, 5587, 335, 1952, 5971, 8395, 1959, 10512, 9356, 9924, 7923
9334, 1952, 335, 5587, 5607, 1959, 8395, 10512, 7441, 7440, 5769
9335, 1952, 5616, 5587, 5971, 8065, 5766, 10512, 7923, 8066, 9356
9336, 5587, 5616, 1952, 5607, 5766, 8065, 10512, 5769, 5770, 7441
9337, 2264, 54, 86, 748, 2354, 827, 10513, 8518, 2675, 750
9338, 2283, 89, 6857, 739, 7223, 10514, 7140, 9353, 741, 10097
9339, 2283, 6857, 89, 3150, 7140, 10514, 7223, 7129, 7139, 7222
9340, 801, 6857, 89, 739, 9001, 10514, 10079, 10096, 10097, 741
9341, 801, 89, 6857, 3150, 10079, 10514, 9001, 9535, 7222, 7139
9342, 882, 3150, 2301, 3151, 9569, 10515, 9476, 9478, 3180, 9381
9343, 882, 2301, 3150, 2263, 9476, 10515, 9569, 9568, 2370, 7130
9344, 58, 2301, 3150, 3151, 2368, 10515, 8843, 9383, 9381, 3180
9345, 58, 3150, 2301, 2263, 8843, 10515, 2368, 2366, 7130, 2370
9346, 295, 6859, 6838, 4886, 7562, 8012, 9333, 9054, 7961, 8013
9347, 5019, 5018, 6823, 5022, 5056, 10516, 10214, 5052, 5066, 8597
9348, 5019, 6823, 5018, 6873, 10214, 10516, 5056, 9745, 10245, 9950
9349, 5021, 6823, 5018, 5022, 7226, 10516, 5067, 5065, 8597, 5066
9350, 5021, 5018, 6823, 6873, 5067, 10516, 7226, 10072, 9950, 10245
9351, 4291, 4288, 6824, 4292, 4337, 10517, 8576, 4333, 4336, 8575
9352, 4291, 6824, 4288, 6881, 8576, 10517, 4337, 10076, 10253, 9954
9353, 4289, 6824, 4288, 4292, 10217, 10517, 4326, 4322, 8575, 4336
9354, 4289, 4288, 6824, 6881, 4326, 10517, 10217, 9756, 9954, 10253
9355, 2108, 5589, 2060, 6046, 8651, 5724, 6067, 6068, 8652, 6060
9356, 2060, 5589, 2108, 5598, 5724, 8651, 6067, 5731, 5730, 8463
9357, 6849, 435, 434, 425, 10518, 438, 9374, 9558, 2191, 2189
9358, 426, 6849, 435, 347, 10519, 10518, 2188, 10520, 7004, 10521
9359, 426, 435, 6849, 425, 2188, 10518, 10519, 429, 2191, 9558
9360, 5969, 5618, 5597, 5593, 6926, 5775, 7219, 6925, 5663, 5762
9361, 5969, 5597, 5618, 6852, 7219, 5775, 6926, 7753, 7541, 7754
9362, 5796, 5799, 1418, 5785, 5855, 10451, 10295, 5852, 5853, 10201
9363, 1418, 5799, 5796, 5793, 10451, 5855, 10295, 10294, 5867, 5858
9364, 5021, 6873, 6849, 6869, 10072, 10522, 7002, 7189, 10071, 7190
9365, 5021, 6849, 6873, 6823, 7002, 10522, 10072, 7226, 7228, 10245
9366, 3420, 793, 6837, 2846, 7531, 8977, 9151, 8484, 9203, 9538
9367, 3420, 6837, 793, 1071, 9151, 8977, 7531, 7533, 7510, 7532
9368, 4291, 6881, 6849, 6824, 10076, 10523, 7800, 8576, 10253, 7891
9369, 4291, 6849, 6881, 6877, 7800, 10523, 10076, 8790, 8789, 10077
9370, 5970, 5597, 5595, 5959, 7538, 5727, 7349, 6028, 7218, 7350
9371, 5595, 5597, 5970, 2059, 5727, 7538, 7349, 5717, 5725, 8815
9372, 5546, 6849, 6870, 6821, 6986, 10524, 10242, 6982, 6985, 10243
9373, 1627, 6849, 6870, 6365, 7155, 10524, 9111, 6381, 7154, 9109
9374, 189, 6849, 6878, 6362, 7873, 8239, 9592, 7872, 7508, 8238
9375, 462, 6365, 327, 328, 8029, 10525, 10526, 8028, 8030, 1861
9376, 327, 6365, 462, 471, 10525, 8029, 10526, 10057, 8216, 2215
9377, 835, 2268, 557, 2296, 10509, 2379, 2696, 8803, 2427, 2426
9378, 557, 2268, 835, 2687, 2379, 10509, 2696, 2691, 7780, 2693
9379, 6820, 6841, 1325, 154, 8620, 9399, 10527, 7749, 8964, 1326
9380, 1325, 1194, 6820, 154, 6964, 7479, 10527, 1326, 4062, 7749
9381, 6849, 1650, 6871, 1654, 9148, 9611, 7192, 7908, 4632, 7911
9382, 6887, 1454, 372, 364, 7625, 8236, 8718, 9806, 9319, 2142
9383, 91, 632, 801, 733, 2542, 2625, 10528, 735, 8752, 9730
9384, 1454, 1212, 6887, 372, 8234, 10529, 7625, 8236, 6803, 8718
9385, 1454, 6887, 1212, 5356, 7625, 10529, 8234, 7623, 6929, 7876
9386, 5361, 6887, 1212, 372, 7083, 10529, 7875, 9788, 8718, 6803
9387, 5361, 1212, 6887, 5356, 7875, 10529, 7083, 5403, 7876, 6929
9388, 6849, 416, 426, 425, 8439, 2183, 10519, 9558, 2184, 429
9389, 6864, 2292, 839, 2281, 9023, 9696, 9286, 9204, 2323, 9602
9390, 6864, 839, 2292, 3030, 9286, 9696, 9023, 9025, 9560, 9021
9391, 648, 647, 3070, 6358, 653, 8169, 10482, 6402, 6401, 9081
9392, 648, 3070, 647, 1043, 10482, 8169, 653, 8774, 3102, 8773
9393, 109, 1114, 2848, 3367, 8619, 8801, 10530, 9940, 3389, 9528
9394, 2848, 1114, 109, 3280, 8801, 8619, 10530, 9100, 8167, 9976
9395, 1028, 6867, 109, 3033, 7606, 7759, 1034, 3040, 7728, 3036
9396, 109, 6867, 1028, 1114, 7759, 7606, 1034, 8619, 7605, 7604
9397, 6819, 6436, 349, 6423, 7524, 6575, 9615, 7501, 6584, 6583
9398, 5969, 5970, 6852, 5967, 6031, 7539, 7753, 6039, 6034, 8926
9399, 5969, 6852, 5970, 5959, 7753, 7539, 6031, 6029, 7540, 6028
9400, 5872, 5883, 1803, 5600, 5949, 8039, 10531, 8352, 8038, 8040
9401, 1803, 5883, 5872, 5875, 8039, 5949, 10531, 8387, 5941, 5948
9402, 1803, 1420, 5872, 5600, 9065, 8202, 10531, 8040, 9386, 8352
9403, 5872, 1420, 1803, 5875, 8202, 9065, 10531, 5948, 9066, 8387
9404, 4265, 5869, 187, 5880, 7600, 10362, 4268, 8057, 5897, 9823
9405, 4265, 187, 5869, 186, 4268, 10362, 7600, 4267, 1431, 7445
9406, 303, 134, 1799, 186, 10209, 10532, 1805, 10122, 9990, 10121
9407, 303, 1799, 134, 6468, 1805, 10532, 10209, 9874, 9873, 6557
9408, 1208, 1799, 134, 186, 9857, 10532, 1209, 9944, 10121, 9990
9409, 1208, 134, 1799, 6468, 1209, 10532, 9857, 7395, 6557, 9873
9410, 6846, 2109, 2108, 238, 7276, 2115, 7325, 7402, 7466, 9208
9411, 6846, 2108, 2109, 6082, 7325, 2115, 7276, 7798, 6087, 6088
9412, 1875, 6365, 470, 6356, 6383, 7494, 10533, 6384, 6413, 7493
9413, 470, 6365, 1875, 471, 7494, 6383, 10533, 474, 8216, 10534
9414, 6885, 6452, 6832, 6454, 6932, 10535, 9582, 6933, 6768, 8794
9415, 6885, 6832, 6452, 6862, 9582, 10535, 6932, 8049, 9593, 7030
9416, 6453, 6832, 6452, 6454, 8795, 10535, 6760, 6767, 8794, 6768
9417, 6453, 6452, 6832, 6862, 6760, 10535, 8795, 8279, 7030, 9593
9418, 85, 3110, 2276, 751, 7658, 7017, 10536, 753, 8697, 8696
9419, 2276, 3110, 85, 2264, 7017, 7658, 10536, 2355, 7019, 7657
9420, 2276, 53, 85, 751, 2352, 829, 10536, 8696, 2679, 753
9421, 85, 53, 2276, 2264, 829, 2352, 10536, 7657, 2353, 2355
9422, 6811, 210, 6875, 213, 10014, 10537, 9789, 10015, 1489, 8148
9423, 6811, 6875, 210, 6831, 9789, 10537, 10014, 10049, 10119, 7930
9424, 123, 6875, 210, 213, 8189, 10537, 4342, 1490, 8148, 1489
9425, 337, 289, 356, 5800, 5514, 10538, 2097, 5803, 10215, 5804
9426, 1419, 289, 356, 5586, 8371, 10538, 10220, 9707, 9708, 5634
9427, 1419, 356, 289, 5800, 10220, 10538, 8371, 8155, 5804, 10215
9428, 1193, 5790, 1345, 150, 9445, 10539, 6966, 4053, 8229, 1346
9429, 1757, 1345, 5790, 150, 9949, 10539, 8231, 8233, 1346, 8229
9430, 6881, 1670, 6849, 6824, 9245, 9140, 10523, 10253, 9138, 7891
9431, 2261, 3069, 3070, 648, 7378, 3091, 8392, 8608, 8606, 10482
9432, 2261, 3070, 3069, 851, 8392, 3091, 7378, 7377, 8391, 7376
9433, 5586, 289, 5610, 5611, 9708, 7242, 5767, 5688, 8372, 5768
9434, 5586, 5610, 289, 5784, 5767, 7242, 9708, 7487, 7243, 7244
9435, 6849, 189, 451, 452, 7873, 8885, 8916, 7302, 7871, 455
9436, 6849, 451, 189, 212, 8916, 8885, 7873, 10540, 10081, 1487
9437, 6887, 398, 4685, 389, 9489, 10541, 7188, 8109, 2163, 8107
9438, 6887, 4685, 398, 6849, 7188, 10541, 9489, 7439, 7890, 9216
9439, 1453, 4685, 398, 389, 7889, 10541, 8925, 8923, 8107, 2163
9440, 1453, 398, 4685, 6849, 8925, 10541, 7889, 7801, 9216, 7890
9441, 3661, 1615, 118, 1618, 8549, 4603, 3783, 7950, 4604, 1619
9442, 118, 1615, 3661, 3646, 4603, 8549, 3783, 3779, 8548, 3782
9443, 347, 453, 443, 444, 10003, 2205, 10542, 10543, 2201, 447
9444, 5617, 5795, 5596, 5592, 6923, 7052, 5772, 5685, 6921, 5715
9445, 5617, 5596, 5795, 6844, 5772, 7052, 6923, 8425, 7894, 8132
9446, 71, 797, 626, 627, 10442, 2633, 2547, 2546, 2634, 638
9447, 1754, 6883, 6844, 1753, 7947, 10544, 8406, 1760, 7946, 9866
9448, 1754, 6844, 6883, 2109, 8406, 10544, 7947, 8405, 8053, 7275
9449, 2110, 6844, 6883, 1753, 9037, 10544, 8694, 8881, 9866, 7946
9450, 2110, 6883, 6844, 2109, 8694, 10544, 9037, 2116, 7275, 8053
9451, 6890, 5358, 1949, 1950, 7143, 5405, 8912, 7141, 5404, 1956
9452, 6890, 1949, 5358, 1455, 8912, 5405, 7143, 9118, 8523, 8522
9453, 417, 416, 6849, 1834, 420, 8439, 10545, 8984, 8436, 6984
9454, 6849, 416, 417, 426, 8439, 420, 10545, 10519, 2183, 2181
9455, 417, 6849, 347, 1834, 10545, 7004, 10546, 8984, 6984, 7003
9456, 347, 6849, 417, 426, 7004, 10545, 10546, 10520, 10519, 2181
9457, 417, 347, 346, 1834, 10546, 2013, 9867, 8984, 7003, 8514
9458, 191, 1455, 5358, 4293, 1459, 8522, 7700, 4310, 4312, 7161
9459, 191, 5358, 1455, 6890, 7700, 8522, 1459, 7748, 7143, 9118
9460, 6882, 158, 1420, 1310, 10547, 8243, 9959, 10272, 1312, 9971
9461, 799, 3192, 3200, 3207, 10486, 3237, 10457, 10461, 3261, 3260
9462, 799, 3200, 3192, 897, 10457, 3237, 10486, 2772, 10456, 10045
9463, 6356, 498, 331, 329, 9041, 9749, 8221, 8222, 9750, 1867
9464, 517, 219, 1615, 1618, 8787, 1617, 10511, 8702, 4605, 4604
9465, 6890, 6046, 5367, 6852, 8653, 10548, 7142, 7472, 8671, 7470
9466, 6890, 5367, 6046, 2108, 7142, 10548, 8653, 7666, 7323, 6068
9467, 2107, 5367, 6046, 6852, 7682, 10548, 6064, 7756, 7470, 8671
9468, 2107, 6046, 5367, 2108, 6064, 10548, 7682, 2114, 6068, 7323
9469, 6904, 1752, 6859, 2111, 9363, 7563, 7101, 7996, 7917, 7921
9470, 6904, 6859, 1752, 4890, 7101, 7563, 9363, 8246, 7564, 4928
9471, 1216, 1415, 5428, 1578, 9852, 10549, 10550, 9690, 9485, 9673
9472, 2264, 86, 111, 748, 10513, 9431, 7102, 8518, 750, 8517
9473, 6900, 3716, 6364, 3661, 9266, 8918, 7951, 7953, 3771, 7949
9474, 6900, 6364, 3716, 2290, 7951, 8918, 9266, 8442, 8441, 8921
9475, 6883, 280, 1582, 4544, 8661, 9764, 7591, 7403, 9689, 4566
9476, 6883, 1582, 280, 283, 7591, 9764, 8661, 7592, 7590, 1744
9477, 480, 332, 1875, 6356, 9391, 5084, 10551, 8797, 9393, 6384
9478, 1875, 332, 480, 333, 5084, 9391, 10551, 5085, 1869, 10065
9479, 6885, 2022, 6424, 2018, 7852, 9461, 8019, 8490, 5565, 9760
9480, 6885, 6424, 2022, 6439, 8019, 9461, 7852, 7854, 6591, 7836
9481, 6858, 397, 7, 388, 10552, 2157, 8562, 8564, 2158, 391
9482, 6824, 4685, 193, 235, 7887, 10553, 10086, 9080, 4699, 9880
9483, 6824, 193, 4685, 1453, 10086, 10553, 7887, 7888, 4316, 7889
9484, 1462, 193, 4685, 235, 1465, 10553, 8690, 4535, 9880, 4699
9485, 1462, 4685, 193, 1453, 8690, 10553, 1465, 4317, 7889, 4316
9486, 94, 69, 622, 70, 10227, 2538, 2622, 2621, 621, 633
9487, 183, 4202, 6113, 6118, 4207, 7762, 6204, 6208, 7659, 6209
9488, 6849, 451, 243, 442, 8916, 10554, 8339, 8915, 2202, 9277
9489, 6849, 243, 451, 212, 8339, 10554, 8916, 10540, 1606, 10081
9490, 6808, 451, 243, 212, 10082, 10554, 10062, 10063, 10081, 1606
9491, 68, 790, 797, 628, 791, 10555, 10463, 2536, 8753, 2635
9492, 798, 797, 790, 628, 807, 10555, 9728, 2637, 2635, 8753
9493, 3682, 6858, 1170, 3680, 9338, 9922, 3832, 3726, 9012, 3835
9494, 1170, 6858, 3682, 6135, 9922, 9338, 3832, 6262, 9339, 9336
9495, 5885, 5881, 6836, 5878, 5934, 8317, 9036, 5946, 5952, 9112
9496, 5885, 6836, 5881, 5868, 9036, 8317, 5934, 5930, 9394, 5933
9497, 83, 754, 631, 696, 755, 10556, 2574, 697, 2607, 2575
9498, 83, 631, 754, 800, 2574, 10556, 755, 10410, 2641, 10411
9499, 84, 631, 754, 696, 2576, 10556, 756, 698, 2575, 2607
9500, 84, 754, 631, 800, 756, 10556, 2576, 10402, 10411, 2641
9501, 461, 462, 339, 308, 465, 10557, 10503, 10504, 10020, 2000
9502, 461, 339, 462, 453, 10503, 10557, 465, 2212, 10002, 2209
9503, 6813, 339, 462, 308, 9829, 10557, 9988, 9710, 2000, 10020
9504, 6813, 462, 339, 453, 9988, 10557, 9829, 10004, 2209, 10002
9505, 6849, 452, 347, 339, 7302, 10558, 7004, 10488, 10502, 2014
9506, 6849, 347, 452, 443, 7004, 10558, 7302, 8914, 10542, 2203
9507, 453, 347, 452, 339, 10003, 10558, 456, 10002, 2014, 10502
9508, 453, 452, 347, 443, 456, 10558, 10003, 2205, 2203, 10542
9509, 2861, 3198, 2840, 2836, 6990, 8471, 3016, 2929, 6988, 2945
9510, 2861, 2840, 3198, 6866, 3016, 8471, 6990, 7899, 9385, 7900
9511, 5075, 334, 6365, 327, 5081, 10559, 9171, 5080, 1871, 10525
9512, 5075, 6365, 334, 1875, 9171, 10559, 5081, 5078, 6383, 10437
9513, 471, 6365, 334, 327, 8216, 10559, 10058, 10057, 10525, 1871
9514, 471, 334, 6365, 1875, 10058, 10559, 8216, 10534, 10437, 6383
9515, 5961, 1414, 5963, 5973, 10291, 10449, 6005, 6035, 9465, 6026
9516, 5961, 5963, 1414, 1434, 6005, 10449, 10291, 9793, 10448, 4276
9517, 3418, 3416, 6830, 3403, 3474, 7631, 8256, 3473, 3470, 8596
9518, 6830, 3416, 3418, 3412, 7631, 3474, 8256, 8974, 3486, 3480
9519, 6844, 5614, 6897, 6826, 8832, 9078, 7597, 8407, 9449, 8993
9520, 6844, 6897, 5614, 5588, 7597, 9078, 8832, 7595, 7596, 5774
9521, 470, 6356, 6355, 479, 7493, 6415, 8063, 2224, 8798, 9058
9522, 470, 6355, 6356, 6361, 8063, 6415, 7493, 7492, 6417, 6416
9523, 1043, 647, 794, 1042, 8773, 8583, 10467, 1049, 7733, 8582
9524, 6868, 4894, 288, 6112, 8114, 4919, 10560, 7702, 9475, 6237
9525, 288, 4894, 6868, 289, 4919, 8114, 10560, 1751, 4920, 7752
9526, 288, 4891, 6868, 6112, 4918, 7703, 10560, 6237, 7701, 7702
9527, 6868, 4891, 288, 289, 7703, 4918, 10560, 7752, 4917, 1751
9528, 3418, 3419, 115, 3406, 3484, 8877, 9013, 3481, 3482, 8878
9529, 115, 3419, 3418, 3410, 8877, 3484, 9013, 9343, 3466, 3472
9530, 6881, 1670, 232, 231, 9245, 4646, 10431, 9246, 1671, 1553
9531, 6881, 232, 1670, 6824, 10431, 4646, 9245, 10253, 9638, 9138
9532, 6849, 6873, 1674, 1670, 10522, 10561, 8047, 9140, 9255, 4647
9533, 6849, 1674, 6873, 6823, 8047, 10561, 10522, 7228, 8046, 10245
9534, 259, 1674, 6873, 1670, 4648, 10561, 9254, 1672, 4647, 9255
9535, 79, 769, 629, 799, 771, 10562, 2564, 10396, 10387, 2638
9536, 79, 629, 769, 681, 2564, 10562, 771, 683, 2563, 2612
9537, 78, 629, 769, 799, 2562, 10562, 770, 10361, 2638, 10387
9538, 78, 769, 629, 681, 770, 10562, 2562, 682, 2612, 2563
9539, 6830, 2854, 3361, 1117, 7305, 10563, 8258, 7306, 7304, 3375
9540, 6830, 3361, 2854, 2845, 8258, 10563, 7305, 8217, 9653, 2989
9541, 993, 3361, 2854, 1117, 3373, 10563, 2986, 3400, 3375, 7304
9542, 993, 2854, 3361, 2845, 2986, 10563, 3373, 2988, 2989, 9653
9543, 6849, 398, 1834, 407, 9216, 10564, 6984, 8438, 2170, 8437
9544, 6849, 1834, 398, 6887, 6984, 10564, 9216, 7439, 7437, 9489
9545, 408, 1834, 398, 407, 8983, 10564, 2169, 411, 8437, 2170
9546, 3204, 799, 3197, 3206, 10244, 9163, 10565, 3263, 10485, 3274
9547, 3197, 799, 3204, 2836, 9163, 10244, 10565, 6987, 9164, 9269
9548, 3197, 3198, 3204, 3206, 3256, 3230, 10565, 3274, 3273, 3263
9549, 3204, 3198, 3197, 2836, 3230, 3256, 10565, 9269, 6988, 6987
9550, 516, 330, 329, 6356, 8459, 1866, 10566, 8460, 6385, 8222
9551, 329, 330, 516, 515, 1866, 8459, 10566, 8786, 8785, 519
9552, 329, 498, 516, 6356, 9750, 9043, 10566, 8222, 9041, 8460
9553, 516, 498, 329, 515, 9043, 9750, 10566, 519, 9963, 8786
9554, 2286, 648, 3070, 6358, 8622, 10482, 8172, 8594, 6402, 9081
9555, 2286, 3070, 648, 2261, 8172, 10482, 8622, 2446, 8392, 8608
9556, 6355, 496, 218, 487, 9396, 9998, 9438, 9341, 2235, 9997
9557, 6494, 2273, 646, 2127, 8981, 9268, 9584, 6618, 9312, 6394
9558, 6494, 646, 2273, 2282, 9584, 9268, 8981, 8980, 8098, 2423
9559, 3, 6458, 373, 6456, 6503, 10567, 377, 6499, 6504, 9249
9560, 3, 373, 6458, 6786, 377, 10567, 6503, 6788, 6787, 9702
9561, 6133, 373, 6458, 6456, 9250, 10567, 9201, 7005, 9249, 6504
9562, 1116, 3205, 3362, 992, 8445, 7473, 3398, 3397, 8998, 3396
9563, 1116, 3362, 3205, 3208, 3398, 7473, 8445, 8446, 7044, 3270
9564, 517, 6355, 219, 215, 8880, 9437, 8787, 8788, 6374, 1501
9565, 6891, 3699, 3679, 3701, 9804, 4001, 8874, 8306, 4002, 4000
9566, 6891, 3679, 3699, 6874, 8874, 4001, 9804, 8749, 7790, 7791
9567, 406, 1453, 398, 397, 9442, 8925, 2168, 2165, 8922, 401
9568, 406, 398, 1453, 6849, 2168, 8925, 9442, 9217, 9216, 7801
9569, 6849, 6869, 1670, 1666, 7190, 10568, 9140, 9196, 9645, 4644
9570, 6849, 1670, 6869, 6873, 9140, 10568, 7190, 10522, 9255, 10071
9571, 258, 1670, 6869, 1666, 4645, 10568, 9644, 1668, 4644, 9645
9572, 258, 6869, 1670, 6873, 9644, 10568, 4645, 9253, 10071, 9255
9573, 2286, 215, 516, 517, 8595, 8738, 2406, 2407, 8788, 520
9574, 2286, 516, 215, 6358, 2406, 8738, 8595, 8594, 8739, 6378
9575, 6849, 190, 6879, 4291, 7802, 9889, 8791, 7800, 4307, 8792
9576, 6849, 6879, 190, 6822, 8791, 9889, 7802, 9232, 9530, 10218
9577, 3281, 105, 109, 114, 3297, 10569, 9635, 3296, 1110, 3577
9578, 2848, 105, 109, 3367, 2875, 10569, 10530, 9528, 10481, 9940
9579, 2830, 111, 2854, 2855, 9883, 10570, 3011, 2932, 7547, 3012
9580, 2830, 2854, 111, 3193, 3011, 10570, 9883, 7935, 7381, 9980
9581, 1056, 111, 2854, 3193, 1062, 10570, 7173, 7128, 9980, 7381
9582, 6849, 1623, 6878, 1627, 9231, 9598, 8239, 7155, 4611, 8237
9583, 6849, 6878, 1623, 6822, 8239, 9598, 9231, 9232, 10427, 9229
9584, 6877, 6849, 1670, 1666, 8789, 9140, 10571, 9197, 9196, 4644
9585, 1670, 6849, 6877, 6881, 9140, 8789, 10571, 9245, 10523, 10077
9586, 1670, 230, 6877, 1666, 4643, 9650, 10571, 4644, 1667, 9197
9587, 6877, 230, 1670, 6881, 9650, 4643, 10571, 10077, 9244, 9245
9588, 6838, 297, 6859, 295, 9154, 7920, 8012, 9333, 1791, 7562
9589, 6838, 6859, 297, 6815, 8012, 7920, 9154, 8069, 8068, 9152
9590, 6808, 6817, 6831, 245, 8691, 10572, 10050, 8764, 8765, 10573
9591, 6808, 6831, 6817, 6842, 10050, 10572, 8691, 8692, 8883, 8433
9592, 126, 6817, 6831, 6842, 10574, 10572, 9096, 9405, 8433, 8883
9593, 793, 645, 94, 1070, 9287, 10575, 802, 8494, 8895, 10228
9594, 793, 94, 645, 622, 802, 10575, 9287, 2624, 2622, 2541
9595, 69, 94, 645, 1070, 10227, 10575, 650, 10111, 10228, 8895
9596, 69, 645, 94, 622, 650, 10575, 10227, 2538, 2541, 2622
9597, 90, 3150, 58, 736, 10576, 8843, 819, 738, 8701, 2659
9598, 5973, 5972, 1414, 5956, 6020, 10290, 9465, 6017, 6018, 9464
9599, 5973, 1414, 5972, 5961, 9465, 10290, 6020, 6035, 10291, 6037
9600, 614, 3031, 38, 67, 8274, 9083, 2529, 615, 9211, 613
9601, 614, 38, 3031, 838, 2529, 9083, 8274, 8272, 9668, 8273
9602, 3151, 727, 60, 98, 9019, 2648, 9576, 9020, 9018, 9662
9603, 3151, 60, 727, 92, 9576, 2648, 9019, 9654, 814, 728
9604, 6876, 3666, 6858, 3705, 9126, 9218, 9933, 9127, 3936, 9257
9605, 6876, 6858, 3666, 6825, 9933, 9218, 9126, 9805, 8267, 8674
9606, 6858, 4, 3682, 6785, 9175, 3724, 9338, 9173, 6790, 9337
9607, 6858, 3682, 4, 3680, 9338, 3724, 9175, 9012, 3726, 3722
9608, 216, 1491, 487, 478, 4352, 10577, 10026, 10027, 8530, 2228
9609, 216, 487, 1491, 217, 10026, 10577, 4352, 1498, 10006, 4353
9610, 6355, 487, 1491, 478, 9341, 10577, 6375, 8529, 2228, 8530
9611, 6861, 328, 6813, 6832, 9241, 9989, 9711, 10124, 8667, 10085
9612, 6861, 6813, 328, 307, 9711, 9989, 9241, 8497, 9709, 1862
9613, 35, 31, 6814, 33, 3764, 10354, 10578, 514, 513, 10477
9614, 6814, 31, 35, 6900, 10354, 3764, 10578, 9743, 10356, 9265
9615, 6814, 505, 35, 33, 10205, 2248, 10578, 10477, 508, 514
9616, 517, 35, 6814, 505, 521, 10578, 10098, 2251, 2248, 10205
9617, 6814, 35, 517, 6900, 10578, 521, 10098, 9743, 9265, 8703
9618, 1029, 6889, 2271, 796, 9585, 7333, 8101, 7310, 8335, 8334
9619, 2271, 6889, 1029, 3032, 7333, 9585, 8101, 8122, 8125, 3058
9620, 283, 6833, 6883, 285, 9373, 8283, 7592, 1747, 8282, 7948
9621, 6883, 6833, 283, 6816, 8283, 9373, 7592, 7769, 7707, 9290
9622, 5442, 5445, 1416, 5431, 5507, 10195, 10185, 5504, 5505, 10261
9623, 5442, 1416, 5445, 5434, 10185, 10195, 5507, 5498, 10184, 5491
9624, 5885, 5882, 362, 5874, 5947, 9214, 8849, 5931, 5938, 9502
9625, 362, 5882, 5885, 5871, 9214, 5947, 8849, 8847, 5944, 5945
9626, 1355, 1418, 5790, 5785, 10579, 10450, 10580, 10581, 10201, 5825
9627, 5790, 1418, 1355, 1193, 10450, 10579, 10580, 9445, 4260, 10130
9628, 1355, 5790, 1756, 5785, 10580, 8413, 10143, 10581, 5825, 9563
9629, 1418, 1360, 148, 1193, 10187, 1362, 10582, 4260, 6967, 4049
9630, 1418, 148, 1355, 1193, 10582, 1356, 10579, 4260, 4049, 10130
9631, 341, 328, 6832, 342, 5543, 8667, 10583, 2004, 2005, 8609
9632, 6832, 328, 341, 6861, 8667, 5543, 10583, 10124, 9241, 8163
9633, 6832, 6469, 341, 342, 8780, 6567, 10583, 8609, 6566, 2004
9634, 341, 6469, 6832, 6861, 6567, 8780, 10583, 8163, 9406, 10124
9635, 6829, 5610, 6041, 2111, 8432, 10584, 8724, 8430, 8158, 6055
9636, 6829, 6041, 5610, 5601, 8724, 10584, 8432, 8489, 9659, 5745
9637, 2063, 6041, 5610, 2111, 6053, 10584, 5742, 6080, 6055, 8158
9638, 2063, 5610, 6041, 5601, 5742, 10584, 6053, 5744, 5745, 9659
9639, 6815, 301, 4964, 299, 9273, 4983, 8228, 8521, 1797, 7879
9640, 6815, 4964, 301, 4961, 8228, 4983, 9273, 8060, 4986, 4977
9641, 6855, 778, 2257, 2287, 9895, 10585, 7234, 7233, 9344, 2332
9642, 6855, 2257, 778, 75, 7234, 10585, 9895, 10169, 10586, 779
9643, 43, 2257, 778, 2287, 2328, 10585, 2658, 2330, 2332, 9344
9644, 43, 778, 2257, 75, 2658, 10585, 2328, 818, 779, 10586
9645, 76, 775, 798, 629, 776, 10587, 9733, 2558, 10208, 2636
9646, 799, 798, 775, 629, 808, 10587, 9975, 2638, 2636, 10208
9647, 6826, 280, 6104, 1582, 9765, 6218, 8207, 8248, 9764, 9317
9648, 6826, 6104, 280, 6090, 8207, 6218, 9765, 8208, 6226, 6225
9649, 5798, 5795, 6844, 5783, 5847, 8132, 7893, 5846, 5843, 9463
9650, 6844, 5795, 5798, 5792, 8132, 5847, 7893, 7892, 5857, 5861
9651, 6887, 364, 4685, 1454, 9806, 10588, 7188, 7625, 9319, 7624
9652, 6887, 4685, 364, 380, 7188, 10588, 9806, 8108, 8106, 2149
9653, 379, 4685, 364, 1454, 10506, 10588, 2147, 9321, 7624, 9319
9654, 379, 364, 4685, 380, 2147, 10588, 10506, 383, 2149, 8106
9655, 745, 55, 2258, 87, 2671, 2359, 10589, 747, 825, 8933
9656, 2258, 55, 745, 2284, 2359, 2671, 10589, 2361, 2357, 9408
9657, 2258, 6857, 745, 87, 7436, 10590, 10589, 8933, 8934, 747
9658, 745, 6857, 2258, 2284, 10590, 7436, 10589, 9408, 7150, 2361
9659, 1056, 1116, 3199, 3362, 9561, 8506, 7122, 6937, 3398, 7043
9660, 3199, 1116, 1056, 1057, 8506, 9561, 7122, 8072, 7877, 1063
9661, 1047, 1113, 3496, 1046, 9562, 8867, 7167, 1053, 7620, 8589
9662, 3496, 1113, 1047, 3364, 8867, 9562, 7167, 6949, 3383, 7408
9663, 2297, 878, 3154, 879, 9574, 8668, 8035, 9168, 885, 9169
9664, 2297, 3154, 878, 2278, 8035, 8668, 9574, 2463, 8120, 8891
9665, 6870, 1623, 6849, 1627, 9594, 9231, 10524, 9111, 4611, 7155
9666, 739, 6857, 2258, 88, 10097, 7436, 10591, 740, 8900, 8897
9667, 2258, 6857, 739, 2283, 7436, 10097, 10591, 2364, 7140, 9353
9668, 2258, 56, 739, 88, 2360, 2664, 10591, 8897, 823, 740
9669, 739, 56, 2258, 2283, 2664, 2360, 10591, 9353, 2362, 2364
9670, 54, 745, 2264, 86, 2672, 10592, 2354, 827, 746, 10513
9671, 54, 2264, 745, 2284, 2354, 10592, 2672, 2356, 2358, 9408
9672, 6857, 745, 2264, 2284, 10590, 10592, 7151, 7150, 9408, 2358
9673, 6849, 6879, 1646, 1650, 8791, 10593, 8412, 9148, 9149, 4629
9674, 226, 1646, 6879, 1650, 4628, 10593, 9613, 1651, 4629, 9149
9675, 5444, 5599, 2109, 5605, 8976, 8642, 8890, 8889, 5705, 8888
9676, 5444, 2109, 5599, 6897, 8890, 8642, 8976, 9524, 8054, 7982
9677, 284, 5319, 4885, 286, 5325, 9676, 10594, 1749, 5326, 4909
9678, 4885, 5319, 284, 6833, 9676, 5325, 10594, 7635, 9472, 9402
9679, 4885, 4887, 284, 286, 4910, 9401, 10594, 4909, 4906, 1749
9680, 284, 4887, 4885, 6833, 9401, 4910, 10594, 9402, 7797, 7635
9681, 1951, 6045, 2106, 1952, 8056, 6059, 8017, 1958, 7925, 7502
9682, 2106, 6045, 1951, 2107, 6059, 8056, 8017, 2113, 6063, 7683
9683, 212, 4588, 6849, 243, 4592, 8338, 10540, 1606, 4594, 8339
9684, 239, 1574, 6883, 4540, 4569, 7410, 9342, 4567, 4570, 8390
9685, 239, 6883, 1574, 4544, 9342, 7410, 4569, 4571, 7403, 4564
9686, 649, 2298, 648, 796, 9144, 8930, 654, 9358, 8333, 9355
9687, 649, 648, 2298, 3715, 654, 8930, 9144, 9143, 9300, 9141
9688, 244, 243, 415, 1453, 1607, 10595, 9807, 8515, 8336, 9441
9689, 6849, 415, 243, 1453, 9443, 10595, 8339, 7801, 9441, 8336
9690, 6849, 243, 415, 424, 8339, 10595, 9443, 9468, 9467, 2179
9691, 1189, 1216, 1416, 1190, 4025, 10596, 4256, 1201, 4009, 4255
9692, 133, 1216, 1416, 5428, 1218, 10596, 10435, 10597, 10550, 10194
9693, 133, 1416, 1216, 1190, 10435, 10596, 1218, 4008, 4255, 4009
9694, 1840, 5363, 6887, 1705, 9357, 8376, 9727, 5263, 9185, 9186
9695, 6887, 5363, 1840, 1833, 8376, 9357, 9727, 8728, 8665, 5064
9696, 6043, 1753, 2111, 1752, 8301, 9570, 6081, 7025, 1759, 7917
9697, 6043, 2111, 1753, 2110, 6081, 9570, 8301, 6079, 2117, 8881
9698, 6855, 781, 2257, 75, 10053, 10598, 7234, 10169, 783, 10586
9699, 6855, 2257, 781, 6864, 7234, 10598, 10053, 8614, 8364, 9701
9700, 43, 2257, 781, 75, 2328, 10598, 2653, 818, 10586, 783
9701, 43, 781, 2257, 6864, 2653, 10598, 2328, 9205, 9701, 8364
9702, 2270, 645, 2282, 793, 7988, 10599, 2422, 8134, 9287, 8136
9703, 2270, 2282, 645, 6494, 2422, 10599, 7988, 9781, 8980, 9583
9704, 646, 2282, 645, 793, 8098, 10599, 651, 8825, 8136, 9287
9705, 646, 645, 2282, 6494, 651, 10599, 8098, 9584, 9583, 8980
9706, 260, 1674, 6873, 259, 1676, 10561, 10430, 1677, 4648, 9254
9707, 260, 6873, 1674, 6823, 10430, 10561, 1676, 9786, 10245, 8046
9708, 867, 1060, 3109, 3113, 10600, 3149, 8680, 9712, 3146, 3138
9709, 867, 3109, 1060, 763, 8680, 3149, 10600, 8678, 8679, 10038
9710, 48, 80, 867, 3113, 828, 10601, 9466, 9428, 9482, 9712
9711, 48, 867, 80, 763, 9466, 10601, 828, 2678, 8678, 764
9712, 80, 1060, 867, 3113, 10167, 10600, 10601, 9482, 3146, 9712
9713, 80, 867, 1060, 763, 10601, 10600, 10167, 764, 8678, 10038
9714, 6849, 6870, 1630, 1623, 10524, 10602, 8297, 9231, 9594, 4614
9715, 6849, 1630, 6870, 6821, 8297, 10602, 10524, 6985, 8295, 10243
9716, 247, 1630, 6870, 1623, 4615, 10602, 9587, 1625, 4614, 9594
9717, 6878, 1623, 221, 220, 9598, 4613, 10433, 9589, 1624, 1509
9718, 6878, 221, 1623, 6822, 10433, 4613, 9598, 10427, 9815, 9229
9719, 40, 787, 3030, 72, 2646, 10603, 9022, 812, 788, 9693
9720, 40, 3030, 787, 6864, 9022, 10603, 2646, 9024, 9025, 9549
9721, 6808, 244, 6831, 243, 9500, 10604, 10050, 10062, 1607, 9618
9722, 6808, 6831, 244, 245, 10050, 10604, 9500, 8764, 10573, 1608
9723, 6826, 285, 2109, 1754, 9748, 10605, 8249, 8404, 7945, 8405
9724, 6826, 2109, 285, 283, 8249, 10605, 9748, 8247, 7589, 1747
9725, 6883, 2109, 285, 1754, 7275, 10605, 7948, 7947, 8405, 7945
9726, 6883, 285, 2109, 283, 7948, 10605, 7275, 7592, 1747, 7589
9727, 769, 1059, 6898, 78, 10109, 7710, 10606, 770, 9942, 9685
9728, 6898, 1059, 769, 3113, 7710, 10109, 10606, 8400, 3147, 9646
9729, 6898, 46, 769, 78, 8829, 2670, 10606, 9685, 824, 770
9730, 769, 46, 6898, 3113, 2670, 8829, 10606, 9646, 8828, 8400
9731, 6817, 3693, 3650, 127, 7551, 3808, 10607, 10292, 3807, 3803
9732, 3650, 3693, 6817, 6842, 3808, 7551, 10607, 6906, 7231, 8433
9733, 3650, 126, 6817, 127, 3804, 10574, 10607, 3803, 1166, 10292
9734, 6817, 126, 3650, 6842, 10574, 3804, 10607, 8433, 9405, 6906
9735, 4966, 2119, 1799, 6468, 8831, 9433, 4993, 9002, 6560, 9873
9736, 4966, 1799, 2119, 1812, 4993, 9433, 8831, 4991, 5006, 6152
9737, 225, 1646, 6879, 226, 1647, 10593, 9529, 1529, 4628, 9613
9738, 32, 36, 498, 34, 6542, 10608, 502, 512, 522, 2243
9739, 32, 498, 36, 6843, 502, 10608, 6542, 7341, 7339, 9891
9740, 515, 498, 36, 34, 9963, 10608, 518, 2249, 2243, 522
9741, 4293, 4541, 4539, 4678, 7283, 4555, 10609, 7841, 7355, 7644
9742, 4539, 4541, 4293, 192, 4555, 7283, 10609, 4554, 4545, 4311
9743, 1650, 253, 6871, 254, 4630, 9605, 9611, 1652, 1653, 9610
9744, 1417, 140, 4196, 1395, 8242, 4198, 9518, 9520, 1396, 4199
9745, 515, 36, 6439, 2273, 518, 6549, 10610, 2309, 2308, 7838
9746, 6439, 2022, 515, 2273, 7836, 8725, 10610, 7838, 7837, 2309
9747, 8, 390, 6456, 6, 394, 10611, 6505, 395, 2152, 6501
9748, 390, 6456, 381, 6133, 10611, 10612, 2153, 10613, 7005, 10297
9749, 390, 381, 6456, 6, 2153, 10612, 10611, 2152, 385, 6501
9750, 381, 6456, 365, 6133, 10612, 9252, 2146, 10297, 7005, 9251
9751, 381, 365, 6456, 6, 2146, 9252, 10612, 385, 2145, 6501
9752, 1413, 5963, 5957, 1433, 10453, 6002, 9946, 4275, 7159, 9941
9753, 1413, 5957, 5963, 5958, 9946, 6002, 10453, 10158, 6021, 6022
9754, 745, 631, 111, 86, 8755, 9430, 10614, 746, 2580, 9431
9755, 6892, 6812, 6895, 6808, 10105, 8854, 8962, 8960, 9188, 8693
9756, 6892, 6895, 6812, 6845, 8962, 8854, 10105, 9400, 8821, 8853
9757, 1615, 218, 6900, 6811, 4607, 10615, 8550, 9790, 9999, 9741
9758, 496, 6900, 218, 6811, 9742, 10615, 9998, 9740, 9741, 9999
9759, 335, 1947, 136, 5365, 1953, 8763, 9536, 5376, 5378, 8761
9760, 44, 76, 2287, 778, 820, 10616, 2331, 2657, 780, 9344
9761, 6855, 2287, 76, 778, 7233, 10616, 9896, 9895, 9344, 780
9762, 3150, 90, 801, 736, 10576, 9731, 9535, 8701, 738, 10078
9763, 1030, 649, 796, 1029, 9492, 9358, 10466, 1036, 8102, 7310
9764, 249, 1630, 6870, 247, 1632, 10602, 10432, 1633, 4615, 9587
9765, 249, 6870, 1630, 6821, 10432, 10602, 1632, 9905, 10243, 8295
9766, 630, 3196, 757, 82, 10206, 10617, 8758, 2571, 10134, 758
9767, 1061, 757, 3196, 82, 9809, 10617, 9629, 10133, 758, 10134
9768, 6467, 6435, 6827, 6492, 6708, 7282, 10618, 6624, 6707, 7343
9769, 6827, 6853, 6467, 6492, 9831, 9040, 10618, 7343, 9038, 6624
9770, 6467, 6853, 6827, 6828, 9040, 9831, 10618, 10035, 10394, 10369
9771, 6467, 6497, 6827, 6435, 6709, 10619, 10618, 6708, 6704, 7282
9772, 6827, 6497, 6467, 6828, 10619, 6709, 10618, 10369, 9932, 10035
9773, 6437, 6434, 6827, 6435, 6700, 7093, 10620, 6699, 6692, 7282
9774, 6497, 6437, 6827, 6435, 6705, 10620, 10619, 6704, 6699, 7282
9775, 6827, 6437, 6497, 6828, 10620, 6705, 10619, 10369, 9897, 9932
9776, 225, 1642, 6849, 1646, 4625, 8411, 10621, 1647, 4626, 8412
9777, 6849, 1642, 225, 6822, 8411, 4625, 10621, 9232, 9434, 9531
9778, 6849, 6879, 225, 1646, 8791, 9529, 10621, 8412, 10593, 1647
9779, 225, 6879, 6849, 6822, 9529, 8791, 10621, 9531, 9530, 9232
9780, 417, 6854, 6828, 408, 9769, 7413, 9993, 2174, 10022, 10480
9781, 6828, 6854, 417, 6807, 7413, 9769, 9993, 9624, 9299, 9768
9782, 5966, 1434, 1414, 5593, 9791, 4276, 10622, 7613, 5661, 9123
9783, 1414, 1434, 5966, 5972, 4276, 9791, 10622, 10290, 9792, 6036
9784, 1414, 5965, 5966, 5593, 9122, 9481, 10622, 9123, 6924, 7613
9785, 5966, 5965, 1414, 5972, 9481, 9122, 10622, 6036, 6019, 10290
9786, 5793, 2048, 5592, 1438, 5837, 5683, 10623, 10170, 5682, 5684
9787, 5592, 2048, 5793, 5786, 5683, 5837, 10623, 7601, 5833, 5838
9788, 4539, 192, 4678, 1571, 4554, 10624, 7644, 4553, 1573, 10349
9789, 4539, 4678, 192, 4293, 7644, 10624, 4554, 10609, 7841, 4311
9790, 1566, 4678, 192, 1571, 4704, 10624, 4531, 4533, 10349, 1573
9791, 1566, 192, 4678, 4293, 4531, 10624, 4704, 8319, 4311, 7841
9792, 305, 4962, 4683, 1816, 4996, 8822, 10625, 1817, 4973, 10374
9793, 4683, 4962, 305, 5023, 8822, 4996, 10625, 8824, 7807, 5024
9794, 4683, 1704, 305, 1816, 4758, 5267, 10625, 10374, 5266, 1817
9795, 305, 1704, 4683, 5023, 5267, 4758, 10625, 5024, 8320, 8824
9796, 1491, 218, 487, 6355, 4354, 9997, 10577, 6375, 9438, 9341
9797, 1491, 487, 218, 217, 10577, 9997, 4354, 4353, 10006, 1499
9798, 6812, 19, 6845, 17, 10471, 10147, 8853, 10040, 450, 10041
9799, 6134, 408, 1834, 399, 10626, 8983, 6259, 10627, 2167, 9421
9800, 6134, 1834, 408, 6854, 6259, 8983, 10626, 9578, 9298, 10022
9801, 3678, 6875, 3677, 3708, 9303, 9453, 3990, 3994, 9302, 3995
9802, 3677, 6875, 3678, 6874, 9453, 9303, 3990, 7614, 9579, 7706
9803, 1042, 646, 110, 3074, 7732, 8527, 1048, 3081, 8604, 3077
9804, 1042, 110, 646, 794, 1048, 8527, 7732, 8582, 9440, 8581
9805, 3151, 727, 1075, 92, 9019, 10628, 3164, 9654, 728, 10198
9806, 3151, 1075, 727, 112, 3164, 10628, 9019, 3158, 1082, 9016
9807, 94, 1075, 727, 92, 10274, 10628, 10407, 9888, 10198, 728
9808, 94, 727, 1075, 112, 10407, 10628, 10274, 10229, 9016, 1082
9809, 6892, 6812, 19, 6845, 10105, 10471, 10120, 9400, 8853, 10147
9810, 3110, 754, 800, 1061, 9688, 10411, 9986, 3123, 10137, 9966
9811, 3110, 800, 754, 84, 9986, 10411, 9688, 9679, 10402, 756
9812, 51, 2276, 3110, 52, 2349, 7017, 8996, 542, 2350, 8698
9813, 51, 3110, 2276, 868, 8996, 7017, 2349, 9097, 9098, 9479
9814, 3292, 895, 3284, 797, 7664, 7254, 3344, 10152, 2765, 7253
9815, 3284, 895, 3292, 3289, 7254, 7664, 3344, 3315, 7665, 3357
9816, 6890, 1188, 1949, 137, 9969, 10629, 8912, 9119, 4022, 8845
9817, 6890, 1949, 1188, 1414, 8912, 10629, 9969, 8913, 8911, 4252
9818, 1212, 1949, 1188, 137, 8844, 10629, 4024, 1215, 8845, 4022
9819, 1212, 1188, 1949, 1414, 4024, 10629, 8844, 10149, 4252, 8911
9820, 424, 243, 6812, 433, 9467, 10630, 10468, 2186, 9276, 10469
9821, 6808, 243, 6812, 244, 10062, 10630, 9188, 9500, 1607, 8673
9822, 460, 6814, 211, 6808, 10475, 10631, 8080, 10047, 9935, 10046
9823, 6811, 211, 6814, 6808, 10052, 10631, 9738, 9936, 10046, 9935
9824, 6854, 6437, 6827, 6828, 8851, 10620, 9193, 7413, 9897, 10369
9825, 6854, 6827, 6437, 6434, 9193, 10620, 8851, 8329, 7093, 6700
9826, 647, 795, 794, 624, 8771, 804, 8583, 2593, 2629, 2627
9827, 794, 795, 647, 1043, 804, 8771, 8583, 10467, 8772, 8773
9828, 6811, 6875, 217, 216, 9789, 10632, 10007, 10029, 8150, 1498
9829, 121, 217, 6875, 216, 1622, 10632, 10304, 4609, 1498, 8150
9830, 327, 6813, 462, 328, 10084, 9988, 10526, 1861, 9989, 8028
9831, 6133, 381, 1834, 1833, 10297, 10633, 6295, 6296, 9984, 1837
9832, 6133, 1834, 381, 390, 6295, 10633, 10297, 10613, 9422, 2153
9833, 6887, 1834, 381, 1833, 7437, 10633, 9734, 8728, 1837, 9984
9834, 6887, 381, 1834, 390, 9734, 10633, 7437, 9423, 2153, 9422
9835, 131, 1579, 1591, 3690, 9957, 4584, 6146, 3821, 9053, 9051
9836, 1591, 1579, 131, 1592, 4584, 9957, 6146, 1595, 4586, 6143
9837, 1534, 200, 6879, 4443, 1536, 10300, 10332, 4447, 4446, 10301
9838, 6879, 200, 1534, 6877, 10300, 1536, 10332, 8793, 9994, 9995
9839, 214, 4343, 6362, 1491, 4349, 10634, 6372, 1492, 4350, 6371
9840, 1414, 5965, 5956, 5972, 9122, 5992, 9464, 10290, 6019, 6018
9841, 1414, 5956, 5965, 1949, 9464, 5992, 9122, 8911, 9480, 9291
9842, 648, 796, 795, 625, 9355, 805, 8770, 2596, 2631, 2630
9843, 795, 796, 648, 6902, 805, 9355, 8770, 9903, 8567, 8727
9844, 763, 799, 3196, 3201, 10635, 10462, 10636, 10637, 10141, 3253
9845, 3196, 799, 763, 630, 10462, 10635, 10636, 10206, 2639, 10393
9846, 763, 3196, 1060, 3201, 10636, 9507, 10038, 10637, 3253, 9486
9847, 799, 766, 80, 630, 10342, 768, 10638, 2639, 8759, 2567
9848, 799, 80, 763, 630, 10638, 764, 10635, 2639, 2567, 10393
9849, 6857, 87, 111, 745, 8934, 10639, 7205, 10590, 747, 10614
9850, 6857, 111, 87, 801, 7205, 10639, 8934, 9001, 9210, 10203
9851, 631, 111, 87, 745, 9430, 10639, 2582, 8755, 10614, 747
9852, 631, 87, 111, 801, 2582, 10639, 9430, 2642, 10203, 9210
9853, 800, 751, 3110, 111, 10403, 8697, 9986, 9407, 9057, 3117
9854, 800, 3110, 751, 84, 9986, 8697, 10403, 10402, 9679, 752
9855, 1453, 4685, 379, 1454, 7889, 10506, 10640, 1457, 7624, 9321
9856, 379, 6135, 1453, 1454, 10641, 6272, 10640, 9321, 6267, 1457
9857, 6807, 347, 435, 444, 9943, 10521, 9620, 9621, 10543, 2195
9858, 111, 631, 751, 85, 9430, 10391, 9057, 7656, 2578, 753
9859, 111, 751, 631, 800, 9057, 10391, 9430, 9407, 10403, 2641
9860, 799, 3197, 3201, 1059, 9163, 3250, 10141, 9323, 9322, 9375
9861, 799, 3201, 3197, 3206, 10141, 3250, 9163, 10485, 3275, 3274
9862, 317, 1902, 6871, 5175, 1904, 10323, 10299, 5181, 5183, 10298
9863, 317, 6871, 1902, 6869, 10299, 10323, 1904, 10008, 7193, 10010
9864, 1834, 6134, 390, 6133, 6259, 10642, 9422, 6295, 6300, 10613
9865, 1834, 390, 6134, 399, 9422, 10642, 6259, 9421, 2160, 10627
9866, 6812, 243, 442, 433, 10630, 9277, 10470, 10469, 9276, 2193
9867, 26, 6843, 480, 28, 10348, 10267, 2222, 485, 10270, 484
9868, 6813, 6818, 327, 462, 10116, 10643, 10084, 9988, 10139, 10526
9869, 6813, 327, 6818, 6809, 10084, 10643, 10116, 10083, 10061, 10160
9870, 471, 327, 6818, 462, 10057, 10643, 10479, 2215, 10526, 10139
9871, 471, 6818, 327, 6809, 10479, 10643, 10057, 10059, 10160, 10061
9872, 6875, 120, 217, 121, 10005, 4608, 10632, 10304, 1160, 1622
9873, 209, 214, 211, 188, 10157, 10092, 4296, 4295, 9893, 1484
9874, 326, 328, 248, 307, 5030, 10110, 10156, 5028, 1862, 9911
9875, 6858, 388, 1453, 397, 8564, 8924, 9031, 10552, 2158, 8922
9876, 23, 6814, 6891, 25, 10476, 9956, 10281, 477, 10382, 10247
9877, 23, 6891, 6814, 6835, 10281, 9956, 10476, 10234, 9722, 10202
9878, 1418, 5789, 5785, 1755, 9134, 5822, 10201, 9763, 9762, 9737
9879, 5785, 5789, 1418, 5796, 5822, 9134, 10201, 5852, 5851, 10295
9880, 6892, 6808, 6848, 6835, 8960, 9961, 9840, 9964, 10104, 10075
9881, 6892, 6848, 6808, 6842, 9840, 9961, 8960, 8961, 9202, 8692
9882, 5075, 326, 248, 1872, 5079, 10156, 5076, 5077, 1874, 1873
9883, 4343, 214, 209, 1494, 4349, 10157, 4345, 4346, 1495, 1496
9884, 799, 3204, 3192, 3206, 10244, 3234, 10486, 10485, 3263, 3262
9885, 799, 3192, 3204, 897, 10486, 3234, 10244, 2772, 10045, 10044
9886, 5153, 320, 6871, 319, 5160, 10644, 10339, 5159, 1853, 10285
9887, 5153, 6871, 320, 6872, 10339, 10644, 5160, 10307, 9609, 10252
9888, 309, 6871, 320, 319, 9886, 10644, 5033, 5034, 10285, 1853
9889, 309, 320, 6871, 6872, 5033, 10644, 9886, 10237, 10252, 9609
9890, 203, 4421, 6879, 202, 4423, 10343, 10645, 1475, 4424, 10286
9891, 6879, 190, 203, 202, 9889, 4300, 10645, 10286, 4299, 1475
9892, 203, 190, 6879, 6880, 4300, 9889, 10645, 10269, 10219, 9534
9893, 309, 323, 6870, 324, 5039, 10383, 9370, 5040, 1857, 9981
9894, 309, 6870, 323, 6821, 9370, 10383, 5039, 7008, 10243, 10282
9895, 206, 190, 6878, 207, 4305, 9982, 10384, 1479, 4306, 9983
9896, 206, 6878, 190, 6822, 10384, 9982, 4305, 10275, 10427, 10218
9897, 203, 1522, 6879, 4421, 1524, 10336, 10645, 4423, 4426, 10343
9898, 6879, 1522, 203, 6880, 10336, 1524, 10645, 9534, 10268, 10269
9899, 3276, 1100, 1030, 1099, 3331, 3585, 9539, 3330, 1106, 3584
9900, 1031, 3276, 1030, 797, 9556, 9539, 1037, 10231, 10154, 9928
9901, 1030, 3276, 1031, 1100, 9539, 9556, 1037, 3585, 3331, 3586
9902, 1732, 1579, 5434, 1731, 4877, 9717, 5465, 1738, 4874, 5464
9903, 1580, 1579, 5434, 1732, 1586, 9717, 9779, 4876, 4877, 5465
9904, 6818, 22, 6421, 24, 10478, 6527, 8705, 10211, 467, 6528
9905, 6818, 6421, 22, 6853, 8705, 6527, 10478, 9931, 7448, 10347
9906, 469, 213, 6362, 210, 10011, 10646, 7579, 10012, 1489, 10647
9907, 469, 6362, 213, 1491, 7579, 10646, 10011, 7581, 6371, 10438
9908, 4343, 6362, 213, 210, 10634, 10646, 4347, 4344, 10647, 1489
9909, 4343, 213, 6362, 1491, 4347, 10646, 10634, 4350, 10438, 6371
9910, 1920, 5252, 5253, 1923, 5261, 10648, 5256, 5262, 5260, 5257
9911, 1920, 5253, 5252, 6823, 5256, 10648, 5261, 10192, 10428, 10210
9912, 235, 193, 4521, 1562, 9880, 10649, 4526, 1563, 1564, 4529
9913, 235, 4521, 193, 6824, 4526, 10649, 9880, 9080, 10429, 10086
9914, 1558, 4521, 4520, 1562, 4528, 10650, 4525, 4530, 4529, 4524
9915, 1558, 4520, 4521, 6824, 4525, 10650, 4528, 10199, 10212, 10429
9916, 4521, 193, 4520, 1562, 10649, 4523, 10650, 4529, 1564, 4524
9917, 4521, 4520, 193, 6824, 10650, 4523, 10649, 10429, 10212, 10086
9918, 228, 1534, 6879, 4444, 1535, 10332, 9234, 4449, 4452, 10331
9919, 228, 6879, 1534, 6877, 9234, 10332, 1535, 9233, 8793, 9995
9920, 1902, 256, 6871, 5176, 1903, 9497, 10323, 5180, 5178, 10322
9921, 1902, 6871, 256, 6869, 10323, 9497, 1903, 10010, 7193, 9552
9922, 1409, 133, 1580, 132, 10436, 10651, 9934, 1410, 1178, 9898
9923, 1409, 1580, 133, 1416, 9934, 10651, 10436, 10313, 10016, 10435
9924, 1579, 1580, 133, 132, 1586, 10651, 10321, 9899, 9898, 1178
9925, 71, 1030, 1031, 66, 10144, 1037, 10652, 656, 10101, 10100
9926, 1031, 1030, 71, 797, 1037, 10144, 10652, 10231, 9928, 10442
9927, 1031, 610, 71, 66, 10107, 10443, 10652, 10100, 611, 656
9928, 71, 610, 1031, 797, 10443, 10107, 10652, 10442, 10405, 10231
9929, 6823, 260, 5231, 261, 9786, 5232, 10375, 9787, 1681, 5233
9930, 6823, 5231, 260, 6873, 10375, 5232, 9786, 10245, 10175, 10430
9931, 232, 6824, 4499, 233, 9638, 10376, 4505, 1557, 9780, 4504
9932, 232, 4499, 6824, 6881, 4505, 10376, 9638, 10431, 10178, 10253
9933, 6821, 249, 5110, 250, 9905, 5111, 10423, 9906, 1637, 5112
9934, 6821, 5110, 249, 6870, 10423, 5111, 9905, 10243, 10364, 10432
9935, 221, 6822, 4378, 222, 9815, 10426, 4384, 1513, 9904, 4383
9936, 4378, 6822, 221, 6878, 10426, 9815, 4384, 10368, 10427, 10433
9937, 6850, 141, 6094, 4190, 9418, 10653, 8096, 9419, 4192, 9515
9938, 6850, 6094, 141, 4196, 8096, 10653, 9418, 8097, 8094, 4200
9939, 182, 6094, 141, 4190, 6201, 10653, 1389, 4191, 9515, 4192
9940, 182, 141, 6094, 4196, 1389, 10653, 6201, 4201, 4200, 8094
9941, 6850, 142, 6119, 4184, 9991, 10654, 9436, 9307, 4186, 9435
9942, 6850, 6119, 142, 4190, 9436, 10654, 9991, 9419, 9514, 4194
9943, 181, 6119, 142, 4184, 6198, 10654, 1384, 4185, 9435, 4186
9944, 181, 142, 6119, 4190, 1384, 10654, 6198, 4195, 4194, 9514
9945, 1755, 146, 6127, 4160, 8783, 10655, 8131, 8632, 4162, 8633
9946, 1755, 6127, 146, 4166, 8131, 10655, 8783, 8129, 8127, 4170
9947, 177, 6127, 146, 4160, 6186, 10655, 1364, 4161, 8633, 4162
9948, 177, 146, 6127, 4166, 1364, 10655, 6186, 4171, 4170, 8127
9949, 1579, 3690, 1216, 1578, 9053, 10656, 10657, 1585, 9052, 9690
9950, 3690, 1591, 1216, 1578, 9051, 9691, 10656, 9052, 4551, 9690
9951, 5442, 1417, 5443, 5437, 10445, 10499, 5502, 5503, 7121, 5510
9952, 5442, 5443, 1417, 5430, 5502, 10499, 10445, 5499, 5500, 10446
9953, 164, 159, 6120, 4088, 1299, 10658, 6154, 4093, 4092, 9797
9954, 164, 6120, 159, 4082, 6154, 10658, 1299, 4083, 9351, 4084
9955, 1804, 159, 6120, 4082, 7691, 10658, 9350, 9160, 4084, 9351
9956, 176, 147, 6126, 4160, 1359, 10659, 6183, 4165, 4164, 8635
9957, 176, 6126, 147, 4154, 6183, 10659, 1359, 4155, 8841, 4156
9958, 1755, 6126, 147, 4160, 8634, 10659, 9369, 8632, 8635, 4164
9959, 1755, 147, 6126, 4154, 9369, 10659, 8634, 8839, 4156, 8841
9960, 303, 161, 4966, 6468, 10159, 10660, 4989, 9874, 6556, 9002
9961, 303, 4966, 161, 4076, 4989, 10660, 10159, 9460, 9459, 4080
9962, 163, 4966, 161, 6468, 8830, 10660, 1297, 6559, 9002, 6556
9963, 163, 161, 4966, 4076, 1297, 10660, 8830, 4081, 4080, 9459
9964, 6882, 6106, 157, 4100, 9771, 10661, 10099, 9875, 9630, 4104
9965, 166, 6106, 157, 4094, 6156, 10661, 1309, 4095, 9909, 4096
9966, 166, 157, 6106, 4100, 1309, 10661, 6156, 4105, 4104, 9630
9967, 162, 160, 4965, 4082, 1296, 9318, 9894, 4087, 4086, 9162
9968, 162, 4965, 160, 4076, 9894, 9318, 1296, 4077, 9759, 4078
9969, 1345, 151, 1193, 1258, 1347, 4055, 6966, 4229, 1260, 4054
9970, 6362, 210, 214, 211, 10647, 10662, 6372, 8082, 1483, 10092
9971, 6362, 214, 210, 4343, 6372, 10662, 10647, 10634, 4349, 4344
9972, 209, 214, 210, 211, 10157, 10662, 1482, 4296, 10092, 1483
9973, 209, 210, 214, 4343, 1482, 10662, 10157, 4345, 4344, 4349
9974, 94, 801, 91, 632, 811, 10528, 10455, 2623, 2625, 2542
9975, 1192, 143, 6840, 1380, 4038, 10663, 8288, 6965, 1381, 9192
9976, 1192, 6840, 143, 1417, 8288, 10663, 4038, 4259, 8290, 10233
9977, 6850, 143, 6840, 1417, 9854, 10663, 8737, 9948, 10233, 8290
9978, 645, 69, 6477, 2126, 650, 6554, 9504, 6366, 2128, 6555
9979, 645, 6477, 69, 1070, 9504, 6554, 650, 8895, 9505, 10111
9980, 1581, 6113, 140, 4202, 7765, 10664, 8706, 7763, 7762, 4206
9981, 183, 6113, 140, 4196, 6204, 10664, 1394, 4197, 8093, 4198
9982, 183, 140, 6113, 4202, 1394, 10664, 6204, 4207, 4206, 7762
9983, 184, 139, 6125, 4208, 1399, 10665, 6211, 4213, 4212, 10224
9984, 184, 6125, 139, 4202, 6211, 10665, 1399, 4203, 7660, 4204
9985, 1580, 139, 6125, 4202, 8637, 10665, 7662, 7661, 4204, 7660
9986, 6840, 6110, 145, 4172, 8676, 10666, 9617, 8687, 8686, 4176
9987, 178, 6110, 145, 4166, 6189, 10666, 1369, 4167, 8128, 4168
9988, 178, 145, 6110, 4172, 1369, 10666, 6189, 4177, 4176, 8686
9989, 5788, 5790, 1418, 5799, 5865, 10450, 10452, 5866, 5854, 10451
9990, 5788, 1418, 5790, 1419, 10452, 10450, 5865, 8154, 1428, 8153
9991, 6840, 144, 6131, 4172, 9191, 10667, 7742, 8687, 4174, 8685
9992, 6840, 6131, 144, 4178, 7742, 10667, 9191, 7743, 7741, 4182
9993, 179, 6131, 144, 4172, 6192, 10667, 1374, 4173, 8685, 4174
9994, 179, 144, 6131, 4178, 1374, 10667, 6192, 4183, 4182, 7741
9995, 142, 1191, 1385, 1417, 4035, 10668, 1386, 10360, 4258, 10232
9996, 142, 1385, 1191, 1234, 1386, 10668, 4035, 1235, 4237, 4036
9997, 143, 1385, 1191, 1417, 1387, 10668, 4037, 10233, 10232, 4258
9998, 143, 1191, 1385, 1234, 4037, 10668, 1387, 1236, 4036, 4237
9999, 155, 1320, 1195, 1273, 1321, 10669, 4065, 1274, 4224, 4066
10000, 155, 1195, 1320, 1420, 4065, 10669, 1321, 10249, 4247, 10248
10001, 156, 1195, 1320, 1273, 4067, 10669, 1322, 1275, 4066, 4224
10002, 156, 1320, 1195, 1420, 1322, 10669, 4067, 10309, 10248, 4247
10003, 1193, 1360, 147, 1418, 6967, 1361, 4047, 4260, 10187, 10246
10004, 1193, 147, 1360, 1249, 4047, 1361, 6967, 4048, 1250, 4232
10005, 1780, 175, 1756, 4154, 6181, 10670, 4939, 9354, 4159, 8840
10006, 148, 1756, 175, 4154, 9892, 10670, 1354, 4158, 8840, 4159
10007, 148, 175, 1756, 4148, 1354, 10670, 9892, 4150, 4149, 9837
10008, 132, 131, 1579, 4214, 1177, 9957, 9899, 4216, 4215, 9601
10009, 132, 1579, 131, 3690, 9899, 9957, 1177, 3820, 9053, 3821
10010, 1415, 1416, 1216, 5428, 1425, 10596, 9852, 10549, 10194, 10550
10011, 1415, 1216, 1416, 1189, 9852, 10596, 1425, 4254, 4025, 4256
10012, 5428, 133, 5434, 1416, 10597, 10671, 5466, 10194, 10435, 10184
10013, 5428, 5434, 133, 1579, 5466, 10671, 10597, 9718, 9717, 10321
10014, 1580, 5434, 133, 1416, 9779, 10671, 10651, 10016, 10184, 10435
10015, 1580, 133, 5434, 1579, 10651, 10671, 9779, 1586, 10321, 9717
10016, 1580, 6125, 138, 4214, 7662, 10672, 10017, 9599, 9625, 4219
10017, 185, 6125, 138, 4208, 6210, 10672, 1404, 4209, 10224, 4210
10018, 185, 138, 6125, 4214, 1404, 10672, 6210, 4217, 4219, 9625
10019, 1579, 5428, 1216, 133, 9718, 10550, 10657, 10321, 10597, 1218
10020, 1579, 1216, 5428, 1578, 10657, 10550, 9718, 1585, 9690, 9673
10021, 1420, 5884, 5875, 5872, 7313, 5913, 9066, 8202, 5929, 5948
10022, 1420, 5875, 5884, 1804, 9066, 5913, 7313, 9064, 9067, 9872
10023, 6841, 155, 6091, 4106, 9952, 10673, 9060, 8950, 4108, 9059
10024, 6841, 6091, 155, 4112, 9060, 10673, 9952, 8182, 9293, 4116
10025, 168, 6091, 155, 4106, 6162, 10673, 1319, 4107, 9059, 4108
10026, 168, 155, 6091, 4112, 1319, 10673, 6162, 4117, 4116, 9293
10027, 1194, 155, 6820, 1420, 4064, 10674, 7479, 4264, 10249, 8361
10028, 1194, 6820, 155, 1325, 7479, 10674, 4064, 6964, 10527, 1327
10029, 6841, 6820, 155, 1420, 8620, 10674, 9952, 10250, 8361, 10249
10030, 6841, 155, 6820, 1325, 9952, 10674, 8620, 9399, 1327, 10527
10031, 5784, 289, 356, 337, 7244, 10538, 5801, 5802, 5514, 2097
10032, 5784, 356, 289, 5586, 5801, 10538, 7244, 7487, 5634, 9708
10033, 3405, 2751, 793, 3411, 8455, 2755, 10675, 3451, 7405, 7530
10034, 3405, 793, 2751, 94, 10675, 2755, 8455, 8015, 802, 2753
10035, 1070, 3405, 793, 3411, 10676, 10675, 8494, 8493, 3451, 7530
10036, 1070, 793, 3405, 94, 8494, 10675, 10676, 10228, 802, 8015
10037, 1125, 3405, 1070, 3411, 3429, 10676, 3621, 3449, 3451, 8493
10038, 1125, 1070, 3405, 94, 3621, 10676, 3429, 10302, 10228, 8015
10039, 1412, 5879, 1987, 1799, 6995, 5891, 10677, 9694, 9499, 5530
10040, 1412, 1987, 5879, 5876, 10677, 5891, 6995, 6994, 5898, 5900
10041, 1988, 1412, 1987, 1799, 10678, 10677, 1994, 5533, 9694, 5530
10042, 1988, 1987, 1412, 5876, 1994, 10677, 10678, 5899, 5898, 6994
10043, 1800, 1412, 1988, 1799, 8213, 10678, 5532, 1806, 9694, 5533
10044, 6819, 6861, 361, 345, 9559, 10679, 9817, 9329, 9720, 5955
10045, 346, 6861, 361, 360, 9801, 10679, 2101, 5954, 10273, 2102
10046, 346, 361, 6861, 345, 2101, 10679, 9801, 2012, 5955, 9720
10047, 6885, 352, 6832, 2018, 9672, 10680, 9582, 8490, 5568, 9581
10048, 98, 877, 6477, 2734, 883, 9008, 9544, 2736, 2740, 8473
10049, 98, 6477, 877, 3156, 9544, 9008, 883, 9655, 9009, 7035
10050, 113, 111, 104, 3194, 3605, 10681, 1096, 3211, 9862, 3212
10051, 111, 104, 800, 2830, 10681, 10682, 9407, 9883, 2873, 9884
10052, 111, 800, 104, 3194, 9407, 10682, 10681, 9862, 9777, 3212
10053, 800, 104, 898, 2830, 10682, 2870, 2770, 9884, 2873, 2872
10054, 111, 3193, 104, 2830, 9980, 3209, 10681, 9883, 7935, 2873
10055, 111, 104, 3193, 113, 10681, 3209, 9980, 3605, 1096, 3210
10056, 3505, 3495, 893, 1015, 3526, 10458, 10031, 3525, 3521, 2897
10057, 3491, 3499, 795, 3508, 3544, 10683, 9855, 3557, 3559, 9856
10058, 3491, 795, 3499, 1043, 9855, 10683, 3544, 9414, 8772, 9494
10059, 794, 3499, 795, 1043, 9919, 10683, 804, 10467, 9494, 8772
10060, 95, 835, 6867, 2687, 841, 10508, 7758, 2689, 2693, 7781
10061, 95, 6867, 835, 3033, 7758, 10508, 841, 8363, 7728, 8804
10062, 71, 649, 3700, 1154, 655, 9493, 3776, 1157, 6367, 3777
10063, 71, 3700, 649, 1030, 3776, 9493, 655, 10144, 7994, 9492
10064, 3498, 795, 3505, 3508, 8988, 10684, 3531, 3558, 9856, 3570
10065, 3498, 3505, 795, 893, 3531, 10684, 8988, 10030, 10031, 2764
10066, 3495, 3505, 795, 3508, 3526, 10684, 10459, 3569, 3570, 9856
10067, 3495, 795, 3505, 893, 10459, 10684, 3526, 10458, 2764, 10031
10068, 796, 3284, 1029, 3290, 7252, 10685, 7310, 7307, 3316, 7309
10069, 796, 1029, 3284, 1030, 7310, 10685, 7252, 10466, 1036, 9926
10070, 3283, 3284, 1029, 1030, 3342, 10685, 8186, 9511, 9926, 1036
10071, 3284, 3293, 1029, 3290, 3360, 7089, 10685, 3316, 3349, 7309
10072, 3284, 1029, 3293, 3283, 10685, 7089, 3360, 3342, 8186, 3359
10073, 6811, 218, 6875, 1615, 9999, 10686, 9789, 9790, 4607, 8599
10074, 6811, 6875, 218, 217, 9789, 10686, 9999, 10007, 10632, 1499
10075, 120, 6875, 218, 1615, 10005, 10686, 1621, 4606, 8599, 4607
10076, 120, 218, 6875, 217, 1621, 10686, 10005, 4608, 1499, 10632
10077, 1212, 1211, 1948, 5361, 1214, 9639, 7874, 7875, 8909, 5398
10078, 1212, 1948, 1211, 1187, 7874, 9639, 1214, 4074, 8708, 4073
10079, 6899, 5441, 1435, 1415, 9637, 10687, 10069, 9965, 10688, 4279
10080, 6868, 153, 6128, 4118, 9395, 10689, 8487, 8278, 4120, 8496
10081, 6868, 6128, 153, 4124, 8487, 10689, 9395, 8478, 8486, 4128
10082, 170, 6128, 153, 4118, 6172, 10689, 1329, 4119, 8496, 4120
10083, 170, 153, 6128, 4124, 1329, 10689, 6172, 4129, 4128, 8486
10084, 1947, 1187, 1948, 1413, 10690, 8708, 1954, 10262, 4250, 8710
10085, 1947, 1948, 1187, 1211, 1954, 8708, 10690, 8762, 9639, 4073
10086, 136, 1947, 1186, 1211, 8763, 10691, 4020, 1213, 8762, 4021
10087, 1186, 1187, 1947, 1413, 1198, 10690, 10691, 4249, 4250, 10262
10088, 1186, 1947, 1187, 1211, 10691, 10690, 1198, 4021, 8762, 4073
10089, 3495, 795, 3499, 3508, 10459, 10683, 3566, 3569, 9856, 3559
10090, 3495, 3499, 795, 794, 3566, 10683, 10459, 9921, 9919, 804
10091, 6365, 327, 248, 5075, 10525, 10692, 6382, 9171, 5080, 5076
10092, 6365, 248, 327, 328, 6382, 10692, 10525, 8030, 10110, 1861
10093, 326, 248, 327, 5075, 10156, 10692, 1860, 5079, 5076, 5080
10094, 326, 327, 248, 328, 1860, 10692, 10156, 5030, 1861, 10110
10095, 6814, 23, 451, 460, 10476, 2206, 10693, 10475, 463, 2208
10096, 397, 9, 6858, 7, 400, 10193, 10552, 2157, 405, 8562
10097, 3645, 245, 129, 6817, 10694, 1864, 3814, 7280, 8765, 9633
10098, 6854, 6436, 345, 6819, 9166, 10695, 9297, 9167, 7524, 9329
10099, 349, 6436, 345, 5559, 6575, 10695, 2017, 5563, 10238, 5560
10100, 349, 345, 6436, 6819, 2017, 10695, 6575, 9615, 9329, 7524
10101, 6813, 453, 6807, 6818, 10004, 10696, 9328, 10116, 10140, 10117
10102, 1417, 1438, 5617, 1437, 4283, 5673, 9678, 4284, 1447, 5674
10103, 190, 1453, 4588, 1610, 1456, 8337, 4591, 1611, 6214, 4593
10104, 190, 4588, 1453, 6849, 4591, 8337, 1456, 7802, 8338, 7801
10105, 6820, 1330, 6841, 154, 7480, 10697, 8620, 7749, 1332, 8964
10106, 6820, 6841, 1330, 6868, 8620, 10697, 7480, 7484, 8077, 7483
10107, 4118, 6841, 1330, 154, 8183, 10697, 4121, 4122, 8964, 1332
10108, 4118, 1330, 6841, 6868, 4121, 10697, 8183, 8278, 7483, 8077
10109, 2837, 795, 2862, 893, 8989, 10698, 2907, 2905, 2764, 2903
10110, 894, 2862, 795, 893, 2902, 10698, 2763, 903, 2903, 2764
10111, 471, 26, 6843, 480, 475, 10348, 10699, 2223, 2222, 10267
10112, 6843, 26, 471, 6818, 10348, 475, 10699, 10306, 10123, 10479
10113, 6843, 6809, 471, 480, 8193, 10059, 10699, 10267, 10068, 2223
10114, 471, 6809, 6843, 6818, 10059, 8193, 10699, 10479, 10160, 10306
10115, 3280, 105, 109, 2848, 3294, 10569, 9976, 9100, 2875, 10530
10116, 3280, 109, 105, 114, 9976, 10569, 3294, 3295, 3577, 1110
10117, 6812, 21, 6892, 19, 10472, 10700, 10105, 10471, 459, 10120
10118, 6812, 6892, 21, 6835, 10105, 10700, 10472, 10103, 9964, 10330
10119, 3681, 6892, 21, 19, 7915, 10700, 3746, 3747, 10120, 459
10120, 3681, 21, 6892, 6835, 3746, 10700, 7915, 9416, 10330, 9964
10121, 1420, 6882, 1305, 158, 9959, 10701, 8244, 8243, 10547, 1306
10122, 4088, 1305, 6882, 158, 4091, 10701, 10702, 4090, 1306, 10547
10123, 6825, 245, 3645, 6817, 7979, 10694, 10703, 8704, 8765, 7280
10124, 6825, 3648, 3645, 3658, 7720, 3865, 10703, 7721, 3867, 3816
10125, 3645, 3648, 6825, 6817, 3865, 7720, 10703, 7280, 7278, 8704
10126, 210, 124, 6875, 123, 4341, 10704, 10537, 4342, 1163, 8189
10127, 210, 6875, 124, 6831, 10537, 10704, 4341, 7930, 10119, 7905
10128, 3649, 6875, 124, 123, 9452, 10704, 3794, 3795, 8189, 1163
10129, 3649, 124, 6875, 6831, 3794, 10704, 9452, 9147, 7905, 10119
10130, 6862, 6470, 6818, 6488, 7029, 10705, 9835, 8321, 6631, 8051
10131, 6862, 6818, 6470, 6843, 9835, 10705, 7029, 9647, 10306, 8630
10132, 6420, 6818, 6470, 6488, 8052, 10705, 6632, 6630, 8051, 6631
10133, 6420, 6470, 6818, 6843, 6632, 10705, 8052, 8629, 8630, 10306
10134, 6456, 6442, 6828, 8, 6508, 7411, 10706, 6505, 6506, 9326
10135, 6828, 6442, 6456, 6133, 7411, 6508, 10706, 8070, 7007, 7005
10136, 6828, 390, 6456, 8, 9509, 10611, 10706, 9326, 394, 6505
10137, 6456, 390, 6828, 6133, 10611, 9509, 10706, 7005, 10613, 8070
10138, 460, 6362, 210, 469, 8081, 10647, 10707, 2216, 7579, 10012
10139, 210, 6362, 460, 211, 10647, 8081, 10707, 1483, 8082, 8080
10140, 460, 210, 6811, 469, 10707, 10014, 10708, 2216, 10012, 10013
10141, 6811, 210, 460, 211, 10014, 10707, 10708, 10052, 1483, 8080
10142, 460, 6811, 6814, 469, 10708, 9738, 10475, 2216, 10013, 10132
10143, 6814, 6811, 460, 211, 9738, 10708, 10475, 10631, 10052, 8080
10144, 6871, 6849, 253, 1650, 7192, 10709, 9605, 9611, 9148, 4630
10145, 6871, 253, 6849, 6821, 9605, 10709, 7192, 7352, 9606, 6985
10146, 1646, 253, 6849, 1650, 1648, 10709, 8412, 4629, 4630, 9148
10147, 1646, 6849, 253, 6821, 8412, 10709, 1648, 8409, 6985, 9606
10148, 6849, 190, 212, 6822, 7802, 4590, 10540, 9232, 10218, 10710
10149, 6849, 212, 190, 4588, 10540, 4590, 7802, 8338, 4592, 4591
10150, 71, 649, 797, 1030, 655, 10711, 10442, 10144, 9492, 9928
10151, 71, 797, 649, 626, 10442, 10711, 655, 2547, 2633, 2548
10152, 796, 797, 649, 1030, 806, 10711, 9358, 10466, 9928, 9492
10153, 796, 649, 797, 626, 9358, 10711, 806, 2632, 2548, 2633
10154, 435, 444, 6849, 434, 2195, 10712, 10518, 438, 2198, 9374
10155, 435, 6849, 444, 347, 10518, 10712, 2195, 10521, 7004, 10543
10156, 443, 6849, 444, 434, 8914, 10712, 447, 2196, 9374, 2198
10157, 443, 444, 6849, 347, 447, 10712, 8914, 10542, 10543, 7004
10158, 1435, 5445, 5441, 5438, 10491, 5494, 10687, 7370, 5506, 5512
10159, 6807, 453, 6853, 6818, 10696, 10713, 10019, 10117, 10140, 9931
10160, 801, 3150, 733, 90, 9535, 10714, 9730, 9731, 10576, 734
10161, 6849, 189, 6822, 212, 7873, 10715, 9232, 10540, 1487, 10710
10162, 6849, 6822, 189, 6878, 9232, 10715, 7873, 8239, 10427, 9592
10163, 190, 6822, 189, 212, 10218, 10715, 1452, 4590, 10710, 1487
10164, 190, 189, 6822, 6878, 1452, 10715, 10218, 9982, 9592, 10427
10165, 127, 6817, 6831, 126, 10292, 10572, 10716, 1166, 10574, 9096
10166, 2022, 6843, 329, 6809, 7851, 10717, 5564, 8091, 8193, 8090
10167, 498, 329, 6843, 6809, 9750, 10717, 7339, 9751, 8090, 8193
10168, 44, 775, 2287, 76, 2662, 10718, 2331, 820, 776, 10616
10169, 44, 2287, 775, 6898, 2331, 10718, 2662, 8979, 7637, 8346
10170, 6855, 2287, 775, 76, 7233, 10718, 8345, 9896, 10616, 776
10171, 6855, 775, 2287, 6898, 8345, 10718, 7233, 7638, 8346, 7637
10172, 58, 733, 3150, 90, 2656, 10714, 8843, 819, 734, 10576
10173, 58, 3150, 733, 3151, 8843, 10714, 2656, 9383, 3180, 9687
10174, 6858, 3665, 1170, 3687, 9219, 3817, 9922, 9011, 3834, 3833
10175, 6858, 1170, 3665, 6116, 9922, 3817, 9219, 9547, 6142, 7529
10176, 6848, 6874, 3677, 3674, 9828, 7614, 10719, 7382, 7615, 3981
10177, 3677, 6874, 6848, 6831, 7614, 9828, 10719, 9146, 10051, 9830
10178, 3677, 3711, 6848, 3674, 3883, 7383, 10719, 3981, 3974, 7382
10179, 6848, 3711, 3677, 6831, 7383, 3883, 10719, 9830, 9145, 9146
10180, 6858, 6785, 1454, 371, 9173, 9597, 10720, 9174, 6791, 8235
10181, 1454, 6785, 6858, 6135, 9597, 9173, 10720, 6267, 9335, 9339
10182, 1454, 363, 6858, 371, 9320, 9237, 10720, 8235, 2137, 9174
10183, 347, 426, 6807, 435, 10520, 9847, 9943, 10521, 2188, 9620
10184, 453, 347, 6807, 444, 10003, 9943, 10696, 2201, 10543, 9621
10185, 453, 6807, 347, 6813, 10696, 9943, 10003, 10004, 9328, 9910
10186, 72, 3030, 798, 787, 9693, 10721, 9729, 788, 10603, 10280
10187, 6864, 3030, 798, 1032, 9025, 10721, 9853, 8613, 3064, 9540
10188, 6864, 798, 3030, 787, 9853, 10721, 9025, 9549, 10280, 10603
10189, 1454, 379, 6858, 363, 9321, 8565, 10720, 9320, 2144, 9237
10190, 6858, 379, 1454, 6135, 8565, 9321, 10720, 9339, 10641, 6267
10191, 6817, 128, 6831, 245, 9822, 10722, 10572, 8765, 5074, 10573
10192, 6817, 6831, 128, 127, 10572, 10722, 9822, 10292, 10716, 1167
10193, 244, 6831, 128, 245, 10604, 10722, 1865, 1608, 10573, 5074
10194, 244, 128, 6831, 127, 1865, 10722, 10604, 5073, 1167, 10716
10195, 6835, 21, 6814, 23, 10330, 10723, 10202, 10234, 468, 10476
10196, 6835, 6814, 21, 6812, 10202, 10723, 10330, 10103, 10724, 10472
10197, 451, 6814, 21, 23, 10693, 10723, 454, 2206, 10476, 468
10198, 451, 21, 6814, 6812, 454, 10723, 10693, 10473, 10472, 10724
10199, 406, 9, 6858, 397, 2164, 10193, 10725, 2165, 400, 10552
10200, 6858, 9, 406, 6812, 10193, 2164, 10725, 8265, 10474, 9992
10201, 6858, 1453, 406, 397, 9031, 9442, 10725, 10552, 8922, 2165
10202, 406, 1453, 6858, 6812, 9442, 9031, 10725, 9992, 9030, 8265
10203, 444, 20, 6807, 453, 448, 10726, 9621, 2201, 2200, 10696
10204, 6853, 6807, 20, 453, 10019, 10726, 10404, 10713, 10696, 2200
10205, 1417, 1418, 5617, 1438, 1427, 9136, 9678, 4283, 4282, 5673
10206, 5617, 1418, 1417, 6840, 9136, 1427, 9678, 9348, 8289, 8290
10207, 795, 796, 2862, 894, 805, 10727, 10698, 2763, 2762, 2902
10208, 795, 2862, 796, 6902, 10698, 10727, 805, 9903, 8552, 8567
10209, 2856, 2862, 796, 894, 2914, 10727, 9802, 2913, 2902, 2762
10210, 2856, 796, 2862, 6902, 9802, 10727, 2914, 9176, 8567, 8552
10211, 6882, 4088, 159, 1305, 10702, 4092, 10728, 10701, 4091, 1307
10212, 6882, 1420, 159, 1804, 9959, 10484, 10728, 9832, 9064, 7691
10213, 159, 1420, 6882, 1305, 10484, 9959, 10728, 1307, 8244, 10701
10214, 1439, 1438, 5788, 1418, 1448, 10729, 7197, 4286, 4282, 10452
10215, 1439, 5788, 1438, 2049, 7197, 10729, 1448, 5681, 5840, 5680
10216, 5793, 5788, 1438, 1418, 5841, 10729, 10170, 10294, 10452, 4282
10217, 5793, 1438, 5788, 2049, 10170, 10729, 5841, 5836, 5680, 5840
10218, 1061, 83, 3196, 757, 10113, 10730, 9629, 9809, 759, 10617
10219, 1061, 3196, 83, 800, 9629, 10730, 10113, 9966, 9776, 10410
10220, 630, 3196, 83, 757, 10206, 10730, 2573, 8758, 10617, 759
10221, 630, 83, 3196, 800, 2573, 10730, 10206, 2640, 10410, 9776
10222, 1400, 1416, 1580, 139, 10496, 10016, 8636, 1401, 10447, 8637
10223, 3282, 2859, 3278, 3291, 10492, 6919, 3338, 3352, 6918, 3353
10224, 3282, 3278, 2859, 1032, 3338, 6919, 10492, 9510, 7258, 7256
10225, 359, 335, 5587, 5971, 10493, 8395, 5644, 5977, 9924, 9356
10226, 359, 5587, 335, 5606, 5644, 8395, 10493, 5641, 5645, 8394
10227, 790, 798, 3030, 1032, 9728, 10721, 9658, 9818, 9540, 3064
10228, 3030, 798, 790, 72, 10721, 9728, 9658, 9693, 9729, 792
10229, 1417, 1416, 1580, 1400, 1426, 10016, 10731, 8241, 10496, 8636
10230, 1580, 1416, 1417, 5430, 10016, 1426, 10731, 9663, 10186, 10446
10231, 1580, 1581, 1417, 1400, 1587, 10106, 10731, 8636, 8707, 8241
10232, 1417, 1581, 1580, 5430, 10106, 1587, 10731, 10446, 9133, 9663
10233, 347, 6861, 360, 340, 8178, 10273, 2099, 5953, 8116, 2100
10234, 347, 360, 6861, 346, 2099, 10273, 8178, 2013, 5954, 9801
10235, 3506, 3498, 2837, 3504, 3573, 8986, 10501, 3563, 3530, 8646
10236, 3506, 2837, 3498, 3497, 10501, 8986, 3573, 3574, 8985, 3556
10237, 339, 6870, 6849, 6365, 9263, 10524, 10488, 9261, 9109, 7154
10238, 339, 6849, 6870, 5546, 10488, 10524, 9263, 5549, 6986, 10242
10239, 5443, 1417, 6897, 5615, 10499, 10001, 8419, 7426, 8259, 8420
10240, 5443, 6897, 1417, 1581, 8419, 10001, 10499, 8811, 8813, 10106
10241, 2837, 3506, 2841, 6860, 10501, 10732, 3006, 9726, 7869, 9132
10242, 2837, 2841, 3506, 3504, 3006, 10732, 10501, 8646, 8645, 3563
10243, 3492, 2841, 3506, 6860, 8417, 10732, 3562, 8003, 9132, 7869
10244, 3492, 3506, 2841, 3504, 3562, 10732, 8417, 3534, 3563, 8645
10245, 5789, 5786, 1418, 5796, 9187, 10733, 9134, 5851, 5859, 10295
10246, 1418, 5786, 5789, 5592, 10733, 9187, 9134, 9135, 7601, 6920
10247, 5786, 1438, 1418, 5796, 10734, 4282, 10733, 5859, 10296, 10295
10248, 1418, 1438, 5786, 5592, 4282, 10734, 10733, 9135, 5684, 7601
10249, 5786, 5793, 1438, 5796, 5838, 10170, 10734, 5859, 5858, 10296
10250, 1438, 5793, 5786, 5592, 10170, 5838, 10734, 5684, 10623, 7601
10251, 3704, 9, 6876, 11, 3732, 10735, 9930, 3731, 414, 8871
10252, 3704, 6876, 9, 6858, 9930, 10735, 3732, 9660, 9933, 10193
10253, 6812, 6876, 9, 11, 8872, 10735, 10474, 8869, 8871, 414
10254, 6812, 9, 6876, 6858, 10474, 10735, 8872, 8265, 10193, 9933
10255, 91, 3151, 3150, 1075, 9632, 3180, 10736, 10204, 3164, 3189
10256, 3150, 3151, 91, 733, 3180, 9632, 10736, 10714, 9687, 735
10257, 3150, 801, 91, 1075, 9535, 10528, 10736, 3189, 8640, 10204
10258, 91, 801, 3150, 733, 10528, 9535, 10736, 735, 9730, 10714
10259, 389, 379, 1453, 4685, 2154, 10640, 8923, 8107, 10506, 7889
10260, 1453, 379, 389, 388, 10640, 2154, 8923, 8924, 2151, 392
10261, 5790, 1757, 151, 1345, 8231, 9571, 10737, 10539, 9949, 1347
10262, 151, 1757, 5790, 1419, 9571, 8231, 10737, 10293, 9960, 8153
10263, 151, 1193, 5790, 1345, 4055, 9445, 10737, 1347, 6966, 10539
10264, 5790, 1193, 151, 1419, 9445, 4055, 10737, 8153, 4262, 10293
10265, 470, 480, 1875, 6356, 2226, 10551, 10533, 7493, 8797, 6384
10266, 1875, 480, 470, 471, 10551, 2226, 10533, 10534, 2223, 474
10267, 417, 347, 6807, 346, 10546, 9943, 9768, 9867, 2013, 9557
10268, 417, 6807, 347, 426, 9768, 9943, 10546, 2181, 9847, 10520
10269, 498, 6809, 332, 331, 9751, 10066, 10738, 9749, 9308, 1868
10270, 332, 6809, 498, 489, 10066, 9751, 10738, 9392, 10073, 2237
10271, 332, 6356, 498, 331, 9393, 9041, 10738, 1868, 8221, 9749
10272, 498, 6356, 332, 489, 9041, 9393, 10738, 2237, 9088, 9392
10273, 1418, 1756, 148, 1360, 10188, 9892, 10582, 10187, 8991, 1362
10274, 1834, 399, 398, 6887, 9421, 402, 10564, 7437, 9424, 9489
10275, 1834, 398, 399, 408, 10564, 402, 9421, 8983, 2169, 2167
10276, 790, 797, 1031, 68, 10555, 10231, 9819, 791, 10463, 10080
10277, 798, 797, 1031, 790, 807, 10231, 10739, 9728, 10555, 9819
10278, 1031, 797, 798, 3282, 10231, 807, 10739, 9410, 10153, 10465
10279, 1031, 1032, 798, 790, 1038, 9540, 10739, 9819, 9818, 9728
10280, 798, 1032, 1031, 3282, 9540, 1038, 10739, 10465, 9510, 9410
10281, 6809, 471, 333, 334, 10059, 10740, 10067, 10060, 10058, 1870
10282, 6809, 333, 471, 480, 10067, 10740, 10059, 10068, 10065, 2223
10283, 1875, 333, 471, 334, 5085, 10740, 10534, 10437, 1870, 10058
10284, 1875, 471, 333, 480, 10534, 10740, 5085, 10551, 2223, 10065
10285, 6811, 216, 469, 213, 10029, 10741, 10013, 10015, 1497, 10011
10286, 6811, 469, 216, 478, 10013, 10741, 10029, 10028, 2221, 10027
10287, 1491, 469, 216, 213, 7581, 10741, 4352, 10438, 10011, 1497
10288, 1491, 216, 469, 478, 4352, 10741, 7581, 8530, 10027, 2221
10289, 373, 6458, 1833, 6133, 10567, 9705, 9871, 9250, 9201, 6296
10290, 373, 1833, 6458, 6786, 9871, 9705, 10567, 6787, 9704, 9702
10291, 1615, 517, 218, 219, 10511, 10742, 4607, 1617, 8787, 1500
10292, 6355, 218, 517, 219, 9438, 10742, 8880, 9437, 1500, 8787
10293, 6355, 517, 218, 496, 8880, 10742, 9438, 9396, 9397, 9998
10294, 105, 109, 2849, 3281, 10569, 10743, 2878, 3297, 9635, 8748
10295, 105, 2849, 109, 3367, 2878, 10743, 10569, 10481, 9680, 9940
10296, 1115, 2849, 109, 3281, 8747, 10743, 8457, 8526, 8748, 9635
10297, 1115, 109, 2849, 3367, 8457, 10743, 8747, 3394, 9940, 9680
10298, 111, 2854, 6830, 1056, 10570, 7305, 7203, 1062, 7173, 7202
10299, 111, 6830, 2854, 2855, 7203, 7305, 10570, 7547, 7546, 3012
10300, 1355, 5790, 149, 1756, 10580, 10744, 1357, 10143, 8413, 9908
10301, 1355, 149, 5790, 1193, 1357, 10744, 10580, 10130, 4051, 9445
10302, 1350, 149, 5790, 1756, 1351, 10744, 8230, 8414, 9908, 8413
10303, 1350, 5790, 149, 1193, 8230, 10744, 1351, 9444, 9445, 4051
10304, 1355, 1418, 1756, 148, 10579, 10188, 10143, 1356, 10582, 9892
10305, 1756, 1418, 1355, 5785, 10188, 10579, 10143, 9563, 10201, 10581
10306, 775, 798, 6855, 76, 10587, 9686, 8345, 776, 9733, 9896
10307, 798, 6855, 1058, 775, 9686, 7698, 10745, 10587, 8345, 10505
10308, 1058, 6855, 798, 6894, 7698, 9686, 10745, 7185, 7460, 9365
10309, 1058, 799, 798, 775, 8862, 808, 10745, 10505, 9975, 10587
10310, 798, 799, 1058, 6894, 808, 8862, 10745, 9365, 8863, 7185
10311, 745, 2264, 111, 6857, 10592, 7102, 10614, 10590, 7151, 7205
10312, 745, 111, 2264, 86, 10614, 7102, 10592, 746, 9431, 10513
10313, 1947, 1186, 335, 136, 10691, 10746, 1953, 8763, 4020, 9536
10314, 1947, 335, 1186, 1413, 1953, 10746, 10691, 10262, 9388, 4249
10315, 1412, 335, 1186, 136, 8214, 10746, 4248, 9448, 9536, 4020
10316, 1412, 1186, 335, 1413, 4248, 10746, 8214, 1422, 4249, 9388
10317, 1461, 1567, 1454, 4695, 4537, 10747, 4334, 8903, 4763, 8904
10318, 1461, 1454, 1567, 1462, 4334, 10747, 4537, 1464, 4332, 4536
10319, 4685, 1454, 1567, 4695, 7624, 10747, 4700, 4769, 8904, 4763
10320, 4685, 1567, 1454, 1462, 4700, 10747, 7624, 8690, 4536, 4332
10321, 243, 415, 6812, 244, 10595, 9808, 10630, 1607, 9807, 8673
10322, 243, 6812, 415, 424, 10630, 9808, 10595, 9467, 10468, 2179
10323, 243, 6831, 127, 244, 9618, 10716, 1613, 1607, 10604, 5073
10324, 243, 127, 6831, 126, 1613, 10716, 9618, 4601, 1166, 9096
10325, 498, 36, 6439, 515, 10608, 6549, 10748, 9963, 518, 10610
10326, 498, 6439, 36, 6843, 10748, 6549, 10608, 7339, 7850, 9891
10327, 2022, 498, 6439, 515, 10749, 10748, 7836, 8725, 9963, 10610
10328, 2022, 6439, 498, 6843, 7836, 10748, 10749, 7851, 7850, 7339
10329, 329, 498, 2022, 515, 9750, 10749, 5564, 8786, 9963, 8725
10330, 329, 2022, 498, 6843, 5564, 10749, 9750, 10717, 7851, 7339
10331, 6853, 18, 6419, 20, 10750, 6521, 9039, 10404, 449, 6522
10332, 18, 6807, 6853, 6828, 10751, 10019, 10750, 10434, 9624, 10394
10333, 6853, 6807, 18, 20, 10019, 10751, 10750, 10404, 10726, 449
10334, 18, 444, 6807, 6828, 2194, 9621, 10751, 10434, 9623, 9624
10335, 6807, 444, 18, 20, 9621, 2194, 10751, 10726, 448, 449
10336, 18, 6467, 6853, 6419, 6519, 9040, 10750, 6521, 6523, 9039
10337, 18, 6853, 6467, 6828, 10750, 9040, 6519, 10434, 10394, 10035
10338, 799, 1060, 80, 766, 10142, 10167, 10638, 10342, 9967, 768
10339, 6854, 6133, 390, 6134, 8071, 10613, 10752, 9578, 6300, 10642
10340, 6854, 390, 6133, 6828, 10752, 10613, 8071, 7413, 9509, 8070
10341, 399, 6854, 390, 6134, 10753, 10752, 2160, 10627, 9578, 10642
10342, 399, 390, 6854, 6828, 2160, 10752, 10753, 9508, 9509, 7413
10343, 408, 6854, 399, 6134, 10022, 10753, 2167, 10626, 9578, 10627
10344, 408, 399, 6854, 6828, 2167, 10753, 10022, 10480, 9508, 7413
10345, 517, 6900, 218, 496, 8703, 10615, 10742, 9397, 9742, 9998
10346, 517, 218, 6900, 1615, 10742, 10615, 8703, 10511, 4607, 8550
10347, 763, 3196, 81, 1060, 10636, 10754, 765, 10038, 9507, 10037
10348, 763, 81, 3196, 630, 765, 10754, 10636, 10393, 2569, 10206
10349, 760, 81, 3196, 1060, 761, 10754, 9978, 9979, 10037, 9507
10350, 760, 3196, 81, 630, 9978, 10754, 761, 10207, 10206, 2569
10351, 763, 799, 1060, 80, 10635, 10142, 10038, 764, 10638, 10167
10352, 1060, 799, 763, 3201, 10142, 10635, 10038, 9486, 10141, 10637
10353, 1453, 379, 6858, 6135, 10640, 8565, 9031, 6272, 10641, 9339
10354, 6858, 379, 1453, 388, 8565, 10640, 9031, 8564, 2151, 8924
10355, 6812, 451, 243, 6808, 10473, 10554, 10630, 9188, 10082, 10062
10356, 6812, 243, 451, 442, 10630, 10554, 10473, 10470, 9277, 2202
10357, 1923, 310, 5253, 263, 1925, 10755, 5257, 1924, 9073, 5255
10358, 1923, 5253, 310, 5252, 5257, 10755, 1925, 5260, 10648, 5258
10359, 6823, 5253, 310, 263, 10428, 10755, 9075, 9074, 5255, 9073
10360, 6823, 310, 5253, 5252, 9075, 10755, 10428, 10210, 5258, 10648
10361, 1216, 133, 3690, 1579, 1218, 3823, 10656, 10657, 10321, 9053
10362, 3690, 133, 1216, 1180, 3823, 1218, 10656, 3824, 1183, 6793
10363, 3690, 1172, 6123, 1591, 3822, 6270, 10756, 9051, 6145, 6217
10364, 6123, 1172, 3690, 1180, 6270, 3822, 10756, 10034, 3839, 3824
10365, 6123, 1216, 3690, 1591, 9692, 10656, 10756, 6217, 9691, 9051
10366, 3690, 1216, 6123, 1180, 10656, 9692, 10756, 3824, 6793, 10034
10367, 159, 6120, 6882, 1804, 10658, 9770, 10728, 7691, 9350, 9832
10368, 159, 6882, 6120, 4088, 10728, 9770, 10658, 4092, 10702, 9797
10369, 6120, 6106, 4088, 6882, 6158, 10757, 9797, 9770, 9771, 10702
10370, 6120, 4088, 6106, 4094, 9797, 10757, 6158, 9798, 9796, 9909
10371, 6106, 157, 1310, 6882, 10661, 1311, 10758, 9771, 10099, 10272
10372, 6106, 1310, 157, 4094, 10758, 1311, 10661, 9909, 4097, 4096
10373, 158, 6106, 1310, 6882, 10759, 10758, 1312, 10547, 9771, 10272
10374, 158, 1310, 6106, 4094, 1312, 10758, 10759, 4098, 4097, 9909
10375, 4088, 6106, 158, 6882, 10757, 10759, 4090, 10702, 9771, 10547
10376, 4088, 158, 6106, 4094, 4090, 10759, 10757, 9796, 4098, 9909
10377, 94, 801, 1075, 91, 811, 8640, 10274, 10455, 10528, 10204
10378, 1075, 801, 94, 3404, 8640, 811, 10274, 9836, 6953, 6952
10379, 143, 6840, 4178, 6850, 10663, 7743, 4180, 9854, 8737, 8970
10380, 143, 4178, 6840, 1380, 4180, 7743, 10663, 1381, 4181, 9192
10381, 6850, 6113, 1417, 1581, 8095, 10760, 9948, 8519, 7765, 10106
10382, 6850, 1417, 6113, 4196, 9948, 10760, 8095, 8097, 9518, 8093
10383, 140, 1417, 6113, 1581, 8242, 10760, 10664, 8706, 10106, 7765
10384, 140, 6113, 1417, 4196, 10664, 10760, 8242, 4198, 8093, 9518
10385, 1755, 6110, 1370, 6840, 8130, 10761, 8784, 9404, 8676, 10055
10386, 1755, 1370, 6110, 4166, 8784, 10761, 8130, 8129, 4169, 8128
10387, 145, 1370, 6110, 6840, 1371, 10761, 10666, 9617, 10055, 8676
10388, 145, 6110, 1370, 4166, 10666, 10761, 1371, 4168, 8128, 4169
10389, 174, 175, 4895, 1780, 1353, 10762, 9915, 6182, 6181, 4943
10390, 174, 4895, 175, 4148, 9915, 10762, 1353, 4153, 9839, 4149
10391, 1756, 4895, 175, 1780, 4942, 10762, 10670, 4939, 4943, 6181
10392, 1756, 175, 4895, 4148, 10670, 10762, 4942, 9837, 4149, 9839
10393, 5428, 5436, 6899, 5441, 5463, 7651, 10763, 5493, 5492, 9637
10394, 6899, 5436, 5428, 1578, 7651, 5463, 10763, 9195, 9698, 9673
10395, 6899, 1415, 5428, 5441, 9965, 10549, 10763, 9637, 10688, 5493
10396, 5428, 1415, 6899, 1578, 10549, 9965, 10763, 9673, 9485, 9195
10397, 139, 6125, 1405, 1580, 10665, 10764, 1407, 8637, 7662, 10018
10398, 139, 1405, 6125, 4208, 1407, 10764, 10665, 4212, 4211, 10224
10399, 138, 1405, 6125, 1580, 1406, 10764, 10672, 10017, 10018, 7662
10400, 138, 6125, 1405, 4208, 10672, 10764, 1406, 4210, 10224, 4211
10401, 1412, 1988, 5881, 1800, 10678, 10765, 8408, 8213, 5532, 8314
10402, 1412, 5881, 1988, 5876, 8408, 10765, 10678, 6994, 5932, 5899
10403, 5868, 5881, 1988, 1800, 5933, 10765, 5901, 9761, 8314, 5532
10404, 5868, 1988, 5881, 5876, 5901, 10765, 5933, 5903, 5899, 5932
10405, 1413, 5968, 5962, 1947, 10112, 5986, 10766, 10262, 9821, 9411
10406, 5962, 5968, 1413, 5958, 5986, 10112, 10766, 6024, 6023, 10158
10407, 1413, 5973, 5962, 5958, 10454, 6016, 10766, 10158, 6025, 6024
10408, 1948, 1413, 5962, 1947, 8710, 10766, 8212, 1954, 10262, 9411
10409, 1948, 5962, 1413, 5973, 8212, 10766, 8710, 8210, 6016, 10454
10410, 6861, 361, 6471, 6819, 10679, 6600, 9314, 9559, 9817, 7177
10411, 6861, 6471, 361, 360, 9314, 6600, 10679, 10273, 6599, 2102
10412, 6809, 332, 6832, 333, 10066, 10767, 9580, 10067, 1869, 8711
10413, 6809, 6832, 332, 2018, 9580, 10767, 10066, 8092, 9581, 10145
10414, 352, 332, 6832, 2018, 5569, 10767, 10680, 5568, 10145, 9581
10415, 352, 6832, 6474, 6885, 10680, 10768, 6592, 9672, 9582, 7998
10416, 352, 6474, 6832, 353, 6592, 10768, 10680, 2028, 6593, 10287
10417, 6430, 6474, 6832, 6885, 6597, 10768, 8857, 7393, 7998, 9582
10418, 6430, 6832, 6474, 353, 8857, 10768, 6597, 6595, 10287, 6593
10419, 353, 6832, 332, 333, 10287, 10767, 2027, 5570, 8711, 1869
10420, 353, 332, 6832, 352, 2027, 10767, 10287, 2028, 5569, 10680
10421, 800, 104, 967, 898, 10682, 974, 10769, 2770, 2870, 2871
10422, 967, 104, 800, 3194, 974, 10682, 10769, 3215, 3212, 9777
10423, 967, 3200, 800, 898, 3235, 9778, 10769, 2871, 7181, 2770
10424, 800, 3200, 967, 3194, 9778, 3235, 10769, 9777, 3238, 3215
10425, 5441, 1435, 5613, 6899, 10687, 5667, 10770, 9637, 10069, 9649
10426, 5441, 5613, 1435, 5438, 10770, 5667, 10687, 5512, 7079, 7370
10427, 1962, 5441, 5613, 6899, 10771, 10770, 5699, 8434, 9637, 9649
10428, 1962, 5613, 5441, 5438, 5699, 10770, 10771, 5478, 7079, 5512
10429, 5433, 5441, 1962, 6899, 5511, 10771, 5474, 7650, 9637, 8434
10430, 5433, 1962, 5441, 5438, 5474, 10771, 5511, 5479, 5478, 5512
10431, 1416, 1415, 5445, 5428, 1425, 10772, 10195, 10194, 10549, 5490
10432, 1416, 5445, 1415, 1435, 10195, 10772, 1425, 4278, 10491, 4279
10433, 5441, 5445, 1415, 5428, 5494, 10772, 10688, 5493, 5490, 10549
10434, 5441, 1415, 5445, 1435, 10688, 10772, 5494, 10687, 4279, 10491
10435, 6808, 6814, 451, 460, 9935, 10693, 10082, 10047, 10475, 2208
10436, 6812, 6814, 6808, 6835, 10724, 9935, 9188, 10103, 10202, 10104
10437, 6812, 6808, 6814, 451, 9188, 9935, 10724, 10473, 10082, 10693
10438, 5068, 129, 3645, 245, 5069, 3814, 10773, 5071, 1864, 10694
10439, 3645, 129, 5068, 3658, 3814, 5069, 10773, 3816, 3813, 8942
10440, 3645, 6825, 5068, 245, 10703, 8943, 10773, 10694, 7979, 5071
10441, 5068, 6825, 3645, 3658, 8943, 10703, 10773, 8942, 7721, 3816
10442, 6436, 345, 6138, 6854, 10695, 10125, 10042, 9166, 9297, 9667
10443, 6436, 6138, 345, 5559, 10042, 10125, 10695, 10238, 9450, 5560
10444, 6853, 22, 453, 20, 10347, 457, 10713, 10404, 458, 2200
10445, 453, 22, 6853, 6818, 457, 10347, 10713, 10140, 10478, 9931
10446, 795, 2862, 3497, 2837, 10698, 7058, 8987, 8989, 2907, 8985
10447, 795, 3497, 2862, 6902, 8987, 7058, 10698, 9903, 8554, 8552
*NSET, NSET=FIX
238,
281,
336,
357,
362,
1577,
1582,
1583,
1589,
1729,
1735,
1752,
1753,
1759,
1950,
1951,
1952,
1957,
1958,
1960,
1961,
1966,
1967,
1973,
1975,
2036,
2037,
2043,
2045,
2046,
2047,
2052,
2053,
2058,
2059,
2060,
2061,
2062,
2063,
2064,
2065,
2066,
2067,
2068,
2069,
2070,
2072,
2073,
2074,
2075,
2079,
2080,
2081,
2087,
2088,
2089,
2094,
2095,
2105,
2106,
2107,
2108,
2109,
2110,
2111,
2112,
2113,
2114,
2115,
2116,
2117,
2118,
4543,
4544,
4550,
4562,
4565,
4566,
4867,
4868,
4869,
4870,
4889,
4890,
4914,
4928,
4936,
4937,
5354,
5367,
5407,
5410,
5411,
5412,
5429,
5433,
5439,
5440,
5444,
5446,
5447,
5448,
5449,
5450,
5453,
5454,
5455,
5456,
5457,
5475,
5476,
5495,
5518,
5519,
5576,
5583,
5584,
5585,
5586,
5587,
5588,
5589,
5590,
5591,
5594,
5595,
5596,
5597,
5598,
5599,
5601,
5603,
5604,
5605,
5607,
5608,
5609,
5610,
5611,
5612,
5614,
5616,
5617,
5618,
5619,
5620,
5626,
5627,
5628,
5629,
5630,
5635,
5636,
5637,
5638,
5639,
5640,
5643,
5652,
5693,
5694,
5696,
5697,
5698,
5703,
5705,
5706,
5707,
5708,
5709,
5710,
5711,
5712,
5713,
5716,
5717,
5718,
5719,
5720,
5721,
5722,
5723,
5724,
5725,
5726,
5727,
5728,
5729,
5730,
5731,
5732,
5733,
5734,
5735,
5736,
5737,
5738,
5739,
5740,
5741,
5742,
5743,
5744,
5745,
5747,
5748,
5750,
5751,
5752,
5753,
5754,
5755,
5756,
5760,
5761,
5763,
5764,
5765,
5766,
5767,
5768,
5769,
5770,
5771,
5772,
5773,
5774,
5775,
5776,
5777,
5778,
5779,
5780,
5783,
5784,
5787,
5791,
5792,
5794,
5795,
5797,
5798,
5807,
5812,
5813,
5814,
5816,
5827,
5828,
5829,
5830,
5831,
5832,
5843,
5845,
5846,
5847,
5848,
5849,
5850,
5857,
5861,
5862,
5863,
5864,
5868,
5870,
5871,
5874,
5877,
5878,
5882,
5885,
5906,
5909,
5917,
5918,
5920,
5921,
5922,
5923,
5924,
5925,
5930,
5931,
5938,
5939,
5943,
5944,
5945,
5946,
5947,
5959,
5960,
5964,
5967,
5969,
5970,
5971,
5983,
5994,
5996,
5998,
5999,
6009,
6010,
6012,
6013,
6014,
6015,
6027,
6028,
6029,
6031,
6032,
6033,
6034,
6039,
6041,
6042,
6043,
6044,
6045,
6046,
6047,
6048,
6049,
6050,
6051,
6052,
6053,
6054,
6055,
6056,
6057,
6058,
6059,
6060,
6061,
6062,
6063,
6064,
6065,
6066,
6067,
6068,
6069,
6070,
6071,
6072,
6073,
6074,
6075,
6076,
6077,
6078,
6079,
6080,
6081,
6082,
6083,
6084,
6085,
6086,
6087,
6088,
6089,
*MATERIAL, NAME=MAT
*ELASTIC
3500, 0.36
*SOLID SECTION, ELSET=EALL, MATERIAL=MAT
*STEP
*STATIC
*BOUNDARY
FIX, 1, 3, 0.0
*CLOAD
969, 3, -0.0391466544
970, 3, -0.0360039517
981, 3, -0.033875249
987, 3, -0.0431231024
994, 3, -0.124663058
995, 3, -0.128534399
996, 3, -0.158470557
997, 3, -0.133562272
998, 3, -0.158461195
999, 3, -0.133818748
1000, 3, -0.124062107
1009, 3, -0.0375577047
1010, 3, -0.0386162245
1011, 3, -0.0387607909
1024, 3, -0.0369758395
1025, 3, -0.0382720902
1034, 3, -0.112878341
1040, 3, -0.11337865
1052, 3, -0.0482777332
1053, 3, -0.107455635
1063, 3, -0.108655696
1103, 3, -0.0240887157
1110, 3, -0.0650118496
1111, 3, -0.107625361
1118, 3, -0.205408872
1119, 3, -0.196545729
1120, 3, -0.202571835
1121, 3, -0.200153525
1122, 3, -0.201775834
1123, 3, -0.197961737
1124, 3, -0.204375482
1150, 3, -0.0238312709
2874, 3, -0.0218829265
2875, 3, -0.0388032063
2876, 3, -0.0557901471
2877, 3, -0.0478667395
2878, 3, -0.0397670343
2879, 3, -0.070967596
2880, 3, -0.111579016
2881, 3, -0.161839985
2882, 3, -0.183193184
2883, 3, -0.111231826
2884, 3, -0.0842501518
2887, 3, -0.0315645578
2896, 3, -0.0724809582
2937, 3, -0.0590902104
2938, 3, -0.0402162189
2939, 3, -0.0392676517
2940, 3, -0.073329335
2941, 3, -0.0407775895
2942, 3, -0.0198432302
2943, 3, -0.0791809739
2946, 3, -0.0222568061
2948, 3, -0.0944082512
2949, 3, -0.0594048956
2950, 3, -0.0222568061
2955, 3, -0.0224235852
2957, 3, -0.0742278369
2958, 3, -0.0506844391
2959, 3, -0.0224235852
2960, 3, -0.135779333
2961, 3, -0.129064451
2962, 3, -0.143461469
2963, 3, -0.0947113598
2964, 3, -0.131284017
2965, 3, -0.173806627
2966, 3, -0.154867289
2967, 3, -0.172052284
2968, 3, -0.186321732
2969, 3, -0.121778476
2970, 3, -0.130548892
2971, 3, -0.0757676732
2972, 3, -0.133641733
2973, 3, -0.127188019
2974, 3, -0.13571706
2975, 3, -0.138947829
2976, 3, -0.185714158
2977, 3, -0.170754347
2978, 3, -0.127297921
2979, 3, -0.135359199
2980, 3, -0.0967734303
2981, 3, -0.138064641
2982, 3, -0.152485291
2983, 3, -0.13002437
2984, 3, -0.124617741
2985, 3, -0.124113673
2986, 3, -0.152512571
2987, 3, -0.15290224
2988, 3, -0.192965992
2989, 3, -0.138935517
2991, 3, -0.0198105381
2992, 3, -0.0461610345
2994, 3, -0.062729278
2995, 3, -0.0425753446
2996, 3, -0.0662142169
2997, 3, -0.0694413208
2998, 3, -0.0427767336
2999, 3, -0.0198398426
3000, 3, -0.0627184458
3004, 3, -0.0199056048
3005, 3, -0.0413130215
3007, 3, -0.0403496671
3008, 3, -0.0525784719
3009, 3, -0.0652007793
3010, 3, -0.0663710627
3011, 3, -0.0514464085
3012, 3, -0.0590902104
3013, 3, -0.0348065049
3014, 3, -0.107287463
3015, 3, -0.0636532434
3016, 3, -0.0636532434
3017, 3, -0.0540282609
3018, 3, -0.0540282609
3019, 3, -0.0631306729
3020, 3, -0.0631306729
3021, 3, -0.054029393
3022, 3, -0.054029393
3023, 3, -0.0398637204
3024, 3, -0.0397815548
3035, 3, -0.0653119486
3036, 3, -0.064492618
3040, 3, -0.064492618
3041, 3, -0.0653119486
3097, 3, -0.0644031701
3105, 3, -0.0644031701
3107, 3, -0.0604953613
3108, 3, -0.124898531
3140, 3, -0.0616236531
3141, 3, -0.0616236531
3213, 3, -0.0117999074
3216, 3, -0.0187246732
3221, 3, -0.0364937656
3222, 3, -0.0326132694
3223, 3, -0.0305245806
3224, 3, -0.0328906882
3225, 3, -0.0318411252
3226, 3, -0.0279741508
3229, 3, -0.0167299666
3231, 3, -0.0282391494
3240, 3, -0.018905527
3241, 3, -0.0237943003
3242, 3, -0.018905527
3244, 3, -0.0333706603
3255, 3, -0.0148565807
3257, 3, -0.0293217139
3258, 3, -0.0263657634
3259, 3, -0.0300756883
3265, 3, -0.0425189735
3266, 3, -0.0394048553
3269, 3, -0.0279043022
3270, 3, -0.02380293
3294, 3, -0.055461407
3295, 3, -0.0321190931
3296, 3, -0.0564546674
3297, 3, -0.0564099733
3298, 3, -0.0269907104
3299, 3, -0.0385755052
3300, 3, -0.0450183869
3301, 3, -0.0419378414
3304, 3, -0.0235619109
3305, 3, -0.0235619109
3307, 3, -0.011757519
3308, 3, -0.0303530466
3320, 3, -0.02150117
3323, 3, -0.02150117
3345, 3, -0.0185955276
3368, 3, -0.110658152
3369, 3, -0.10767785
3370, 3, -0.108180489
3371, 3, -0.11113714
3372, 3, -0.109459215
3373, 3, -0.109033642
3374, 3, -0.112415865
3375, 3, -0.112013944
3376, 3, -0.107422392
3377, 3, -0.106372156
3378, 3, -0.107757797
3379, 3, -0.106623744
3380, 3, -0.107541788
3381, 3, -0.108238483
3382, 3, -0.107994179
3383, 3, -0.10767398
3384, 3, -0.110775012
3385, 3, -0.111566216
3386, 3, -0.1111378
3387, 3, -0.107662394
3388, 3, -0.110078316
3389, 3, -0.107219071
3390, 3, -0.108208767
3391, 3, -0.107902718
3392, 3, -0.108210259
3393, 3, -0.109783759
3394, 3, -0.107647488
3395, 3, -0.106431806
3396, 3, -0.108324957
3397, 3, -0.108455027
3398, 3, -0.108957797
3399, 3, -0.110089808
3400, 3, -0.107475117
3401, 3, -0.107064646
3436, 3, -0.0362717392
3437, 3, -0.0177471666
3439, 3, -0.0378977505
3440, 3, -0.0375023435
3441, 3, -0.0323235511
3442, 3, -0.0189209482
3443, 3, -0.0378409278
3444, 3, -0.0323601667
3457, 3, -0.0132649175
3460, 3, -0.0131600902
3465, 3, -0.0132649175
3466, 3, -0.026626326
3472, 3, -0.0265214987
3473, 3, -0.0131600902
3480, 3, -0.0134401871
3481, 3, -0.026694157
3482, 3, -0.0270529484
3483, 3, -0.0137989785
3484, 3, -0.0266153784
3515, 3, -0.021738428
3532, 3, -0.0345890007
3533, 3, -0.0170702347
3535, 3, -0.0410682679
3536, 3, -0.0368486058
3537, 3, -0.0308210818
3538, 3, -0.04577186
3549, 3, -0.0208043641
3551, 3, -0.0208043641
3553, 3, -0.0340165577
3560, 3, -0.0268609026
3561, 3, -0.0271546488
3562, 3, -0.0138523329
3564, 3, -0.0263000387
3567, 3, -0.024033432
3568, 3, -0.0375920188
3571, 3, -0.0267707804
3572, 3, -0.0256598995
3575, 3, -0.0124477059
3576, 3, -0.0480667011
3577, 3, -0.0721554168
3578, 3, -0.0724744386
3579, 3, -0.0483857229
3594, 3, -0.0469602736
3601, 3, -0.0482777332
3602, 3, -0.0721090041
3603, 3, -0.0707915445
3609, 3, -0.0470320429
3610, 3, -0.0470320429
3633, 3, -0.290672789
3634, 3, -0.295614423
3635, 3, -0.290733746
3636, 3, -0.288662751
3637, 3, -0.293090366
3638, 3, -0.292708371
3639, 3, -0.289144994
*NODE FILE
U
*EL FILE
S
*END STEP
